13
Coordinates from ORCA-job PC_anion_cpcm_80_default E -381.657480855926
  C       1.583626     -0.338288      0.054397
  C       0.119798     -0.420765      0.465192
  C      -0.580686      0.955929      0.520491
  O      -1.536891      0.900638     -0.517985
  C      -1.543081     -0.317687     -1.088214
  O      -2.261602     -0.637900     -1.974707
  O      -0.631599     -1.120046     -0.518743
  H       2.151951      0.180080      0.821850
  H       1.681034      0.194200     -0.889025
  H       1.984583     -1.340186     -0.070884
  H       0.020096     -0.969659      1.408167
  H       0.108962      1.780275      0.321121
  H      -1.096192      1.133408      1.468342
13
Coordinates from ORCA-job PC_anion_cpcm_80_default E -381.683026534889
  C       1.599262     -0.343384      0.061953
  C       0.129944     -0.409643      0.460011
  C      -0.580010      0.959833      0.521558
  O      -1.559184      0.908379     -0.522792
  C      -1.516864     -0.295792     -1.152009
  O      -2.347187     -0.671662     -1.947792
  O      -0.630168     -1.118185     -0.536370
  H       2.166630      0.168687      0.843774
  H       1.716755      0.193583     -0.880704
  H       1.995689     -1.353563     -0.061739
  H       0.020248     -0.949692      1.406881
  H       0.098190      1.799416      0.330317
  H      -1.093304      1.112024      1.476911
13
Coordinates from ORCA-job PC_anion_cpcm_80_default E -381.706206347750
  C       1.605205     -0.346703      0.067237
  C       0.134345     -0.404411      0.455047
  C      -0.579750      0.962334      0.522224
  O      -1.566662      0.921629     -0.523157
  C      -1.480526     -0.274074     -1.218538
  O      -2.414244     -0.700664     -1.912950
  O      -0.619057     -1.122204     -0.545746
  H       2.171259      0.164855      0.852263
  H       1.732409      0.189952     -0.876662
  H       2.000551     -1.359667     -0.051056
  H       0.014741     -0.936977      1.405562
  H       0.091447      1.812262      0.342899
  H      -1.089717      1.093668      1.482876
13
Coordinates from ORCA-job PC_anion_cpcm_80_default E -381.716978401909
  C       1.606888     -0.346816      0.072414
  C       0.136365     -0.405745      0.450224
  C      -0.578346      0.963182      0.520067
  O      -1.570328      0.939675     -0.520505
  C      -1.461267     -0.261232     -1.265407
  O      -2.463294     -0.719660     -1.894474
  O      -0.608667     -1.133600     -0.548478
  H       2.171326      0.167605      0.858225
  H       1.738513      0.190328     -0.872436
  H       2.006910     -1.359152     -0.041162
  H       0.009679     -0.931995      1.404430
  H       0.094054      1.814656      0.350770
  H      -1.081831      1.082755      1.486331
13
Coordinates from ORCA-job PC_anion_cpcm_80_default E -381.722967122584
  C       1.600184     -0.342977      0.075955
  C       0.128865     -0.411746      0.442432
  C      -0.578907      0.957322      0.513935
  O      -1.565260      0.939281     -0.522792
  C      -1.417267     -0.241754     -1.329323
  O      -2.484265     -0.726061     -1.824775
  O      -0.614080     -1.138096     -0.548865
  H       2.161141      0.174029      0.862847
  H       1.733457      0.198722     -0.866373
  H       2.009686     -1.351300     -0.036818
  H       0.000867     -0.937814      1.397453
  H       0.106716      1.800007      0.355109
  H      -1.081135      1.080386      1.481213
13
Coordinates from ORCA-job PC_anion_cpcm_80_default E -381.723931213491
  C       1.591037     -0.341375      0.071502
  C       0.122860     -0.419510      0.450933
  C      -0.581102      0.955238      0.520970
  O      -1.574746      0.939696     -0.506994
  C      -1.402279     -0.239220     -1.341471
  O      -2.465758     -0.717900     -1.863605
  O      -0.628349     -1.154435     -0.524349
  H       2.156850      0.190197      0.846076
  H       1.710845      0.193983     -0.877465
  H       2.012380     -1.346419     -0.034395
  H       0.011263     -0.941599      1.410796
  H       0.119904      1.786524      0.356149
  H      -1.072903      1.094820      1.491855
13
Coordinates from ORCA-job PC_anion_cpcm_80_default E -381.725002784932
  C       1.569904     -0.340268      0.057052
  C       0.110013     -0.431989      0.472372
  C      -0.587853      0.951021      0.537235
  O      -1.594787      0.927441     -0.472601
  C      -1.366399     -0.234959     -1.343397
  O      -2.390412     -0.691132     -1.945534
  O      -0.664000     -1.177474     -0.469112
  H       2.146971      0.217651      0.804662
  H       1.659137      0.179693     -0.904264
  H       2.009094     -1.339159     -0.038524
  H       0.034394     -0.948212      1.438900
  H       0.135567      1.761015      0.352024
  H      -1.061630      1.126374      1.511186
13
Coordinates from ORCA-job PC_anion_cpcm_80_default E -381.725372341613
  C       1.552988     -0.342225      0.043009
  C       0.101135     -0.439387      0.490824
  C      -0.595031      0.948841      0.550591
  O      -1.619333      0.909502     -0.437078
  C      -1.336925     -0.230175     -1.331962
  O      -2.306823     -0.662846     -2.015914
  O      -0.693548     -1.191258     -0.423811
  H       2.139054      0.234950      0.768546
  H       1.617324      0.163002     -0.927773
  H       2.002182     -1.337319     -0.045067
  H       0.053287     -0.950168      1.461509
  H       0.136282      1.746062      0.339581
  H      -1.050593      1.151021      1.527544
13
Coordinates from ORCA-job PC_anion_cpcm_80_default E -381.725465499503
  C       1.558139     -0.342881      0.046835
  C       0.104055     -0.437762      0.486672
  C      -0.594157      0.949272      0.546868
  O      -1.626354      0.905985     -0.432455
  C      -1.347128     -0.228594     -1.328483
  O      -2.316379     -0.662585     -2.009061
  O      -0.685861     -1.187610     -0.436179
  H       2.139983      0.230796      0.778347
  H       1.629024      0.163698     -0.922306
  H       2.004395     -1.339104     -0.040924
  H       0.048528     -0.950258      1.455863
  H       0.129840      1.750205      0.328008
  H      -1.044086      1.148839      1.526815
13
Coordinates from ORCA-job PC_anion_cpcm_80_default E -381.725559808435
  C       1.564935     -0.343953      0.053567
  C       0.107288     -0.436625      0.479637
  C      -0.593424      0.949143      0.541066
  O      -1.648592      0.892407     -0.411880
  C      -1.359536     -0.222018     -1.323622
  O      -2.323410     -0.657377     -2.006102
  O      -0.675882     -1.183020     -0.454695
  H       2.138734      0.226670      0.793708
  H       1.646036      0.163465     -0.913838
  H       2.008640     -1.341282     -0.031439
  H       0.040005     -0.951944      1.446403
  H       0.117994      1.753566      0.297724
  H      -1.022788      1.150968      1.529471
13
Coordinates from ORCA-job PC_anion_cpcm_80_default E -381.725703454742
  C       1.576466     -0.345044      0.068333
  C       0.111954     -0.436480      0.465471
  C      -0.591936      0.947840      0.530135
  O      -1.693021      0.862386     -0.365504
  C      -1.382656     -0.207622     -1.315984
  O      -2.338942     -0.646059     -2.003582
  O      -0.656072     -1.174700     -0.492140
  H       2.133616      0.221957      0.823880
  H       1.677234      0.164245     -0.895856
  H       2.018747     -1.343281     -0.010205
  H       0.022404     -0.959164      1.426540
  H       0.096665      1.754173      0.234301
  H      -0.974459      1.161750      1.534611
13
Coordinates from ORCA-job PC_anion_cpcm_80_default E -381.725922445029
  C       1.595585     -0.345584      0.097969
  C       0.119123     -0.437444      0.437914
  C      -0.588601      0.943823      0.509805
  O      -1.761426      0.803831     -0.279000
  C      -1.424733     -0.180980     -1.302786
  O      -2.376694     -0.626528     -1.991161
  O      -0.616941     -1.154420     -0.565936
  H       2.121189      0.215144      0.880513
  H       1.733200      0.169176     -0.858540
  H       2.038193     -1.344241      0.030559
  H      -0.011332     -0.977808      1.385053
  H       0.056836      1.746281      0.120232
  H      -0.884400      1.188751      1.535378
13
Coordinates from ORCA-job PC_anion_cpcm_80_default E -381.726158279263
  C       1.611349     -0.344189      0.126872
  C       0.124661     -0.436838      0.409874
  C      -0.582428      0.940576      0.491518
  O      -1.799665      0.763016     -0.218617
  C      -1.465766     -0.162446     -1.295043
  O      -2.430580     -0.627620     -1.959019
  O      -0.578355     -1.126776     -0.638898
  H       2.109025      0.203668      0.936548
  H       1.785296      0.183850     -0.816704
  H       2.054298     -1.342839      0.061817
  H      -0.044596     -0.997201      1.340260
  H       0.029059      1.734745      0.034558
  H      -0.812298      1.212055      1.526833
13
Coordinates from ORCA-job PC_anion_cpcm_80_default E -381.726447278194
  C       1.620403     -0.339829      0.152709
  C       0.125275     -0.435997      0.383657
  C      -0.572452      0.938218      0.479335
  O      -1.810440      0.756411     -0.198355
  C      -1.504972     -0.154598     -1.299775
  O      -2.496744     -0.662561     -1.905281
  O      -0.543929     -1.093832     -0.705595
  H       2.097126      0.187101      0.988589
  H       1.826516      0.212543     -0.771181
  H       2.067430     -1.336260      0.076880
  H      -0.076547     -1.019207      1.295301
  H       0.032074      1.717861     -0.013264
  H      -0.763739      1.230150      1.516981
13
Coordinates from ORCA-job PC_anion_cpcm_80_default E -381.726544196481
  C       1.626725     -0.339037      0.170959
  C       0.126308     -0.436242      0.366827
  C      -0.568439      0.934854      0.468780
  O      -1.828096      0.731622     -0.159591
  C      -1.532022     -0.144258     -1.292683
  O      -2.523714     -0.667791     -1.880867
  O      -0.521019     -1.066990     -0.750292
  H       2.086380      0.175669      1.023739
  H       1.854420      0.227006     -0.739280
  H       2.077401     -1.333466      0.090488
  H      -0.094626     -1.036200      1.263932
  H       0.018178      1.701091     -0.066151
  H      -0.721496      1.253740      1.504142
13
Coordinates from ORCA-job PC_anion_cpcm_80_default E -381.726617070584
  C       1.626421     -0.338067      0.173811
  C       0.124461     -0.437695      0.365521
  C      -0.567499      0.932608      0.468382
  O      -1.825050      0.741911     -0.166922
  C      -1.541233     -0.145715     -1.296271
  O      -2.533684     -0.678235     -1.867009
  O      -0.515924     -1.059130     -0.757616
  H       2.085098      0.171856      1.029815
  H       1.856456      0.234997     -0.731294
  H       2.081203     -1.330131      0.087064
  H      -0.095399     -1.043718      1.259153
  H       0.030454      1.691963     -0.064914
  H      -0.725304      1.259355      1.500281
13
Coordinates from ORCA-job PC_anion_cpcm_80_default E -381.726642730249
  C       1.630231     -0.339033      0.179667
  C       0.126864     -0.434877      0.357975
  C      -0.565826      0.933590      0.463243
  O      -1.828470      0.737455     -0.159142
  C      -1.552151     -0.144380     -1.294531
  O      -2.545695     -0.686887     -1.851735
  O      -0.505507     -1.046977     -0.774856
  H       2.082704      0.163363      1.043548
  H       1.870166      0.238847     -0.719821
  H       2.081960     -1.332096      0.090154
  H      -0.101742     -1.044978      1.246879
  H       0.023770      1.694333     -0.077344
  H      -0.716304      1.261639      1.495963
13
Coordinates from ORCA-job PC_anion_cpcm_80_default E -381.726663187532
  C       1.634755     -0.340236      0.185162
  C       0.130219     -0.430125      0.349267
  C      -0.563356      0.936347      0.456686
  O      -1.829388      0.736155     -0.156513
  C      -1.564219     -0.145516     -1.294248
  O      -2.560417     -0.701265     -1.830746
  O      -0.492967     -1.034502     -0.793364
  H       2.080679      0.150078      1.059330
  H       1.886372      0.244398     -0.706706
  H       2.080017     -1.335510      0.089656
  H      -0.109085     -1.041806      1.234724
  H       0.017822      1.702446     -0.085085
  H      -0.710431      1.259538      1.491838
13
Coordinates from ORCA-job PC_anion_cpcm_80_default E -381.726665854877
  C       1.634439     -0.339947      0.184414
  C       0.129971     -0.430175      0.350100
  C      -0.563345      0.936684      0.456858
  O      -1.828481      0.737070     -0.158688
  C      -1.563191     -0.146452     -1.295036
  O      -2.559998     -0.701073     -1.831617
  O      -0.493480     -1.036877     -0.791231
  H       2.081260      0.149554      1.058492
  H       1.885090      0.245232     -0.707330
  H       2.079216     -1.335390      0.087691
  H      -0.108846     -1.040297      1.236779
  H       0.019126      1.703254     -0.082708
  H      -0.711760      1.258418      1.492277
13
Coordinates from ORCA-job PC_anion_cpcm_80_default E -381.726667393330
  C       1.634620     -0.339545      0.185289
  C       0.129769     -0.430103      0.349359
  C      -0.562980      0.936931      0.456013
  O      -1.828789      0.735978     -0.158166
  C      -1.564380     -0.146739     -1.295339
  O      -2.562068     -0.701952     -1.829603
  O      -0.491801     -1.036854     -0.792820
  H       2.081071      0.147203      1.061002
  H       1.886148      0.247989     -0.704610
  H       2.078980     -1.335018      0.086108
  H      -0.110523     -1.039920      1.235930
  H       0.019352      1.702814     -0.084640
  H      -0.709399      1.259217      1.491475
13
Coordinates from ORCA-job PC_anion_cpcm_80_default E -381.726667639540
  C       1.634635     -0.339543      0.185220
  C       0.129795     -0.430229      0.349615
  C      -0.563140      0.936883      0.456045
  O      -1.828677      0.736146     -0.158698
  C      -1.564217     -0.146765     -1.295418
  O      -2.562017     -0.701525     -1.829757
  O      -0.491872     -1.037266     -0.792237
  H       2.081424      0.147169      1.060806
  H       1.885796      0.248081     -0.704735
  H       2.079020     -1.334969      0.085803
  H      -0.110265     -1.039925      1.236313
  H       0.019448      1.702731     -0.084400
  H      -0.709931      1.259211      1.491443
