13
Coordinates from ORCA-job PC_anion_cpcm_10_default E -381.645612139233
  C       1.583626     -0.338288      0.054397
  C       0.119798     -0.420765      0.465192
  C      -0.580686      0.955929      0.520491
  O      -1.536891      0.900638     -0.517985
  C      -1.543081     -0.317687     -1.088214
  O      -2.261602     -0.637900     -1.974707
  O      -0.631599     -1.120046     -0.518743
  H       2.151951      0.180080      0.821850
  H       1.681034      0.194200     -0.889025
  H       1.984583     -1.340186     -0.070884
  H       0.020096     -0.969659      1.408167
  H       0.108962      1.780275      0.321121
  H      -1.096192      1.133408      1.468342
13
Coordinates from ORCA-job PC_anion_cpcm_10_default E -381.672539831610
  C       1.598871     -0.344015      0.060788
  C       0.129537     -0.408557      0.462536
  C      -0.580471      0.959758      0.523895
  O      -1.559716      0.910549     -0.521607
  C      -1.515275     -0.295289     -1.153109
  O      -2.343335     -0.671368     -1.953770
  O      -0.628013     -1.119388     -0.534336
  H       2.168915      0.170522      0.838933
  H       1.712413      0.189397     -0.884147
  H       1.994497     -1.354661     -0.060824
  H       0.020203     -0.948120      1.410219
  H       0.097406      1.800781      0.332015
  H      -1.095032      1.110391      1.479406
13
Coordinates from ORCA-job PC_anion_cpcm_10_default E -381.695275286613
  C       1.604552     -0.347136      0.066207
  C       0.133605     -0.403574      0.457288
  C      -0.580281      0.962034      0.524292
  O      -1.566823      0.923374     -0.522042
  C      -1.478618     -0.273508     -1.219689
  O      -2.409589     -0.700040     -1.917948
  O      -0.617136     -1.123127     -0.543655
  H       2.173548      0.166881      0.847753
  H       1.727452      0.186112     -0.880012
  H       1.999075     -1.360594     -0.050357
  H       0.014564     -0.935644      1.408655
  H       0.090853      1.812970      0.344403
  H      -1.091202      1.092252      1.485106
13
Coordinates from ORCA-job PC_anion_cpcm_10_default E -381.709223567475
  C       1.606005     -0.346987      0.073602
  C       0.134870     -0.405983      0.447845
  C      -0.579155      0.962343      0.519214
  O      -1.569935      0.943920     -0.519743
  C      -1.446186     -0.253531     -1.290948
  O      -2.474089     -0.724812     -1.875701
  O      -0.605493     -1.135980     -0.548416
  H       2.171904      0.169998      0.857704
  H       1.736324      0.188222     -0.872951
  H       2.006906     -1.359392     -0.037448
  H       0.006363     -0.929634      1.404156
  H       0.094248      1.814758      0.355493
  H      -1.081763      1.077078      1.487195
13
Coordinates from ORCA-job PC_anion_cpcm_10_default E -381.712516754739
  C       1.594119     -0.342092      0.073166
  C       0.123921     -0.415763      0.446216
  C      -0.581412      0.954924      0.517002
  O      -1.566074      0.937733     -0.516729
  C      -1.398930     -0.236613     -1.346896
  O      -2.470846     -0.720933     -1.828589
  O      -0.621573     -1.143859     -0.535305
  H       2.159340      0.183275      0.852042
  H       1.717932      0.193958     -0.873797
  H       2.007996     -1.349096     -0.035971
  H       0.004976     -0.939139      1.404786
  H       0.111602      1.792984      0.358509
  H      -1.081051      1.084621      1.485566
13
Coordinates from ORCA-job PC_anion_cpcm_10_default E -381.713464437427
  C       1.586443     -0.341344      0.067993
  C       0.119369     -0.422162      0.455762
  C      -0.583659      0.954190      0.524583
  O      -1.576716      0.938280     -0.500043
  C      -1.392599     -0.237943     -1.345049
  O      -2.447260     -0.711665     -1.880675
  O      -0.634588     -1.159073     -0.510331
  H       2.156885      0.197115      0.834907
  H       1.696959      0.187876     -0.885457
  H       2.009824     -1.345872     -0.035432
  H       0.016646     -0.941088      1.418900
  H       0.121666      1.782734      0.358316
  H      -1.072968      1.098952      1.496526
13
Coordinates from ORCA-job PC_anion_cpcm_10_default E -381.714645006459
  C       1.562666     -0.340805      0.050565
  C       0.105196     -0.435791      0.480694
  C      -0.591933      0.950486      0.542718
  O      -1.602032      0.924567     -0.458424
  C      -1.358299     -0.236253     -1.336219
  O      -2.351589     -0.678912     -1.983276
  O      -0.674869     -1.185639     -0.445328
  H       2.145775      0.226116      0.787029
  H       1.638179      0.170971     -0.916145
  H       2.005176     -1.338618     -0.043041
  H       0.043608     -0.946627      1.451407
  H       0.137349      1.755402      0.351474
  H      -1.059227      1.135103      1.518545
13
Coordinates from ORCA-job PC_anion_cpcm_10_default E -381.714825713558
  C       1.553398     -0.342703      0.042708
  C       0.100324     -0.439717      0.490385
  C      -0.596912      0.949271      0.549392
  O      -1.622106      0.910016     -0.432290
  C      -1.339630     -0.230828     -1.330241
  O      -2.298961     -0.660068     -2.021819
  O      -0.691611     -1.192499     -0.420683
  H       2.140463      0.235117      0.767220
  H       1.615649      0.159796     -0.929297
  H       2.001026     -1.338525     -0.045753
  H       0.053555     -0.947218      1.463374
  H       0.133948      1.747676      0.338090
  H      -1.049143      1.149683      1.528915
13
Coordinates from ORCA-job PC_anion_cpcm_10_default E -381.714891528266
  C       1.556789     -0.343512      0.045755
  C       0.102241     -0.438968      0.487425
  C      -0.596710      0.949201      0.546771
  O      -1.632677      0.903372     -0.423031
  C      -1.344328     -0.226939     -1.329221
  O      -2.302544     -0.657303     -2.018655
  O      -0.686567     -1.189882     -0.430048
  H       2.140046      0.233141      0.774156
  H       1.623603      0.158725     -0.925700
  H       2.002880     -1.339949     -0.040838
  H       0.049771     -0.947859      1.459303
  H       0.127320      1.749984      0.323856
  H      -1.039824      1.149988      1.530228
13
Coordinates from ORCA-job PC_anion_cpcm_10_default E -381.715067595978
  C       1.570084     -0.345577      0.061145
  C       0.108590     -0.438028      0.473078
  C      -0.595346      0.947867      0.535275
  O      -1.681601      0.870907     -0.374751
  C      -1.366142     -0.208978     -1.325132
  O      -2.320093     -0.644354     -2.011515
  O      -0.664766     -1.180511     -0.471421
  H       2.135401      0.228123      0.805896
  H       1.657409      0.156431     -0.908021
  H       2.013284     -1.343507     -0.016395
  H       0.031489     -0.954231      1.439321
  H       0.101614      1.753700      0.255850
  H      -0.989923      1.158156      1.536668
13
Coordinates from ORCA-job PC_anion_cpcm_10_default E -381.715218919968
  C       1.582957     -0.346011      0.079898
  C       0.113601     -0.438717      0.456310
  C      -0.593056      0.945263      0.522970
  O      -1.727192      0.835807     -0.322247
  C      -1.393125     -0.191015     -1.319256
  O      -2.345575     -0.632307     -2.002757
  O      -0.639259     -1.169063     -0.519055
  H       2.128243      0.225016      0.841569
  H       1.693119      0.157961     -0.885672
  H       2.026306     -1.344269      0.011042
  H       0.009847     -0.966220      1.414185
  H       0.077676      1.750098      0.183448
  H      -0.933542      1.173458      1.539565
13
Coordinates from ORCA-job PC_anion_cpcm_10_default E -381.715510885676
  C       1.602848     -0.344653      0.114005
  C       0.120527     -0.439468      0.424881
  C      -0.586754      0.940594      0.501984
  O      -1.782731      0.783896     -0.244681
  C      -1.443274     -0.166460     -1.308350
  O      -2.403963     -0.624790     -1.973768
  O      -0.592962     -1.141346     -0.604784
  H       2.114729      0.216665      0.905762
  H       1.754185      0.169898     -0.840532
  H       2.047605     -1.342758      0.053372
  H      -0.029173     -0.990798      1.364070
  H       0.043307      1.736867      0.074138
  H      -0.844342      1.202353      1.533904
13
Coordinates from ORCA-job PC_anion_cpcm_10_default E -381.715814353473
  C       1.620689     -0.341396      0.152505
  C       0.125461     -0.437982      0.386615
  C      -0.575921      0.936798      0.479693
  O      -1.818453      0.743608     -0.179793
  C      -1.502081     -0.149655     -1.296680
  O      -2.480871     -0.642619     -1.921638
  O      -0.541886     -1.096994     -0.701453
  H       2.097843      0.196913      0.981320
  H       1.820363      0.198310     -0.779707
  H       2.067410     -1.338606      0.087041
  H      -0.074025     -1.019711      1.299703
  H       0.018926      1.716617     -0.025024
  H      -0.757455      1.234716      1.517418
13
Coordinates from ORCA-job PC_anion_cpcm_10_default E -381.715920271810
  C       1.620910     -0.338465      0.159095
  C       0.122635     -0.438748      0.379558
  C      -0.571914      0.935397      0.477687
  O      -1.812901      0.758268     -0.190825
  C      -1.516928     -0.153701     -1.301113
  O      -2.505814     -0.665136     -1.899220
  O      -0.533622     -1.086857     -0.717110
  H       2.094905      0.189010      0.996448
  H       1.829081      0.215418     -0.763399
  H       2.072283     -1.333144      0.082441
  H      -0.082431     -1.027907      1.287705
  H       0.037617      1.706503     -0.025020
  H      -0.753821      1.239361      1.513752
13
Coordinates from ORCA-job PC_anion_cpcm_10_default E -381.715996188222
  C       1.627910     -0.337955      0.179106
  C       0.123752     -0.438137      0.359427
  C      -0.567477      0.932293      0.464681
  O      -1.830446      0.733432     -0.150852
  C      -1.547331     -0.143195     -1.294502
  O      -2.536815     -0.675370     -1.867979
  O      -0.508907     -1.056024     -0.765343
  H       2.083037      0.172352      1.037200
  H       1.861888      0.234004     -0.725869
  H       2.082690     -1.330354      0.094008
  H      -0.102103     -1.044097      1.252722
  H       0.023864      1.689574     -0.080674
  H      -0.710060      1.263478      1.498074
13
Coordinates from ORCA-job PC_anion_cpcm_10_default E -381.716035605865
  C       1.627920     -0.338765      0.176734
  C       0.124363     -0.437643      0.361575
  C      -0.568465      0.932954      0.464938
  O      -1.827022      0.740311     -0.159903
  C      -1.546068     -0.144676     -1.297920
  O      -2.535503     -0.678301     -1.864884
  O      -0.510065     -1.057477     -0.760735
  H       2.084908      0.170522      1.034492
  H       1.860476      0.233133     -0.728538
  H       2.081228     -1.331506      0.089833
  H      -0.098122     -1.041422      1.257095
  H       0.026803      1.693422     -0.071236
  H      -0.720453      1.259448      1.498549
13
Coordinates from ORCA-job PC_anion_cpcm_10_default E -381.716059770765
  C       1.631431     -0.339832      0.181563
  C       0.126857     -0.434573      0.354922
  C      -0.566944      0.934401      0.459873
  O      -1.828394      0.739577     -0.157318
  C      -1.556738     -0.144159     -1.298948
  O      -2.547789     -0.689804     -1.846841
  O      -0.499891     -1.046169     -0.776260
  H       2.082793      0.159929      1.047938
  H       1.873814      0.238151     -0.717177
  H       2.080814     -1.333730      0.089691
  H      -0.102840     -1.041020      1.247146
  H       0.022274      1.697388     -0.079085
  H      -0.715386      1.259842      1.494497
13
Coordinates from ORCA-job PC_anion_cpcm_10_default E -381.716066502053
  C       1.633002     -0.339948      0.183753
  C       0.127958     -0.432845      0.351743
  C      -0.565809      0.935420      0.457513
  O      -1.828929      0.738657     -0.156055
  C      -1.561519     -0.144689     -1.299125
  O      -2.553828     -0.695105     -1.839386
  O      -0.494707     -1.042101     -0.783484
  H       2.081844      0.154723      1.054292
  H       1.879821      0.241024     -0.711810
  H       2.079827     -1.334765      0.089214
  H      -0.106099     -1.039639      1.242792
  H       0.020197      1.699967     -0.082558
  H      -0.711757      1.259302      1.493111
13
Coordinates from ORCA-job PC_anion_cpcm_10_default E -381.716068636968
  C       1.634796     -0.339833      0.187155
  C       0.128842     -0.431199      0.347440
  C      -0.564424      0.936271      0.454513
  O      -1.830434      0.736086     -0.152538
  C      -1.567689     -0.144854     -1.298457
  O      -2.561422     -0.700743     -1.830381
  O      -0.488111     -1.036578     -0.793123
  H       2.080389      0.148512      1.062848
  H       1.887072      0.245511     -0.703999
  H       2.079459     -1.335337      0.089023
  H      -0.111106     -1.039446      1.236167
  H       0.017829      1.701010     -0.089368
  H      -0.705200      1.260600      1.490721
13
Coordinates from ORCA-job PC_anion_cpcm_10_default E -381.716069692679
  C       1.634112     -0.339591      0.185751
  C       0.128426     -0.431847      0.349368
  C      -0.564861      0.936091      0.455574
  O      -1.829549      0.737066     -0.154711
  C      -1.565133     -0.145351     -1.298833
  O      -2.558887     -0.698133     -1.834206
  O      -0.490291     -1.040077     -0.788704
  H       2.081493      0.150467      1.059565
  H       1.883731      0.244570     -0.706921
  H       2.079167     -1.334994      0.088159
  H      -0.109595     -1.038784      1.239419
  H       0.019258      1.700908     -0.086165
  H      -0.707870      1.259675      1.491704
13
Coordinates from ORCA-job PC_anion_cpcm_10_default E -381.716070087111
  C       1.633796     -0.339478      0.185261
  C       0.128192     -0.432359      0.350285
  C      -0.565147      0.935831      0.456039
  O      -1.829298      0.737097     -0.155354
  C      -1.563969     -0.145278     -1.298881
  O      -2.557669     -0.696323     -1.836123
  O      -0.491337     -1.041667     -0.786576
  H       2.082078      0.151568      1.058064
  H       1.881995      0.244164     -0.708154
  H       2.079333     -1.334690      0.087936
  H      -0.108826     -1.038890      1.240835
  H       0.019788      1.700336     -0.085274
  H      -0.708935      1.259689      1.491941
