13
Coordinates from ORCA-job PC_anion_cpcm_1000_default E -381.659131176327
  C       1.583626     -0.338288      0.054397
  C       0.119798     -0.420765      0.465192
  C      -0.580686      0.955929      0.520491
  O      -1.536891      0.900638     -0.517985
  C      -1.543081     -0.317687     -1.088214
  O      -2.261602     -0.637900     -1.974707
  O      -0.631599     -1.120046     -0.518743
  H       2.151951      0.180080      0.821850
  H       1.681034      0.194200     -0.889025
  H       1.984583     -1.340186     -0.070884
  H       0.020096     -0.969659      1.408167
  H       0.108962      1.780275      0.321121
  H      -1.096192      1.133408      1.468342
13
Coordinates from ORCA-job PC_anion_cpcm_1000_default E -381.684424542742
  C       1.599323     -0.343280      0.062124
  C       0.129997     -0.409767      0.459683
  C      -0.579907      0.959839      0.521275
  O      -1.559104      0.908072     -0.523038
  C      -1.517146     -0.295894     -1.151861
  O      -2.347835     -0.671754     -1.946956
  O      -0.630477     -1.118024     -0.536732
  H       2.166318      0.168424      0.844460
  H       1.717425      0.194216     -0.880187
  H       1.995865     -1.353401     -0.061862
  H       0.020241     -0.949931      1.406414
  H       0.098373      1.799228      0.330100
  H      -1.093072      1.112271      1.476581
13
Coordinates from ORCA-job PC_anion_cpcm_1000_default E -381.707651921128
  C       1.605299     -0.346631      0.067387
  C       0.134447     -0.404498      0.454751
  C      -0.579641      0.962369      0.521968
  O      -1.566622      0.921380     -0.523401
  C      -1.480838     -0.274176     -1.218372
  O      -2.414966     -0.700789     -1.912172
  O      -0.619323     -1.122061     -0.546123
  H       2.170944      0.164556      0.852915
  H       1.733157      0.190536     -0.876159
  H       2.000756     -1.359532     -0.051157
  H       0.014753     -0.937193      1.405109
  H       0.091579      1.812157      0.342700
  H      -1.089544      1.093883      1.482554
13
Coordinates from ORCA-job PC_anion_cpcm_1000_default E -381.718435422617
  C       1.607004     -0.346768      0.072541
  C       0.136512     -0.405760      0.450019
  C      -0.578199      0.963231      0.519902
  O      -1.570336      0.939528     -0.520785
  C      -1.461590     -0.261324     -1.265220
  O      -2.464160     -0.719880     -1.893923
  O      -0.608859     -1.133507     -0.548898
  H       2.171048      0.167308      0.858801
  H       1.739253      0.190841     -0.871981
  H       2.007125     -1.359047     -0.041222
  H       0.009704     -0.932157      1.404058
  H       0.094187      1.814621      0.350623
  H      -1.081689      1.082914      1.486084
13
Coordinates from ORCA-job PC_anion_cpcm_1000_default E -381.724395321945
  C       1.600280     -0.342954      0.076023
  C       0.129021     -0.411653      0.442328
  C      -0.578741      0.957341      0.513865
  O      -1.565193      0.939046     -0.523216
  C      -1.417418     -0.241791     -1.329050
  O      -2.484913     -0.726242     -1.824021
  O      -0.614259     -1.137881     -0.549377
  H       2.160910      0.173708      0.863315
  H       1.734084      0.199169     -0.865997
  H       2.009803     -1.351249     -0.036893
  H       0.000844     -0.937977      1.397099
  H       0.106756      1.800000      0.354979
  H      -1.081173      1.080484      1.480944
13
Coordinates from ORCA-job PC_anion_cpcm_1000_default E -381.725353171464
  C       1.591171     -0.341392      0.071538
  C       0.123087     -0.419343      0.450900
  C      -0.580913      0.955280      0.520976
  O      -1.574688      0.939530     -0.507429
  C      -1.402489     -0.239265     -1.340998
  O      -2.466425     -0.718105     -1.863098
  O      -0.628441     -1.154208     -0.524883
  H       2.156720      0.189870      0.846451
  H       1.711461      0.194327     -0.877172
  H       2.012484     -1.346432     -0.034408
  H       0.011221     -0.941738      1.410472
  H       0.119829      1.786629      0.356033
  H      -1.073017      1.094847      1.491618
13
Coordinates from ORCA-job PC_anion_cpcm_1000_default E -381.726417577245
  C       1.570109     -0.340313      0.057093
  C       0.110333     -0.431737      0.472353
  C      -0.587614      0.951076      0.537282
  O      -1.594658      0.927354     -0.473129
  C      -1.366693     -0.235001     -1.342805
  O      -2.391269     -0.691407     -1.945046
  O      -0.663975     -1.177189     -0.469756
  H       2.146984      0.217303      0.805017
  H       1.659807      0.179975     -0.904009
  H       2.009196     -1.339237     -0.038435
  H       0.034260     -0.948335      1.438547
  H       0.135371      1.761262      0.351945
  H      -1.061851      1.126249      1.510943
13
Coordinates from ORCA-job PC_anion_cpcm_1000_default E -381.726785375963
  C       1.553096     -0.342257      0.042984
  C       0.101408     -0.439171      0.490880
  C      -0.594786      0.948864      0.550696
  O      -1.619155      0.909360     -0.437594
  C      -1.336992     -0.230207     -1.331378
  O      -2.307386     -0.663035     -2.015584
  O      -0.693725     -1.191015     -0.424215
  H       2.139057      0.234695      0.768726
  H       1.617757      0.163275     -0.927626
  H       2.002241     -1.337359     -0.045029
  H       0.053195     -0.950315      1.461257
  H       0.136156      1.746217      0.339553
  H      -1.050866      1.150947      1.527329
13
Coordinates from ORCA-job PC_anion_cpcm_1000_default E -381.726878200473
  C       1.558326     -0.342885      0.046892
  C       0.104345     -0.437530      0.486609
  C      -0.593879      0.949308      0.546871
  O      -1.625999      0.905946     -0.433215
  C      -1.347346     -0.228680     -1.328018
  O      -2.317431     -0.662964     -2.008257
  O      -0.685918     -1.187289     -0.436807
  H       2.140002      0.230417      0.778774
  H       1.629706      0.164141     -0.921990
  H       2.004488     -1.339129     -0.040923
  H       0.048358     -0.950398      1.455483
  H       0.129782      1.750401      0.328101
  H      -1.044433      1.148661      1.526482
13
Coordinates from ORCA-job PC_anion_cpcm_1000_default E -381.726970840890
  C       1.565072     -0.343924      0.053588
  C       0.107529     -0.436409      0.479577
  C      -0.593140      0.949201      0.541061
  O      -1.647883      0.892604     -0.413042
  C      -1.359683     -0.222239     -1.323328
  O      -2.324645     -0.657982     -2.005040
  O      -0.676030     -1.182714     -0.455196
  H       2.138754      0.226217      0.794135
  H       1.646678      0.164082     -0.913486
  H       2.008687     -1.341263     -0.031659
  H       0.039921     -0.952043      1.446068
  H       0.118168      1.753742      0.298278
  H      -1.023426      1.150726      1.529044
13
Coordinates from ORCA-job PC_anion_cpcm_1000_default E -381.727114195540
  C       1.576649     -0.345005      0.068406
  C       0.112189     -0.436253      0.465306
  C      -0.591635      0.947941      0.530023
  O      -1.692364      0.862630     -0.366720
  C      -1.382932     -0.207902     -1.315789
  O      -2.340394     -0.646867     -2.002267
  O      -0.656179     -1.174341     -0.492766
  H       2.133592      0.221304      0.824568
  H       1.678110      0.165067     -0.895316
  H       2.018789     -1.343261     -0.010572
  H       0.022304     -0.959211      1.426111
  H       0.096903      1.754425      0.234843
  H      -0.975032      1.161472      1.534174
13
Coordinates from ORCA-job PC_anion_cpcm_1000_default E -381.727334500557
  C       1.595939     -0.345568      0.098262
  C       0.119420     -0.437175      0.437450
  C      -0.588284      0.943970      0.509428
  O      -1.761378      0.803633     -0.279501
  C      -1.425411     -0.181146     -1.302533
  O      -2.378412     -0.627377     -1.989637
  O      -0.616765     -1.153838     -0.567150
  H       2.120993      0.214168      0.881829
  H       1.734698      0.170195     -0.857549
  H       2.038312     -1.344278      0.030272
  H      -0.011625     -0.977851      1.384246
  H       0.056731      1.746662      0.119921
  H      -0.884218      1.188604      1.534963
13
Coordinates from ORCA-job PC_anion_cpcm_1000_default E -381.727569511961
  C       1.611713     -0.344216      0.127149
  C       0.124988     -0.436516      0.409387
  C      -0.582161      0.940750      0.491091
  O      -1.799840      0.762531     -0.218675
  C      -1.466454     -0.162590     -1.294651
  O      -2.431984     -0.628303     -1.957715
  O      -0.578146     -1.126132     -0.640143
  H       2.108746      0.202588      0.937875
  H       1.786852      0.184787     -0.815665
  H       2.054364     -1.342945      0.061517
  H      -0.044850     -0.997148      1.339417
  H       0.028638      1.735216      0.033969
  H      -0.811866      1.211977      1.526443
13
Coordinates from ORCA-job PC_anion_cpcm_1000_default E -381.727861351763
  C       1.620667     -0.339868      0.152814
  C       0.125599     -0.435620      0.383375
  C      -0.572211      0.938404      0.479131
  O      -1.810532      0.756128     -0.198532
  C      -1.505399     -0.154821     -1.299320
  O      -2.497750     -0.663211     -1.904437
  O      -0.543752     -1.093299     -0.706566
  H       2.096952      0.186224      0.989421
  H       1.827641      0.213184     -0.770481
  H       2.067373     -1.336398      0.076621
  H      -0.076738     -1.019087      1.294651
  H       0.031667      1.718395     -0.013492
  H      -0.763518      1.229971      1.516816
13
Coordinates from ORCA-job PC_anion_cpcm_1000_default E -381.727959056831
  C       1.626985     -0.339062      0.171125
  C       0.126628     -0.435828      0.366481
  C      -0.568139      0.935048      0.468587
  O      -1.828146      0.731378     -0.159800
  C      -1.532476     -0.144480     -1.292211
  O      -2.524815     -0.668680     -1.879736
  O      -0.520723     -1.066217     -0.751517
  H       2.086204      0.174753      1.024627
  H       1.855532      0.227688     -0.738461
  H       2.077322     -1.333599      0.090284
  H      -0.094986     -1.036203      1.263050
  H       0.017820      1.701599     -0.066417
  H      -0.721208      1.253603      1.503988
13
Coordinates from ORCA-job PC_anion_cpcm_1000_default E -381.728031378162
  C       1.626651     -0.338079      0.173983
  C       0.124763     -0.437315      0.365220
  C      -0.567161      0.932770      0.468260
  O      -1.825073      0.741637     -0.167166
  C      -1.541552     -0.145858     -1.295747
  O      -2.534665     -0.679092     -1.865800
  O      -0.515656     -1.058280     -0.758882
  H       2.084985      0.171097      1.030564
  H       1.857353      0.235600     -0.730557
  H       2.081137     -1.330241      0.086986
  H      -0.095848     -1.043889      1.258190
  H       0.030153      1.692368     -0.065195
  H      -0.725088      1.259281      1.500143
13
Coordinates from ORCA-job PC_anion_cpcm_1000_default E -381.728056484955
  C       1.630386     -0.339040      0.179710
  C       0.127123     -0.434555      0.357841
  C      -0.565521      0.933743      0.463213
  O      -1.828403      0.737280     -0.159574
  C      -1.552229     -0.144560     -1.294053
  O      -2.546400     -0.687588     -1.850804
  O      -0.505469     -1.046356     -0.775752
  H       2.082649      0.162746      1.044001
  H       1.870755      0.239368     -0.719320
  H       2.081876     -1.332177      0.089966
  H      -0.102035     -1.045097      1.246186
  H       0.023629      1.694724     -0.077313
  H      -0.716361      1.261513      1.495897
13
Coordinates from ORCA-job PC_anion_cpcm_1000_default E -381.728076696149
  C       1.634826     -0.340243      0.185055
  C       0.130421     -0.429895      0.349341
  C      -0.563109      0.936472      0.456761
  O      -1.829222      0.736110     -0.157162
  C      -1.564048     -0.145730     -1.293833
  O      -2.560824     -0.701735     -1.830180
  O      -0.493214     -1.034177     -0.793795
  H       2.080686      0.149646      1.059442
  H       1.886611      0.244823     -0.706483
  H       2.079959     -1.335541      0.089333
  H      -0.109143     -1.041893      1.234381
  H       0.017895      1.702780     -0.084695
  H      -0.710840      1.259384      1.491835
13
Coordinates from ORCA-job PC_anion_cpcm_1000_default E -381.728079300067
  C       1.634556     -0.339960      0.184427
  C       0.130191     -0.429909      0.350027
  C      -0.563067      0.936812      0.456857
  O      -1.828403      0.736905     -0.159127
  C      -1.563216     -0.146623     -1.294569
  O      -2.560602     -0.701689     -1.830805
  O      -0.493554     -1.036308     -0.791993
  H       2.081181      0.148989      1.058862
  H       1.885569      0.245751     -0.706866
  H       2.079194     -1.335426      0.087441
  H      -0.109040     -1.040465      1.236178
  H       0.019089      1.703542     -0.082624
  H      -0.711898      1.258379      1.492193
13
Coordinates from ORCA-job PC_anion_cpcm_1000_default E -381.728080797969
  C       1.634738     -0.339563      0.185296
  C       0.129992     -0.429826      0.349280
  C      -0.562714      0.937063      0.456017
  O      -1.828703      0.735854     -0.158637
  C      -1.564414     -0.146919     -1.294867
  O      -2.562671     -0.702601     -1.828766
  O      -0.491869     -1.036259     -0.793584
  H       2.080992      0.146629      1.061370
  H       1.886651      0.248493     -0.704149
  H       2.078953     -1.335061      0.085861
  H      -0.110705     -1.040096      1.235313
  H       0.019305      1.703118     -0.084536
  H      -0.709556      1.259167      1.491402
13
Coordinates from ORCA-job PC_anion_cpcm_1000_default E -381.728081033407
  C       1.634740     -0.339559      0.185199
  C       0.130014     -0.429956      0.349562
  C      -0.562877      0.937016      0.456067
  O      -1.828572      0.736051     -0.159207
  C      -1.564210     -0.146958     -1.294955
  O      -2.562574     -0.702152     -1.828981
  O      -0.491983     -1.036720     -0.792935
  H       2.081353      0.146627      1.061118
  H       1.886257      0.248560     -0.704327
  H       2.078980     -1.335011      0.085546
  H      -0.110415     -1.040079      1.235750
  H       0.019423      1.703049     -0.084228
  H      -0.710136      1.259131      1.491392
