13
Coordinates from ORCA-job PC_anion_cpcm_5_default E -381.633360699074
  C       1.583626     -0.338288      0.054397
  C       0.119798     -0.420765      0.465192
  C      -0.580686      0.955929      0.520491
  O      -1.536891      0.900638     -0.517985
  C      -1.543081     -0.317687     -1.088214
  O      -2.261602     -0.637900     -1.974707
  O      -0.631599     -1.120046     -0.518743
  H       2.151951      0.180080      0.821850
  H       1.681034      0.194200     -0.889025
  H       1.984583     -1.340186     -0.070884
  H       0.020096     -0.969659      1.408167
  H       0.108962      1.780275      0.321121
  H      -1.096192      1.133408      1.468342
13
Coordinates from ORCA-job PC_anion_cpcm_5_default E -381.660596103679
  C       1.598529     -0.344208      0.059812
  C       0.129015     -0.407140      0.465164
  C      -0.580171      0.959524      0.526586
  O      -1.560102      0.911880     -0.521985
  C      -1.514664     -0.295310     -1.154214
  O      -2.340828     -0.671623     -1.958369
  O      -0.626825     -1.120422     -0.533658
  H       2.171016      0.172029      0.834998
  H       1.709491      0.186556     -0.886654
  H       1.993499     -1.355375     -0.060338
  H       0.019886     -0.947081      1.413182
  H       0.097965      1.801857      0.333694
  H      -1.096810      1.109313      1.481782
13
Coordinates from ORCA-job PC_anion_cpcm_5_default E -381.682494647875
  C       1.613527     -0.350069      0.067330
  C       0.140916     -0.394709      0.467225
  C      -0.576891      0.964557      0.535364
  O      -1.584512      0.937754     -0.523046
  C      -1.498244     -0.275606     -1.227301
  O      -2.435845     -0.712476     -1.966768
  O      -0.613798     -1.130950     -0.546253
  H       2.191542      0.169401      0.846014
  H       1.734969      0.175509     -0.885727
  H       2.005355     -1.369974     -0.043597
  H       0.021447     -0.920373      1.423225
  H       0.089506      1.825073      0.352905
  H      -1.087972      1.081864      1.500630
13
Coordinates from ORCA-job PC_anion_cpcm_5_default E -381.692814823818
  C       1.619167     -0.353854      0.069624
  C       0.142327     -0.383189      0.457689
  C      -0.578317      0.962977      0.531837
  O      -1.592015      0.929970     -0.532887
  C      -1.458192     -0.250376     -1.288690
  O      -2.463967     -0.727414     -1.880819
  O      -0.616514     -1.118445     -0.563934
  H       2.197148      0.158480      0.857887
  H       1.756657      0.173688     -0.881017
  H       2.003948     -1.379065     -0.039421
  H       0.012631     -0.907275      1.413578
  H       0.077377      1.835559      0.360732
  H      -1.100248      1.058943      1.495421
13
Coordinates from ORCA-job PC_anion_cpcm_5_default E -381.694416841700
  C       1.623291     -0.357197      0.077875
  C       0.151437     -0.374359      0.449077
  C      -0.572313      0.964706      0.528078
  O      -1.622490      0.960188     -0.519853
  C      -1.433094     -0.223354     -1.366967
  O      -2.521956     -0.757995     -1.840191
  O      -0.598642     -1.141099     -0.571045
  H       2.207300      0.146213      0.872690
  H       1.777429      0.176038     -0.869481
  H       2.004103     -1.383978     -0.028992
  H       0.005960     -0.886719      1.409922
  H       0.067821      1.844989      0.362854
  H      -1.088846      1.032567      1.496034
13
Coordinates from ORCA-job PC_anion_cpcm_5_default E -381.697664955109
  C       1.613409     -0.351025      0.074262
  C       0.140284     -0.386283      0.459380
  C      -0.576454      0.961722      0.530578
  O      -1.624435      0.928213     -0.506730
  C      -1.426565     -0.230779     -1.339564
  O      -2.470772     -0.737764     -1.863124
  O      -0.620740     -1.137754     -0.552609
  H       2.197582      0.140765      0.872000
  H       1.756909      0.198452     -0.863460
  H       1.997742     -1.372917     -0.053610
  H       0.013729     -0.915021      1.413529
  H       0.083232      1.823388      0.331282
  H      -1.083920      1.079004      1.498065
13
Coordinates from ORCA-job PC_anion_cpcm_5_default E -381.699321472573
  C       1.602384     -0.346384      0.073529
  C       0.131108     -0.396945      0.467617
  C      -0.578475      0.959456      0.531338
  O      -1.649130      0.900583     -0.467783
  C      -1.418390     -0.231307     -1.323832
  O      -2.425091     -0.721619     -1.910748
  O      -0.635581     -1.147140     -0.528590
  H       2.189606      0.132493      0.874396
  H       1.737298      0.221542     -0.853769
  H       1.990312     -1.363097     -0.075523
  H       0.018863     -0.930742      1.420378
  H       0.092389      1.800913      0.286299
  H      -1.055292      1.122246      1.506689
13
Coordinates from ORCA-job PC_anion_cpcm_5_default E -381.702022506616
  C       1.578435     -0.339818      0.072645
  C       0.111571     -0.422395      0.481084
  C      -0.588124      0.951384      0.529664
  O      -1.720186      0.830407     -0.354802
  C      -1.390145     -0.215336     -1.296708
  O      -2.314341     -0.664411     -2.013022
  O      -0.663516     -1.173365     -0.477811
  H       2.169431      0.129772      0.872352
  H       1.694296      0.251858     -0.841612
  H       1.980807     -1.345134     -0.102323
  H       0.028206     -0.960373      1.434354
  H       0.092188      1.746469      0.176068
  H      -0.978623      1.210942      1.520109
13
Coordinates from ORCA-job PC_anion_cpcm_5_default E -381.702780963043
  C       1.577516     -0.340081      0.079138
  C       0.108877     -0.432792      0.475843
  C      -0.593716      0.946588      0.525099
  O      -1.751226      0.810085     -0.306412
  C      -1.392296     -0.200167     -1.293669
  O      -2.303385     -0.639264     -2.037780
  O      -0.655627     -1.180039     -0.484500
  H       2.158107      0.146501      0.875525
  H       1.692731      0.242188     -0.841400
  H       1.993379     -1.341762     -0.080998
  H       0.024176     -0.970303      1.430137
  H       0.080111      1.728388      0.133404
  H      -0.938648      1.230658      1.525613
13
Coordinates from ORCA-job PC_anion_cpcm_5_default E -381.703409446126
  C       1.586625     -0.341516      0.093473
  C       0.111727     -0.439132      0.457000
  C      -0.595642      0.941802      0.517742
  O      -1.770662      0.806388     -0.277020
  C      -1.412718     -0.182267     -1.305535
  O      -2.343559     -0.632261     -2.024601
  O      -0.628412     -1.172407     -0.527637
  H       2.143243      0.177488      0.886481
  H       1.713090      0.214763     -0.842064
  H       2.019454     -1.340891     -0.028847
  H       0.007566     -0.978510      1.409739
  H       0.068114      1.722384      0.108581
  H      -0.898826      1.224158      1.532688
13
Coordinates from ORCA-job PC_anion_cpcm_5_default E -381.703757509822
  C       1.594701     -0.340918      0.110178
  C       0.112781     -0.445594      0.434747
  C      -0.593812      0.936014      0.508752
  O      -1.785382      0.794109     -0.246256
  C      -1.436461     -0.165079     -1.315098
  O      -2.383874     -0.626776     -1.999299
  O      -0.602530     -1.156731     -0.577391
  H       2.123342      0.207956      0.901497
  H       1.736255      0.191448     -0.837197
  H       2.043608     -1.336439      0.024910
  H      -0.014149     -0.992398      1.381592
  H       0.059262      1.714905      0.078345
  H      -0.853742      1.219502      1.535221
13
Coordinates from ORCA-job PC_anion_cpcm_5_default E -381.703960995296
  C       1.603111     -0.339281      0.127027
  C       0.114279     -0.449439      0.412459
  C      -0.588055      0.932251      0.499598
  O      -1.791171      0.788702     -0.227574
  C      -1.466613     -0.156901     -1.319767
  O      -2.429226     -0.632408     -1.967468
  O      -0.577065     -1.136084     -0.627412
  H       2.105358      0.228728      0.921038
  H       1.762673      0.178249     -0.825623
  H       2.063562     -1.330999      0.069048
  H      -0.037400     -1.007877      1.349786
  H       0.056516      1.711042      0.054976
  H      -0.815969      1.214018      1.533911
13
Coordinates from ORCA-job PC_anion_cpcm_5_default E -381.704043405024
  C       1.608316     -0.337682      0.139379
  C       0.114673     -0.451639      0.397557
  C      -0.583045      0.930177      0.491551
  O      -1.795715      0.780056     -0.211968
  C      -1.487326     -0.152831     -1.318630
  O      -2.457270     -0.637265     -1.942710
  O      -0.561054     -1.119865     -0.660238
  H       2.093732      0.232782      0.941076
  H       1.782453      0.180166     -0.810274
  H       2.074411     -1.326795      0.089592
  H      -0.053411     -1.021822      1.325605
  H       0.054636      1.705830      0.031083
  H      -0.790399      1.218886      1.527976
13
Coordinates from ORCA-job PC_anion_cpcm_5_default E -381.704081756290
  C       1.611786     -0.336891      0.146391
  C       0.115629     -0.450951      0.390019
  C      -0.579240      0.930186      0.486283
  O      -1.796941      0.777998     -0.208183
  C      -1.500043     -0.153511     -1.316963
  O      -2.476035     -0.645715     -1.925091
  O      -0.551668     -1.109791     -0.678258
  H       2.090101      0.225754      0.957477
  H       1.795779      0.189393     -0.796634
  H       2.078179     -1.325463      0.092210
  H      -0.061915     -1.028488      1.312087
  H       0.055188      1.703942      0.018249
  H      -0.780819      1.223538      1.522415
13
Coordinates from ORCA-job PC_anion_cpcm_5_default E -381.704123360279
  C       1.615839     -0.336343      0.155325
  C       0.117037     -0.449506      0.381262
  C      -0.575495      0.930328      0.479102
  O      -1.801661      0.771184     -0.198811
  C      -1.514339     -0.152906     -1.313982
  O      -2.496484     -0.655173     -1.904784
  O      -0.539545     -1.097379     -0.700081
  H       2.086619      0.211771      0.980495
  H       1.812839      0.204400     -0.776794
  H       2.080993     -1.324767      0.091129
  H      -0.071315     -1.035344      1.296346
  H       0.052652      1.700309     -0.003380
  H      -0.767140      1.233427      1.514173
13
Coordinates from ORCA-job PC_anion_cpcm_5_default E -381.704186171961
  C       1.623407     -0.336371      0.171102
  C       0.120464     -0.444918      0.364879
  C      -0.570121      0.931340      0.466562
  O      -1.812139      0.757747     -0.179749
  C      -1.539366     -0.150648     -1.308795
  O      -2.530678     -0.674170     -1.868631
  O      -0.516155     -1.072618     -0.740925
  H       2.081015      0.184909      1.020794
  H       1.844790      0.228386     -0.741132
  H       2.084226     -1.325494      0.089759
  H      -0.088085     -1.043629      1.267965
  H       0.043631      1.695992     -0.042425
  H      -0.740989      1.249473      1.500595
13
Coordinates from ORCA-job PC_anion_cpcm_5_default E -381.704223525487
  C       1.632685     -0.337636      0.190071
  C       0.125434     -0.436704      0.343284
  C      -0.564668      0.933840      0.451763
  O      -1.825731      0.740048     -0.153896
  C      -1.569611     -0.147087     -1.302035
  O      -2.567819     -0.701326     -1.822823
  O      -0.485392     -1.036702     -0.793990
  H       2.073430      0.151492      1.067645
  H       1.885076      0.252132     -0.698093
  H       2.085945     -1.328690      0.090433
  H      -0.110129     -1.049598      1.231163
  H       0.027408      1.694097     -0.089144
  H      -0.706628      1.266133      1.485622
13
Coordinates from ORCA-job PC_anion_cpcm_5_default E -381.704248649793
  C       1.631868     -0.337921      0.185182
  C       0.125656     -0.435818      0.349855
  C      -0.567056      0.934356      0.455535
  O      -1.824897      0.744363     -0.161732
  C      -1.562655     -0.148190     -1.304405
  O      -2.558829     -0.697809     -1.834159
  O      -0.490536     -1.045276     -0.781885
  H       2.079714      0.153864      1.058032
  H       1.878049      0.247800     -0.707492
  H       2.082174     -1.330651      0.085750
  H      -0.105161     -1.042498      1.242974
  H       0.028128      1.697336     -0.078186
  H      -0.716455      1.260444      1.490531
13
Coordinates from ORCA-job PC_anion_cpcm_5_default E -381.704266866618
  C       1.632185     -0.338173      0.184266
  C       0.126226     -0.435171      0.351789
  C      -0.569105      0.934272      0.456870
  O      -1.828215      0.739745     -0.156694
  C      -1.560761     -0.145898     -1.304586
  O      -2.552493     -0.692714     -1.842819
  O      -0.490478     -1.047752     -0.779287
  H       2.082493      0.156886      1.054194
  H       1.876230      0.242784     -0.712101
  H       2.079958     -1.332527      0.087753
  H      -0.104755     -1.038152      1.247290
  H       0.022282      1.698280     -0.079952
  H      -0.713565      1.258419      1.493275
13
Coordinates from ORCA-job PC_anion_cpcm_5_default E -381.704270290621
  C       1.633246     -0.338274      0.185729
  C       0.126886     -0.434250      0.350528
  C      -0.568896      0.934422      0.456050
  O      -1.830391      0.736551     -0.152652
  C      -1.563118     -0.144783     -1.303737
  O      -2.553312     -0.692990     -1.842169
  O      -0.488401     -1.045543     -0.782542
  H       2.082835      0.155513      1.056801
  H       1.878960      0.242853     -0.710026
  H       2.079721     -1.333237      0.088911
  H      -0.106806     -1.037661      1.245076
  H       0.018743      1.698488     -0.084826
  H      -0.709466      1.258911      1.492859
13
Coordinates from ORCA-job PC_anion_cpcm_5_default E -381.704271284715
  C       1.633496     -0.338230      0.186123
  C       0.126997     -0.434270      0.350252
  C      -0.568482      0.934311      0.455922
  O      -1.830807      0.735855     -0.151580
  C      -1.563874     -0.144320     -1.303334
  O      -2.553293     -0.692574     -1.842469
  O      -0.488390     -1.045297     -0.782873
  H       2.082729      0.155920      1.057144
  H       1.879225      0.242603     -0.709807
  H       2.080180     -1.333142      0.089687
  H      -0.107351     -1.038124      1.244338
  H       0.018036      1.698319     -0.086141
  H      -0.708467      1.258949      1.492738
