13
Coordinates from ORCA-job PC_anion_cpcm_7_default E -381.640212353637
  C       1.583626     -0.338288      0.054397
  C       0.119798     -0.420765      0.465192
  C      -0.580686      0.955929      0.520491
  O      -1.536891      0.900638     -0.517985
  C      -1.543081     -0.317687     -1.088214
  O      -2.261602     -0.637900     -1.974707
  O      -0.631599     -1.120046     -0.518743
  H       2.151951      0.180080      0.821850
  H       1.681034      0.194200     -0.889025
  H       1.984583     -1.340186     -0.070884
  H       0.020096     -0.969659      1.408167
  H       0.108962      1.780275      0.321121
  H      -1.096192      1.133408      1.468342
13
Coordinates from ORCA-job PC_anion_cpcm_7_default E -381.667434615965
  C       1.598720     -0.344165      0.060329
  C       0.129321     -0.407970      0.463704
  C      -0.580443      0.959682      0.525070
  O      -1.559907      0.911324     -0.521554
  C      -1.514896     -0.295233     -1.153612
  O      -2.342124     -0.671447     -1.956110
  O      -0.627294     -1.119904     -0.533858
  H       2.169883      0.171259      0.837019
  H       1.710924      0.187923     -0.885397
  H       1.994037     -1.355038     -0.060504
  H       0.020103     -0.947580      1.411606
  H       0.097482      1.801323      0.332796
  H      -1.095806      1.109826      1.480513
13
Coordinates from ORCA-job PC_anion_cpcm_7_default E -381.689943417130
  C       1.604281     -0.347239      0.065792
  C       0.133266     -0.403064      0.458345
  C      -0.580313      0.961852      0.525344
  O      -1.566812      0.924032     -0.522032
  C      -1.478045     -0.273388     -1.220180
  O      -2.407899     -0.699948     -1.919658
  O      -0.616396     -1.123454     -0.543160
  H       2.174544      0.167657      0.845969
  H       1.725624      0.184732     -0.881253
  H       1.998437     -1.360924     -0.050151
  H       0.014426     -0.935243      1.409894
  H       0.090879      1.813216      0.345076
  H      -1.091993      1.091772      1.486013
13
Coordinates from ORCA-job PC_anion_cpcm_7_default E -381.703929449359
  C       1.605742     -0.347120      0.073303
  C       0.134511     -0.405820      0.448518
  C      -0.579466      0.962194      0.519810
  O      -1.569775      0.944616     -0.519185
  C      -1.445747     -0.253435     -1.291354
  O      -2.472014     -0.724403     -1.877299
  O      -0.604596     -1.136207     -0.547465
  H       2.172940      0.170743      0.856186
  H       1.734337      0.186858     -0.874119
  H       2.006246     -1.359738     -0.037327
  H       0.006317     -0.929309      1.405180
  H       0.093859      1.814930      0.355902
  H      -1.082352      1.076691      1.487849
13
Coordinates from ORCA-job PC_anion_cpcm_7_default E -381.707357841966
  C       1.593944     -0.342130      0.073143
  C       0.123446     -0.416009      0.446277
  C      -0.581863      0.954860      0.517011
  O      -1.566023      0.938670     -0.515745
  C      -1.398599     -0.236486     -1.348379
  O      -2.469772     -0.720781     -1.829725
  O      -0.620677     -1.144439     -0.534139
  H       2.160125      0.183970      0.851062
  H       1.716367      0.192918     -0.874535
  H       2.007641     -1.349248     -0.035841
  H       0.004899     -0.938581      1.405669
  H       0.111531      1.793141      0.358999
  H      -1.081019      1.084113      1.486203
13
Coordinates from ORCA-job PC_anion_cpcm_7_default E -381.708323907586
  C       1.586159     -0.341301      0.067987
  C       0.118704     -0.422586      0.455757
  C      -0.584220      0.954073      0.524455
  O      -1.576612      0.938990     -0.499062
  C      -1.392180     -0.237855     -1.346664
  O      -2.445754     -0.711319     -1.881437
  O      -0.633905     -1.159615     -0.509068
  H       2.157450      0.197855      0.834042
  H       1.695255      0.186991     -0.886113
  H       2.009445     -1.345894     -0.035518
  H       0.016680     -0.940628      1.419778
  H       0.121829      1.782582      0.358766
  H      -1.072850      1.098708      1.497078
13
Coordinates from ORCA-job PC_anion_cpcm_7_default E -381.709565500206
  C       1.561399     -0.340644      0.049985
  C       0.103735     -0.436997      0.481410
  C      -0.593000      0.950247      0.542982
  O      -1.603035      0.924666     -0.455773
  C      -1.356694     -0.236180     -1.337803
  O      -2.346151     -0.677232     -1.987297
  O      -0.675792     -1.187261     -0.441671
  H       2.145428      0.227944      0.784661
  H       1.634355      0.169637     -0.917704
  H       2.004707     -1.338181     -0.043660
  H       0.044793     -0.946388      1.453388
  H       0.138482      1.753851      0.351653
  H      -1.058227      1.136537      1.519829
13
Coordinates from ORCA-job PC_anion_cpcm_7_default E -381.709734521667
  C       1.553015     -0.342606      0.042727
  C       0.099407     -0.440483      0.490307
  C      -0.597747      0.949192      0.549101
  O      -1.622575      0.910663     -0.430651
  C      -1.339432     -0.230763     -1.332160
  O      -2.296941     -0.659376     -2.023114
  O      -0.690975     -1.193422     -0.419232
  H       2.140469      0.236169      0.766369
  H       1.613866      0.158699     -0.929952
  H       2.000874     -1.338384     -0.045787
  H       0.053933     -0.946731      1.464360
  H       0.134448      1.747126      0.338361
  H      -1.048342      1.149917      1.529671
13
Coordinates from ORCA-job PC_anion_cpcm_7_default E -381.709802856156
  C       1.556171     -0.343591      0.045500
  C       0.101302     -0.439758      0.487708
  C      -0.597728      0.949083      0.546788
  O      -1.634302      0.903249     -0.419972
  C      -1.343451     -0.226437     -1.330777
  O      -2.298499     -0.655686     -2.021701
  O      -0.686339     -1.191024     -0.427883
  H       2.139948      0.234597      0.772473
  H       1.621094      0.156817     -0.926973
  H       2.002599     -1.339967     -0.040582
  H       0.050388     -0.947300      1.460710
  H       0.127202      1.749421      0.323171
  H      -1.038384      1.150596      1.531538
13
Coordinates from ORCA-job PC_anion_cpcm_7_default E -381.709983667560
  C       1.569425     -0.345994      0.060780
  C       0.107887     -0.438790      0.473763
  C      -0.596608      0.947527      0.535668
  O      -1.685778      0.868600     -0.368326
  C      -1.364644     -0.207232     -1.325644
  O      -2.313315     -0.640376     -2.017534
  O      -0.664537     -1.181902     -0.469051
  H       2.135251      0.230536      0.803181
  H       1.654255      0.152712     -0.910215
  H       2.013084     -1.343892     -0.014617
  H       0.031970     -0.953738      1.441072
  H       0.099520      1.753108      0.252106
  H      -0.986509      1.159440      1.538815
13
Coordinates from ORCA-job PC_anion_cpcm_7_default E -381.710124786433
  C       1.581220     -0.346279      0.078045
  C       0.112475     -0.439494      0.458525
  C      -0.594412      0.944959      0.524638
  O      -1.726979      0.836763     -0.320770
  C      -1.389494     -0.190760     -1.320061
  O      -2.337296     -0.629150     -2.009554
  O      -0.640976     -1.171584     -0.512829
  H       2.128918      0.228273      0.835542
  H       1.686719      0.153921     -0.889965
  H       2.025243     -1.344404      0.011028
  H       0.011827     -0.965114      1.418059
  H       0.077896      1.749343      0.185976
  H      -0.935141      1.173527      1.541365
13
Coordinates from ORCA-job PC_anion_cpcm_7_default E -381.710428547220
  C       1.601237     -0.344496      0.112765
  C       0.119179     -0.440634      0.426831
  C      -0.587695      0.939989      0.503777
  O      -1.781787      0.786080     -0.244792
  C      -1.440610     -0.166375     -1.309381
  O      -2.398313     -0.622481     -1.979207
  O      -0.594157     -1.143968     -0.599630
  H       2.115600      0.220536      0.900483
  H       1.748106      0.166754     -0.844285
  H       2.047298     -1.342207      0.053901
  H      -0.028130     -0.990959      1.367326
  H       0.045323      1.734921      0.076727
  H      -0.846051      1.202841      1.535486
13
Coordinates from ORCA-job PC_anion_cpcm_7_default E -381.710706693195
  C       1.613186     -0.340903      0.140033
  C       0.121282     -0.440973      0.400275
  C      -0.579393      0.936733      0.488748
  O      -1.804015      0.764624     -0.206877
  C      -1.483498     -0.156534     -1.303856
  O      -2.457558     -0.639059     -1.940308
  O      -0.559215     -1.115051     -0.666486
  H       2.104193      0.207450      0.954185
  H       1.793518      0.190517     -0.800854
  H       2.062696     -1.337044      0.075461
  H      -0.059682     -1.013114      1.323190
  H       0.036700      1.718110      0.012026
  H      -0.788215      1.225242      1.524462
13
Coordinates from ORCA-job PC_anion_cpcm_7_default E -381.710831344113
  C       1.622735     -0.338867      0.165788
  C       0.122511     -0.441237      0.374935
  C      -0.572892      0.932703      0.473264
  O      -1.826121      0.736340     -0.160419
  C      -1.522638     -0.144413     -1.296362
  O      -2.503664     -0.651394     -1.903884
  O      -0.527977     -1.081628     -0.727814
  H       2.090415      0.190871      1.005556
  H       1.835377      0.214105     -0.755993
  H       2.076994     -1.332452      0.092927
  H      -0.086547     -1.034310      1.280064
  H       0.023008      1.697200     -0.056143
  H      -0.731201      1.253084      1.508081
13
Coordinates from ORCA-job PC_anion_cpcm_7_default E -381.710857694529
  C       1.622666     -0.336473      0.171050
  C       0.119576     -0.441490      0.368127
  C      -0.569342      0.931843      0.470917
  O      -1.816970      0.759023     -0.180594
  C      -1.538456     -0.150368     -1.303939
  O      -2.529508     -0.680187     -1.875064
  O      -0.520501     -1.070240     -0.741225
  H       2.087804      0.179453      1.020548
  H       1.844326      0.232897     -0.739019
  H       2.081275     -1.327148      0.083624
  H      -0.092192     -1.041035      1.269508
  H       0.046641      1.689002     -0.047935
  H      -0.735321      1.254723      1.504003
13
Coordinates from ORCA-job PC_anion_cpcm_7_default E -381.710931550517
  C       1.627694     -0.338517      0.177925
  C       0.123424     -0.438509      0.360242
  C      -0.568708      0.932646      0.464664
  O      -1.826913      0.742460     -0.159485
  C      -1.547975     -0.144395     -1.299133
  O      -2.536678     -0.679947     -1.864489
  O      -0.508823     -1.057008     -0.761254
  H       2.084277      0.172394      1.035166
  H       1.860472      0.232341     -0.728116
  H       2.082223     -1.330895      0.092032
  H      -0.098967     -1.042555      1.256101
  H       0.028326      1.691875     -0.072237
  H      -0.718353      1.260109      1.498584
13
Coordinates from ORCA-job PC_anion_cpcm_7_default E -381.710958436267
  C       1.630809     -0.339702      0.181542
  C       0.125988     -0.435806      0.355404
  C      -0.567893      0.933816      0.460306
  O      -1.829990      0.736991     -0.152576
  C      -1.555002     -0.142731     -1.298784
  O      -2.543661     -0.684765     -1.853340
  O      -0.500516     -1.048854     -0.773412
  H       2.082515      0.164751      1.045171
  H       1.871122      0.234229     -0.720352
  H       2.081270     -1.333541      0.093408
  H      -0.102730     -1.040958      1.249115
  H       0.020346      1.695852     -0.081734
  H      -0.712257      1.260719      1.495252
13
Coordinates from ORCA-job PC_anion_cpcm_7_default E -381.710969471476
  C       1.632216     -0.339946      0.182837
  C       0.127076     -0.434176      0.353318
  C      -0.567193      0.934807      0.458123
  O      -1.829654      0.737632     -0.153481
  C      -1.559067     -0.143674     -1.300251
  O      -2.548685     -0.689765     -1.846154
  O      -0.496112     -1.046144     -0.778282
  H       2.082289      0.159172      1.050389
  H       1.876052      0.237098     -0.716014
  H       2.079931     -1.334680      0.091245
  H      -0.104462     -1.038593      1.246949
  H       0.019387      1.698867     -0.082605
  H      -0.711778      1.259404      1.493926
13
Coordinates from ORCA-job PC_anion_cpcm_7_default E -381.710973124273
  C       1.633824     -0.339781      0.186143
  C       0.127737     -0.432784      0.349213
  C      -0.565879      0.935431      0.455306
  O      -1.830565      0.736672     -0.151367
  C      -1.565612     -0.144085     -1.300373
  O      -2.556694     -0.696164     -1.836719
  O      -0.490021     -1.040672     -0.787216
  H       2.080967      0.152827      1.058881
  H       1.882988      0.242205     -0.708060
  H       2.079929     -1.334890      0.090341
  H      -0.108782     -1.038815      1.240709
  H       0.018508      1.699211     -0.088328
  H      -0.706399      1.260844      1.491470
13
Coordinates from ORCA-job PC_anion_cpcm_7_default E -381.710974147090
  C       1.634052     -0.339587      0.186515
  C       0.127817     -0.432586      0.348846
  C      -0.565652      0.935694      0.454907
  O      -1.830206      0.737206     -0.152481
  C      -1.566336     -0.144658     -1.300560
  O      -2.558249     -0.697232     -1.835138
  O      -0.488939     -1.040781     -0.787866
  H       2.081335      0.151532      1.059989
  H       1.883469      0.243520     -0.706910
  H       2.079591     -1.334857      0.089402
  H      -0.109607     -1.038487      1.240236
  H       0.019038      1.699663     -0.088165
  H      -0.706314      1.260574      1.491225
13
Coordinates from ORCA-job PC_anion_cpcm_7_default E -381.710974642297
  C       1.633520     -0.339335      0.185448
  C       0.127509     -0.433155      0.350435
  C      -0.565967      0.935586      0.455735
  O      -1.829270      0.738214     -0.154857
  C      -1.564254     -0.145157     -1.300840
  O      -2.556503     -0.695170     -1.837938
  O      -0.490532     -1.043797     -0.784199
  H       2.082473      0.153011      1.057354
  H       1.880555      0.242967     -0.709181
  H       2.079286     -1.334545      0.088519
  H      -0.108477     -1.037996      1.242862
  H       0.020383      1.699689     -0.085331
  H      -0.708725      1.259686      1.491992
13
Coordinates from ORCA-job PC_anion_cpcm_7_default E -381.710974924226
  C       1.633627     -0.339349      0.185872
  C       0.127526     -0.433249      0.350082
  C      -0.565915      0.935434      0.455540
  O      -1.829644      0.737402     -0.153904
  C      -1.564711     -0.144729     -1.300513
  O      -2.556917     -0.694932     -1.837577
  O      -0.490158     -1.043145     -0.785046
  H       2.082261      0.153020      1.057933
  H       1.880979      0.243072     -0.708598
  H       2.079637     -1.334453      0.089036
  H      -0.108782     -1.038512      1.242155
  H       0.019932      1.699155     -0.086632
  H      -0.707834      1.260284      1.491654
