13
Coordinates from ORCA-job PC_anion_cpcm_28_default E -381.723829144379
  C           1.63470118406761     -0.33966752028802      0.18575708299785
  C           0.12960543600919     -0.43039023820094      0.34899584199686
  C          -0.56346704428877      0.93675530109429      0.45565481782287
  O          -1.82907982964601      0.73640269211541     -0.15722934254307
  C          -1.56520544207878     -0.14630001667739     -1.29623545149868
  O          -2.56183525089698     -0.70170125684453     -1.82984082337536
  O          -0.49079092588197     -1.03679565140734     -0.79269590511588
  H           2.08107425908190      0.14749403472916      1.06142604848405
  H           1.88631375340362      0.24726010814513     -0.70453910358545
  H           2.07907895831561     -1.33515119104749      0.08677666446418
  H          -0.11045653691307     -1.03980952779518      1.23614681999229
  H           0.01901641065635      1.70245931002872     -0.08551743658892
  H          -0.70895496182866      1.25944396614820      1.49130077694926
