13
Coordinates from ORCA-job PC_anion_cpcm_1000_default E -381.728081033407
  C           1.63473979188044     -0.33955884929508      0.18519917315987
  C           0.13001426257857     -0.42995572839673      0.34956184294530
  C          -0.56287739288533      0.93701649603627      0.45606698769926
  O          -1.82857230341951      0.73605097596672     -0.15920723124507
  C          -1.56421040911579     -0.14695798070347     -1.29495504823572
  O          -2.56257427217177     -0.70215177236574     -1.82898077120321
  O          -0.49198250356119     -1.03672022219574     -0.79293475350681
  H           2.08135312393390      0.14662662910670      1.06111765359059
  H           1.88625657189457      0.24856042996818     -0.70432747024482
  H           2.07898023832330     -1.33501122183592      0.08554627828026
  H          -0.11041453675063     -1.04007889659633      1.23574957027483
  H           0.01942307880661      1.70304935107623     -0.08422812713663
  H          -0.71013563951314      1.25913079923492      1.49139188562215
