13
Coordinates from ORCA-job PC_anion_cpcm_28_default E -381.654214382305
  C       1.583626     -0.338288      0.054397
  C       0.119798     -0.420765      0.465192
  C      -0.580686      0.955929      0.520491
  O      -1.536891      0.900638     -0.517985
  C      -1.543081     -0.317687     -1.088214
  O      -2.261602     -0.637900     -1.974707
  O      -0.631599     -1.120046     -0.518743
  H       2.151951      0.180080      0.821850
  H       1.681034      0.194200     -0.889025
  H       1.984583     -1.340186     -0.070884
  H       0.020096     -0.969659      1.408167
  H       0.108962      1.780275      0.321121
  H      -1.096192      1.133408      1.468342
13
Coordinates from ORCA-job PC_anion_cpcm_28_default E -381.680222050603
  C       1.599145     -0.343585      0.061619
  C       0.129838     -0.409376      0.460684
  C      -0.580194      0.959821      0.522153
  O      -1.559340      0.908993     -0.522350
  C      -1.516338     -0.295611     -1.152307
  O      -2.345970     -0.671513     -1.949465
  O      -0.629548     -1.118508     -0.535700
  H       2.167261      0.169204      0.842409
  H       1.715457      0.192349     -0.881714
  H       1.995341     -1.353886     -0.061487
  H       0.020253     -0.949226      1.407812
  H       0.097867      1.799795      0.330764
  H      -1.093774      1.111543      1.477582
13
Coordinates from ORCA-job PC_anion_cpcm_28_default E -381.703295516964
  C       1.605018     -0.346840      0.066943
  C       0.134142     -0.404217      0.455648
  C      -0.579946      0.962264      0.522757
  O      -1.566731      0.922121     -0.522728
  C      -1.479931     -0.273888     -1.218861
  O      -2.412851     -0.700440     -1.914444
  O      -0.618521     -1.122475     -0.545053
  H       2.171890      0.165437      0.850981
  H       1.730954      0.188822     -0.877643
  H       2.000139     -1.359938     -0.050856
  H       0.014709     -0.936566      1.406447
  H       0.091213      1.812469      0.343303
  H      -1.090088      1.093252      1.483508
13
Coordinates from ORCA-job PC_anion_cpcm_28_default E -381.717240196719
  C       1.606516     -0.346768      0.074146
  C       0.135566     -0.406084      0.446847
  C      -0.578488      0.962594      0.518381
  O      -1.570098      0.943062     -0.521002
  C      -1.447348     -0.253825     -1.290169
  O      -2.478094     -0.725799     -1.872959
  O      -0.606639     -1.135588     -0.550342
  H       2.170340      0.168603      0.860389
  H       1.739852      0.190634     -0.870858
  H       2.008000     -1.358855     -0.037696
  H       0.006446     -0.930319      1.402395
  H       0.094927      1.814564      0.354803
  H      -1.080981      1.077780      1.486065
13
Coordinates from ORCA-job PC_anion_cpcm_28_default E -381.720341117248
  C       1.594484     -0.341997      0.073319
  C       0.124709     -0.415291      0.445957
  C      -0.580609      0.954973      0.516863
  O      -1.565796      0.936300     -0.518736
  C      -1.399465     -0.236763     -1.344951
  O      -2.473234     -0.721441     -1.825400
  O      -0.622759     -1.142701     -0.537632
  H       2.158104      0.181935      0.853981
  H       1.720729      0.195907     -0.872308
  H       2.008549     -1.348837     -0.036240
  H       0.004918     -0.940136      1.403117
  H       0.111713      1.792780      0.357739
  H      -1.081343      1.085270      1.484291
13
Coordinates from ORCA-job PC_anion_cpcm_28_default E -381.721275952690
  C       1.587103     -0.341410      0.068159
  C       0.120543     -0.421364      0.455588
  C      -0.582678      0.954392      0.524639
  O      -1.576528      0.937389     -0.502093
  C      -1.393679     -0.238152     -1.342564
  O      -2.450597     -0.712576     -1.878405
  O      -0.635209     -1.157982     -0.512955
  H       2.156110      0.195639      0.836742
  H       1.700123      0.189531     -0.884080
  H       2.010467     -1.345882     -0.035311
  H       0.016400     -0.941853      1.417225
  H       0.121334      1.783173      0.357663
  H      -1.073390      1.099095      1.495392
13
Coordinates from ORCA-job PC_anion_cpcm_28_default E -381.722364513075
  C       1.565267     -0.341045      0.051906
  C       0.107802     -0.433634      0.479000
  C      -0.590085      0.950973      0.541853
  O      -1.599794      0.924942     -0.463659
  C      -1.361986     -0.236556     -1.333897
  O      -2.362606     -0.682382     -1.974784
  O      -0.672351     -1.182609     -0.452611
  H       2.146603      0.222629      0.791897
  H       1.645532      0.173488     -0.912970
  H       2.006120     -1.339443     -0.041892
  H       0.041217     -0.946844      1.447618
  H       0.135393      1.758424      0.351512
  H      -1.061112      1.132057      1.516027
13
Coordinates from ORCA-job PC_anion_cpcm_28_default E -381.722576759023
  C       1.553793     -0.342881      0.042444
  C       0.101665     -0.438575      0.490746
  C      -0.595667      0.949408      0.550030
  O      -1.621225      0.909138     -0.434886
  C      -1.339615     -0.231025     -1.327171
  O      -2.301354     -0.661012     -2.020497
  O      -0.692912     -1.191290     -0.422312
  H       2.140457      0.233708      0.767955
  H       1.617777      0.161278     -0.928656
  H       2.001148     -1.338750     -0.045843
  H       0.053228     -0.947799      1.462217
  H       0.133294      1.748487      0.338108
  H      -1.050590      1.149313      1.527866
13
Coordinates from ORCA-job PC_anion_cpcm_28_default E -381.722640541057
  C       1.557724     -0.343414      0.046025
  C       0.103737     -0.437694      0.487079
  C      -0.595118      0.949427      0.546829
  O      -1.629683      0.903911     -0.428263
  C      -1.345597     -0.227849     -1.326858
  O      -2.308946     -0.659961     -2.013891
  O      -0.686943     -1.188185     -0.433207
  H       2.140301      0.230950      0.776466
  H       1.627259      0.161554     -0.923916
  H       2.003261     -1.339970     -0.041293
  H       0.048930     -0.948532      1.457301
  H       0.127572      1.751020      0.325578
  H      -1.042497      1.148745      1.528150
13
Coordinates from ORCA-job PC_anion_cpcm_28_default E -381.722794148557
  C       1.569929     -0.344798      0.060135
  C       0.109253     -0.436803      0.473473
  C      -0.593479      0.948549      0.535868
  O      -1.670105      0.877957     -0.389947
  C      -1.366225     -0.213362     -1.324884
  O      -2.329361     -0.651851     -2.002481
  O      -0.667066     -1.179302     -0.471181
  H       2.136291      0.224956      0.806777
  H       1.659011      0.162080     -0.906541
  H       2.012592     -1.342694     -0.021275
  H       0.032485     -0.954228      1.438642
  H       0.107213      1.754643      0.268669
  H      -1.000538      1.154853      1.532745
13
Coordinates from ORCA-job PC_anion_cpcm_28_default E -381.722963207595
  C       1.584365     -0.345431      0.080860
  C       0.114838     -0.437434      0.454507
  C      -0.591007      0.946096      0.521646
  O      -1.722029      0.839070     -0.331512
  C      -1.396135     -0.193594     -1.319210
  O      -2.357175     -0.639532     -1.991879
  O      -0.639142     -1.166393     -0.523994
  H       2.128002      0.220107      0.847454
  H       1.699532      0.164580     -0.881049
  H       2.026712     -1.343830      0.007957
  H       0.008966     -0.966845      1.410646
  H       0.080785      1.751837      0.188147
  H      -0.937712      1.171369      1.536428
13
Coordinates from ORCA-job PC_anion_cpcm_28_default E -381.723235403838
  C       1.603888     -0.344738      0.113719
  C       0.121907     -0.437966      0.423918
  C      -0.585589      0.941802      0.500577
  O      -1.780214      0.784835     -0.250825
  C      -1.444126     -0.168381     -1.308268
  O      -2.409847     -0.629641     -1.966460
  O      -0.594569     -1.139639     -0.606888
  H       2.114077      0.211307      0.909950
  H       1.759463      0.174840     -0.837369
  H       2.047049     -1.343239      0.049348
  H      -0.028028     -0.989479      1.362399
  H       0.044091      1.740391      0.078051
  H      -0.848103      1.199909      1.531847
13
Coordinates from ORCA-job PC_anion_cpcm_28_default E -381.723537320728
  C       1.621626     -0.342216      0.150815
  C       0.127450     -0.436185      0.387194
  C      -0.575947      0.938067      0.478695
  O      -1.818873      0.740385     -0.180780
  C      -1.500425     -0.150390     -1.295346
  O      -2.480510     -0.641751     -1.921246
  O      -0.544361     -1.097502     -0.700597
  H       2.097336      0.193075      0.982144
  H       1.823843      0.199239     -0.779733
  H       2.066008     -1.340253      0.084260
  H      -0.071153     -1.016298      1.300794
  H       0.015007      1.721861     -0.023008
  H      -0.759999      1.231968      1.516807
13
Coordinates from ORCA-job PC_anion_cpcm_28_default E -381.723660636459
  C       1.621196     -0.338528      0.157343
  C       0.124030     -0.436973      0.380394
  C      -0.571101      0.936501      0.478437
  O      -1.811241      0.759754     -0.195938
  C      -1.515877     -0.156258     -1.299595
  O      -2.507814     -0.667531     -1.899348
  O      -0.535424     -1.087660     -0.716456
  H       2.095141      0.186703      0.995921
  H       1.830710      0.217029     -0.763977
  H       2.071029     -1.333805      0.079936
  H      -0.081115     -1.025754      1.288197
  H       0.037743      1.710431     -0.019681
  H      -0.757277      1.236091      1.514767
13
Coordinates from ORCA-job PC_anion_cpcm_28_default E -381.723753295279
  C       1.627362     -0.338276      0.173940
  C       0.125319     -0.436385      0.363989
  C      -0.567574      0.933934      0.467683
  O      -1.827151      0.736671     -0.160715
  C      -1.539956     -0.146702     -1.292988
  O      -2.531475     -0.673546     -1.874411
  O      -0.515030     -1.062169     -0.756865
  H       2.085669      0.173915      1.028996
  H       1.857626      0.230716     -0.733836
  H       2.079408     -1.331991      0.090988
  H      -0.097872     -1.039461      1.258939
  H       0.023674      1.697008     -0.067940
  H      -0.719999      1.256286      1.502220
13
Coordinates from ORCA-job PC_anion_cpcm_28_default E -381.723794686147
  C       1.629258     -0.338980      0.177469
  C       0.126196     -0.435619      0.360166
  C      -0.567075      0.933756      0.464310
  O      -1.828371      0.736016     -0.158304
  C      -1.546810     -0.144746     -1.294236
  O      -2.538570     -0.680037     -1.861050
  O      -0.509210     -1.053629     -0.766723
  H       2.084120      0.167386      1.037786
  H       1.865214      0.234970     -0.725549
  H       2.080819     -1.332394      0.090446
  H      -0.100133     -1.041942      1.252343
  H       0.022499      1.695825     -0.074579
  H      -0.717937      1.259394      1.497919
13
Coordinates from ORCA-job PC_anion_cpcm_28_default E -381.723816828131
  C       1.631355     -0.339584      0.180598
  C       0.127576     -0.433781      0.355989
  C      -0.565858      0.934617      0.460981
  O      -1.827979      0.738108     -0.159534
  C      -1.554409     -0.144848     -1.296222
  O      -2.547838     -0.689947     -1.846747
  O      -0.502437     -1.045744     -0.776900
  H       2.082940      0.159456      1.046926
  H       1.873544      0.239630     -0.717364
  H       2.080657     -1.333466      0.088700
  H      -0.102908     -1.041883      1.246163
  H       0.022285      1.697962     -0.077533
  H      -0.716929      1.259479      1.494942
13
Coordinates from ORCA-job PC_anion_cpcm_28_default E -381.723825282694
  C       1.633883     -0.339916      0.185020
  C       0.129104     -0.431406      0.350156
  C      -0.564049      0.935798      0.456991
  O      -1.829468      0.736405     -0.156066
  C      -1.563264     -0.144876     -1.296083
  O      -2.558414     -0.699326     -1.833157
  O      -0.493778     -1.036801     -0.790395
  H       2.080763      0.150997      1.058397
  H       1.883968      0.244849     -0.707176
  H       2.080379     -1.334641      0.088679
  H      -0.108431     -1.041855      1.237190
  H       0.019313      1.700083     -0.085350
  H      -0.710007      1.260690      1.491794
13
Coordinates from ORCA-job PC_anion_cpcm_28_default E -381.723828309227
  C       1.634495     -0.339834      0.185343
  C       0.129576     -0.430508      0.349384
  C      -0.563606      0.936624      0.456064
  O      -1.828839      0.737224     -0.157776
  C      -1.564713     -0.146118     -1.296527
  O      -2.560950     -0.701802     -1.830284
  O      -0.491640     -1.036670     -0.792008
  H       2.080997      0.148264      1.060438
  H       1.885792      0.246416     -0.705496
  H       2.079229     -1.335199      0.087053
  H      -0.109617     -1.040025      1.236686
  H       0.019377      1.702386     -0.084477
  H      -0.710102      1.259241      1.491599
13
Coordinates from ORCA-job PC_anion_cpcm_28_default E -381.723829144379
  C       1.634701     -0.339668      0.185757
  C       0.129605     -0.430390      0.348996
  C      -0.563467      0.936755      0.455655
  O      -1.829080      0.736403     -0.157229
  C      -1.565205     -0.146300     -1.296235
  O      -2.561835     -0.701701     -1.829841
  O      -0.490791     -1.036796     -0.792696
  H       2.081074      0.147494      1.061426
  H       1.886314      0.247260     -0.704539
  H       2.079079     -1.335151      0.086777
  H      -0.110457     -1.039810      1.236147
  H       0.019016      1.702459     -0.085517
  H      -0.708955      1.259444      1.491301
