13
Coordinates from ORCA-job PC_anion_cpcm_14_default E -381.649356752927
  C       1.583626     -0.338288      0.054397
  C       0.119798     -0.420765      0.465192
  C      -0.580686      0.955929      0.520491
  O      -1.536891      0.900638     -0.517985
  C      -1.543081     -0.317687     -1.088214
  O      -2.261602     -0.637900     -1.974707
  O      -0.631599     -1.120046     -0.518743
  H       2.151951      0.180080      0.821850
  H       1.681034      0.194200     -0.889025
  H       1.984583     -1.340186     -0.070884
  H       0.020096     -0.969659      1.408167
  H       0.108962      1.780275      0.321121
  H      -1.096192      1.133408      1.468342
13
Coordinates from ORCA-job PC_anion_cpcm_14_default E -381.675943983913
  C       1.598984     -0.343852      0.061136
  C       0.129674     -0.408931      0.461722
  C      -0.580396      0.959793      0.523109
  O      -1.559562      0.909898     -0.521840
  C      -1.515670     -0.295396     -1.152756
  O      -2.344366     -0.671385     -1.951943
  O      -0.628644     -1.119003     -0.534846
  H       2.168206      0.169959      0.840404
  H       1.713651      0.190609     -0.883142
  H       1.994847     -1.354346     -0.061105
  H       0.020241     -0.948571      1.409190
  H       0.097523      1.800362      0.331462
  H      -1.094489      1.110863      1.478610
13
Coordinates from ORCA-job PC_anion_cpcm_14_default E -381.698834247765
  C       1.604750     -0.347024      0.066517
  C       0.133840     -0.403877      0.456566
  C      -0.580174      0.962143      0.523601
  O      -1.566801      0.922845     -0.522249
  C      -1.479134     -0.273649     -1.219333
  O      -2.410921     -0.700176     -1.916520
  O      -0.617722     -1.122857     -0.544178
  H       2.172834      0.166273      0.849115
  H       1.728901      0.187229     -0.879030
  H       1.999531     -1.360324     -0.050562
  H       0.014640     -0.936008      1.407724
  H       0.090954      1.812765      0.343921
  H      -1.090696      1.092661      1.484427
13
Coordinates from ORCA-job PC_anion_cpcm_14_default E -381.712774561117
  C       1.606214     -0.346892      0.073829
  C       0.135157     -0.406049      0.447401
  C      -0.578889      0.962451      0.518834
  O      -1.570022      0.943504     -0.520239
  C      -1.446626     -0.253640     -1.290624
  O      -2.475729     -0.725195     -1.874531
  O      -0.606037     -1.135811     -0.549195
  H       2.171209      0.169412      0.858842
  H       1.737813      0.189246     -0.872069
  H       2.007375     -1.359155     -0.037558
  H       0.006400     -0.929913      1.403405
  H       0.094536      1.814661      0.355191
  H      -1.081401      1.077380      1.486713
13
Coordinates from ORCA-job PC_anion_cpcm_14_default E -381.715980581756
  C       1.594264     -0.342055      0.073216
  C       0.124260     -0.415567      0.446126
  C      -0.581075      0.954952      0.516958
  O      -1.566005      0.937090     -0.517541
  C      -1.399152     -0.236682     -1.345991
  O      -2.471782     -0.721117     -1.827379
  O      -0.622128     -1.143382     -0.536252
  H       2.158799      0.182716      0.852839
  H       1.719108      0.194772     -0.873190
  H       2.008233     -1.348986     -0.036089
  H       0.004977     -0.939560      1.404094
  H       0.111647      1.792888      0.358165
  H      -1.081146      1.084932      1.485044
13
Coordinates from ORCA-job PC_anion_cpcm_14_default E -381.716920611489
  C       1.586703     -0.341374      0.068044
  C       0.119865     -0.421830      0.455713
  C      -0.583244      0.954277      0.524629
  O      -1.576690      0.937859     -0.500864
  C      -1.393014     -0.238024     -1.343954
  O      -2.448589     -0.712016     -1.879841
  O      -0.634921     -1.158632     -0.511389
  H       2.156532      0.196509      0.835646
  H       1.698278      0.188566     -0.884901
  H       2.010098     -1.345871     -0.035380
  H       0.016566     -0.941416      1.418210
  H       0.121531      1.782900      0.358018
  H      -1.073115      1.099051      1.496069
13
Coordinates from ORCA-job PC_anion_cpcm_14_default E -381.718059896806
  C       1.563753     -0.340912      0.051116
  C       0.106313     -0.434866      0.480004
  C      -0.591135      0.950689      0.542384
  O      -1.601121      0.924683     -0.460611
  C      -1.359809     -0.236365     -1.335185
  O      -2.356205     -0.680359     -1.979773
  O      -0.673859     -1.184357     -0.448381
  H       2.146120      0.224645      0.789057
  H       1.641285      0.172032     -0.914821
  H       2.005571     -1.338970     -0.042545
  H       0.042603     -0.946734      1.449809
  H       0.136500      1.756680      0.351452
  H      -1.060017      1.133835      1.517495
13
Coordinates from ORCA-job PC_anion_cpcm_14_default E -381.718253152444
  C       1.553589     -0.342777      0.042617
  C       0.100918     -0.439213      0.490518
  C      -0.596359      0.949327      0.549654
  O      -1.621749      0.909607     -0.433408
  C      -1.339653     -0.230901     -1.328901
  O      -2.300078     -0.660490     -2.021173
  O      -0.692153     -1.191945     -0.421462
  H       2.140455      0.234476      0.767606
  H       1.616651      0.160473     -0.928974
  H       2.001091     -1.338621     -0.045778
  H       0.053383     -0.947497      1.462824
  H       0.133648      1.748029      0.338032
  H      -1.049743      1.149532      1.528444
13
Coordinates from ORCA-job PC_anion_cpcm_14_default E -381.718317684278
  C       1.557198     -0.343461      0.045887
  C       0.102889     -0.438416      0.487262
  C      -0.596008      0.949295      0.546789
  O      -1.631386      0.903589     -0.425304
  C      -1.344895     -0.227336     -1.328181
  O      -2.305360     -0.658470     -2.016553
  O      -0.686735     -1.189129     -0.431451
  H       2.140148      0.232171      0.775204
  H       1.625230      0.159998     -0.924892
  H       2.003052     -1.339946     -0.041044
  H       0.049390     -0.948181      1.458403
  H       0.127445      1.750412      0.324567
  H      -1.040968      1.149475      1.529313
13
Coordinates from ORCA-job PC_anion_cpcm_14_default E -381.718486306873
  C       1.570212     -0.345239      0.060951
  C       0.108950     -0.437485      0.473002
  C      -0.594489      0.948157      0.535336
  O      -1.677148      0.873625     -0.380860
  C      -1.366563     -0.210714     -1.325002
  O      -2.324572     -0.647602     -2.007291
  O      -0.665456     -1.179808     -0.471955
  H       2.135712      0.226594      0.806847
  H       1.658666      0.159015     -0.907030
  H       2.013133     -1.343170     -0.018273
  H       0.031650     -0.954346      1.438681
  H       0.103819      1.754141      0.260606
  H      -0.993914      1.156831      1.534988
13
Coordinates from ORCA-job PC_anion_cpcm_14_default E -381.718645995058
  C       1.583881     -0.345780      0.080751
  C       0.114271     -0.438151      0.455120
  C      -0.592117      0.945576      0.522081
  O      -1.725969      0.836348     -0.325023
  C      -1.395068     -0.191732     -1.319056
  O      -2.351190     -0.635167     -1.997792
  O      -0.638625     -1.167574     -0.522322
  H       2.127971      0.222745      0.844997
  H       1.696786      0.160893     -0.883123
  H       2.026754     -1.344122      0.010297
  H       0.008976     -0.966728      1.412039
  H       0.078385      1.750805      0.183819
  H      -0.934055      1.172887      1.538212
13
Coordinates from ORCA-job PC_anion_cpcm_14_default E -381.718928203863
  C       1.603628     -0.344729      0.114335
  C       0.121299     -0.438733      0.424004
  C      -0.586182      0.941090      0.501034
  O      -1.782434      0.783395     -0.246104
  C      -1.444331     -0.166937     -1.308049
  O      -2.407212     -0.626705     -1.970208
  O      -0.592976     -1.140099     -0.606936
  H       2.114283      0.214097      0.908497
  H       1.757435      0.172110     -0.838544
  H       2.047569     -1.343061      0.052211
  H      -0.029205     -0.990405      1.362623
  H       0.042833      1.738387      0.074255
  H      -0.844707      1.201590      1.532882
13
Coordinates from ORCA-job PC_anion_cpcm_14_default E -381.719232991172
  C       1.621419     -0.341766      0.152302
  C       0.126502     -0.436995      0.386249
  C      -0.575742      0.937398      0.478934
  O      -1.819025      0.741736     -0.179445
  C      -1.502248     -0.149840     -1.295850
  O      -2.481929     -0.642792     -1.920484
  O      -0.542041     -1.096327     -0.702670
  H       2.097455      0.194748      0.982802
  H       1.822987      0.199031     -0.778831
  H       2.066913     -1.339423      0.086282
  H      -0.073534     -1.018440      1.299110
  H       0.016655      1.718953     -0.025352
  H      -0.757411      1.233716      1.516953
13
Coordinates from ORCA-job PC_anion_cpcm_14_default E -381.719344219473
  C       1.621114     -0.338499      0.158427
  C       0.123284     -0.437872      0.379758
  C      -0.571482      0.935934      0.477933
  O      -1.812072      0.759080     -0.193284
  C      -1.516678     -0.154871     -1.300490
  O      -2.507106     -0.666626     -1.898601
  O      -0.534157     -1.086882     -0.717268
  H       2.095025      0.187700      0.996522
  H       1.830081      0.216309     -0.763377
  H       2.071681     -1.333483      0.081249
  H      -0.082075     -1.026978      1.287625
  H       0.037745      1.708350     -0.022637
  H      -0.755360      1.237837      1.514143
13
Coordinates from ORCA-job PC_anion_cpcm_14_default E -381.719428526069
  C       1.627657     -0.338059      0.176858
  C       0.124406     -0.437330      0.361400
  C      -0.567441      0.933030      0.466049
  O      -1.828853      0.735137     -0.155530
  C      -1.544126     -0.144832     -1.293877
  O      -2.534679     -0.674909     -1.870422
  O      -0.511491     -1.058592     -0.761807
  H       2.084272      0.172920      1.033654
  H       1.859986      0.232727     -0.729267
  H       2.081191     -1.331047      0.092540
  H      -0.100433     -1.042135      1.255311
  H       0.024065      1.692823     -0.074867
  H      -0.714554      1.260266      1.499958
13
Coordinates from ORCA-job PC_anion_cpcm_14_default E -381.719466933046
  C       1.628614     -0.338860      0.177318
  C       0.125209     -0.436685      0.360661
  C      -0.567761      0.933314      0.464518
  O      -1.827783      0.738190     -0.158795
  C      -1.546791     -0.144625     -1.296196
  O      -2.537360     -0.679357     -1.862657
  O      -0.509279     -1.055306     -0.764103
  H       2.084466      0.168830      1.036495
  H       1.863013      0.234205     -0.726715
  H       2.081104     -1.331908      0.090203
  H      -0.099362     -1.041826      1.254464
  H       0.024743      1.694380     -0.073310
  H      -0.718813      1.259649      1.498117
13
Coordinates from ORCA-job PC_anion_cpcm_14_default E -381.719490664779
  C       1.631760     -0.339780      0.181883
  C       0.127382     -0.433969      0.354516
  C      -0.566248      0.934547      0.459816
  O      -1.828801      0.737987     -0.156860
  C      -1.556945     -0.144174     -1.297468
  O      -2.549105     -0.690596     -1.845361
  O      -0.499810     -1.044586     -0.778632
  H       2.082454      0.158786      1.049138
  H       1.875199      0.239365     -0.715812
  H       2.080862     -1.333747      0.089658
  H      -0.103726     -1.041660      1.245248
  H       0.021410      1.697570     -0.080316
  H      -0.714434      1.260256      1.494190
13
Coordinates from ORCA-job PC_anion_cpcm_14_default E -381.719497465449
  C       1.633163     -0.339913      0.183651
  C       0.128386     -0.432340      0.351792
  C      -0.565229      0.935598      0.457688
  O      -1.828697      0.738346     -0.157201
  C      -1.561326     -0.145038     -1.298082
  O      -2.554860     -0.696244     -1.837902
  O      -0.495133     -1.041041     -0.784800
  H       2.081795      0.153661      1.054785
  H       1.880525      0.242214     -0.711009
  H       2.079809     -1.334726      0.088507
  H      -0.106390     -1.040115      1.241690
  H       0.020344      1.700350     -0.082107
  H      -0.712386      1.259249      1.492988
13
Coordinates from ORCA-job PC_anion_cpcm_14_default E -381.719500068136
  C       1.633993     -0.339755      0.185010
  C       0.128803     -0.431516      0.350037
  C      -0.564552      0.936147      0.456304
  O      -1.829154      0.737301     -0.156156
  C      -1.563966     -0.145522     -1.297855
  O      -2.558366     -0.698612     -1.834245
  O      -0.492036     -1.039379     -0.788654
  H       2.081395      0.150668      1.058509
  H       1.883567      0.244413     -0.707679
  H       2.079284     -1.335041      0.087949
  H      -0.108733     -1.039378      1.239249
  H       0.019394      1.701370     -0.084559
  H      -0.709629      1.259302      1.492090
13
Coordinates from ORCA-job PC_anion_cpcm_14_default E -381.719500662005
  C       1.634612     -0.339618      0.186324
  C       0.129023     -0.431112      0.348578
  C      -0.564117      0.936369      0.455213
  O      -1.829750      0.736065     -0.154845
  C      -1.566032     -0.145525     -1.297468
  O      -2.561110     -0.700035     -1.831264
  O      -0.489665     -1.037784     -0.791799
  H       2.081086      0.148517      1.061552
  H       1.885804      0.246288     -0.704765
  H       2.079295     -1.335059      0.087770
  H      -0.110656     -1.039530      1.236914
  H       0.018632      1.701358     -0.087318
  H      -0.707123      1.260067      1.491109
13
Coordinates from ORCA-job PC_anion_cpcm_14_default E -381.719500988484
  C       1.634343     -0.339507      0.185750
  C       0.128865     -0.431438      0.349436
  C      -0.564335      0.936278      0.455631
  O      -1.829257      0.736541     -0.156100
  C      -1.564939     -0.145730     -1.297667
  O      -2.560166     -0.698815     -1.832713
  O      -0.490534     -1.039389     -0.789786
  H       2.081701      0.149272      1.060158
  H       1.884281      0.245995     -0.705959
  H       2.079195     -1.334885      0.087270
  H      -0.109963     -1.039262      1.238374
  H       0.019327      1.701296     -0.085853
  H      -0.708517      1.259646      1.491459
