13
Coordinates from ORCA-job PC_anion_cpcm_20_default E -381.722092636963
  C           1.63449205657061     -0.33955133490039      0.18566585516376
  C           0.12924096750935     -0.43094998322795      0.34936488287639
  C          -0.56389020549515      0.93648508114749      0.45573693389647
  O          -1.82915785708727      0.73628333182392     -0.15675632760041
  C          -1.56482718638327     -0.14601839850848     -1.29677627992554
  O          -2.56087281186880     -0.69991287661670     -1.83158032551559
  O          -0.49090889002978     -1.03831664504467     -0.79099851422745
  H           2.08147244389894      0.14849434677720      1.06058926390685
  H           1.88508829825800      0.24667751692077     -0.70537956373754
  H           2.07917112712777     -1.33495413654437      0.08696183752112
  H          -0.11013392541499     -1.03960462847012      1.23736137392977
  H           0.01915752433020      1.70181755419761     -0.08560448039232
  H          -0.70883153141557      1.25955018244571      1.49141533410450
