13
Coordinates from ORCA-job PC_anion_cpcm_200_default E -381.658554728351
  C       1.583626     -0.338288      0.054397
  C       0.119798     -0.420765      0.465192
  C      -0.580686      0.955929      0.520491
  O      -1.536891      0.900638     -0.517985
  C      -1.543081     -0.317687     -1.088214
  O      -2.261602     -0.637900     -1.974707
  O      -0.631599     -1.120046     -0.518743
  H       2.151951      0.180080      0.821850
  H       1.681034      0.194200     -0.889025
  H       1.984583     -1.340186     -0.070884
  H       0.020096     -0.969659      1.408167
  H       0.108962      1.780275      0.321121
  H      -1.096192      1.133408      1.468342
13
Coordinates from ORCA-job PC_anion_cpcm_200_default E -381.683937334492
  C       1.599300     -0.343315      0.062065
  C       0.129978     -0.409728      0.459796
  C      -0.579941      0.959836      0.521371
  O      -1.559128      0.908178     -0.522954
  C      -1.517048     -0.295858     -1.151912
  O      -2.347611     -0.671721     -1.947243
  O      -0.630373     -1.118082     -0.536604
  H       2.166422      0.168517      0.844225
  H       1.717191      0.194000     -0.880364
  H       1.995805     -1.353453     -0.061822
  H       0.020242     -0.949850      1.406575
  H       0.098314      1.799290      0.330175
  H      -1.093150      1.112186      1.476693
13
Coordinates from ORCA-job PC_anion_cpcm_200_default E -381.707148657528
  C       1.605265     -0.346655      0.067335
  C       0.134410     -0.404471      0.454853
  C      -0.579678      0.962356      0.522056
  O      -1.566633      0.921467     -0.523317
  C      -1.480729     -0.274141     -1.218430
  O      -2.414715     -0.700745     -1.912441
  O      -0.619233     -1.122112     -0.545990
  H       2.171050      0.164660      0.852690
  H       1.732895      0.190336     -0.876333
  H       2.000686     -1.359577     -0.051124
  H       0.014748     -0.937120      1.405266
  H       0.091537      1.812192      0.342769
  H      -1.089603      1.093810      1.482664
13
Coordinates from ORCA-job PC_anion_cpcm_200_default E -381.717928194375
  C       1.606963     -0.346784      0.072497
  C       0.136460     -0.405757      0.450090
  C      -0.578249      0.963214      0.519959
  O      -1.570331      0.939580     -0.520688
  C      -1.461477     -0.261293     -1.265285
  O      -2.463859     -0.719803     -1.894114
  O      -0.608794     -1.133541     -0.548750
  H       2.171142      0.167412      0.858602
  H       1.738994      0.190665     -0.872138
  H       2.007051     -1.359082     -0.041203
  H       0.009695     -0.932101      1.404188
  H       0.094143      1.814632      0.350674
  H      -1.081738      1.082859      1.486169
13
Coordinates from ORCA-job PC_anion_cpcm_200_default E -381.723897987765
  C       1.600246     -0.342962      0.075999
  C       0.128966     -0.411686      0.442364
  C      -0.578799      0.957334      0.513889
  O      -1.565215      0.939128     -0.523070
  C      -1.417365     -0.241778     -1.329145
  O      -2.484687     -0.726178     -1.824282
  O      -0.614199     -1.137956     -0.549197
  H       2.160989      0.173820      0.863153
  H       1.733865      0.199014     -0.866128
  H       2.009762     -1.351266     -0.036868
  H       0.000852     -0.937920      1.397223
  H       0.106743      1.800001      0.355025
  H      -1.081160      1.080451      1.481037
13
Coordinates from ORCA-job PC_anion_cpcm_200_default E -381.724858002784
  C       1.591124     -0.341386      0.071525
  C       0.123008     -0.419402      0.450912
  C      -0.580979      0.955266      0.520974
  O      -1.574707      0.939589     -0.507278
  C      -1.402416     -0.239250     -1.341163
  O      -2.466192     -0.718034     -1.863275
  O      -0.628410     -1.154288     -0.524695
  H       2.156766      0.189984      0.846320
  H       1.711245      0.194207     -0.877275
  H       2.012448     -1.346428     -0.034404
  H       0.011236     -0.941689      1.410586
  H       0.119855      1.786592      0.356075
  H      -1.072979      1.094838      1.491700
13
Coordinates from ORCA-job PC_anion_cpcm_200_default E -381.725924887233
  C       1.570038     -0.340298      0.057078
  C       0.110222     -0.431824      0.472360
  C      -0.587697      0.951057      0.537266
  O      -1.594702      0.927386     -0.472946
  C      -1.366590     -0.234987     -1.343010
  O      -2.390971     -0.691312     -1.945217
  O      -0.663983     -1.177288     -0.469531
  H       2.146981      0.217424      0.804893
  H       1.659574      0.179876     -0.904099
  H       2.009160     -1.339211     -0.038466
  H       0.034307     -0.948291      1.438671
  H       0.135439      1.761177      0.351975
  H      -1.061776      1.126291      1.511027
13
Coordinates from ORCA-job PC_anion_cpcm_200_default E -381.726293311335
  C       1.553057     -0.342246      0.042991
  C       0.101312     -0.439246      0.490861
  C      -0.594872      0.948856      0.550661
  O      -1.619216      0.909410     -0.437415
  C      -1.336966     -0.230197     -1.331581
  O      -2.307185     -0.662968     -2.015701
  O      -0.693665     -1.191100     -0.424071
  H       2.139057      0.234784      0.768660
  H       1.617604      0.163179     -0.927679
  H       2.002219     -1.337345     -0.045043
  H       0.053229     -0.950263      1.461347
  H       0.136199      1.746164      0.339565
  H      -1.050773      1.150972      1.527404
13
Coordinates from ORCA-job PC_anion_cpcm_200_default E -381.726386245841
  C       1.558261     -0.342884      0.046871
  C       0.104244     -0.437610      0.486631
  C      -0.593976      0.949296      0.546870
  O      -1.626121      0.905961     -0.432952
  C      -1.347269     -0.228651     -1.328180
  O      -2.317063     -0.662833     -2.008537
  O      -0.685899     -1.187401     -0.436586
  H       2.139996      0.230549      0.778624
  H       1.629467      0.163986     -0.922101
  H       2.004455     -1.339120     -0.040924
  H       0.048418     -0.950348      1.455616
  H       0.129802      1.750333      0.328071
  H      -1.044315      1.148722      1.526598
13
Coordinates from ORCA-job PC_anion_cpcm_200_default E -381.726479466392
  C       1.565024     -0.343934      0.053580
  C       0.107445     -0.436484      0.479598
  C      -0.593239      0.949181      0.541062
  O      -1.648127      0.892537     -0.412640
  C      -1.359632     -0.222163     -1.323431
  O      -2.324216     -0.657773     -2.005407
  O      -0.675979     -1.182820     -0.455021
  H       2.138747      0.226374      0.793987
  H       1.646455      0.163868     -0.913608
  H       2.008670     -1.341270     -0.031584
  H       0.039950     -0.952008      1.446185
  H       0.118108      1.753681      0.298088
  H      -1.023206      1.150809      1.529192
13
Coordinates from ORCA-job PC_anion_cpcm_200_default E -381.726622936946
  C       1.576587     -0.345018      0.068382
  C       0.112108     -0.436332      0.465362
  C      -0.591740      0.947906      0.530060
  O      -1.692593      0.862544     -0.366296
  C      -1.382838     -0.207804     -1.315857
  O      -2.339893     -0.646587     -2.002721
  O      -0.656140     -1.174464     -0.492552
  H       2.133600      0.221529      0.824332
  H       1.677809      0.164782     -0.895501
  H       2.018775     -1.343268     -0.010444
  H       0.022337     -0.959194      1.426258
  H       0.096819      1.754338      0.234651
  H      -0.974830      1.161568      1.534325
13
Coordinates from ORCA-job PC_anion_cpcm_200_default E -381.726842791175
  C       1.595818     -0.345573      0.098162
  C       0.119318     -0.437268      0.437609
  C      -0.588394      0.943919      0.509556
  O      -1.761398      0.803698     -0.279322
  C      -1.425178     -0.181087     -1.302620
  O      -2.377818     -0.627081     -1.990164
  O      -0.616824     -1.154039     -0.566733
  H       2.121061      0.214506      0.881377
  H       1.734182      0.169842     -0.857891
  H       2.038272     -1.344265      0.030374
  H      -0.011526     -0.977837      1.384524
  H       0.056764      1.746530      0.120022
  H      -0.884276      1.188656      1.535106
13
Coordinates from ORCA-job PC_anion_cpcm_200_default E -381.727078094887
  C       1.611587     -0.344207      0.127053
  C       0.124875     -0.436628      0.409556
  C      -0.582254      0.940689      0.491239
  O      -1.799779      0.762699     -0.218653
  C      -1.466216     -0.162540     -1.294787
  O      -2.431496     -0.628065     -1.958168
  O      -0.578218     -1.126355     -0.639711
  H       2.108842      0.202963      0.937415
  H       1.786312      0.184461     -0.816026
  H       2.054342     -1.342908      0.061622
  H      -0.044762     -0.997166      1.339710
  H       0.028783      1.735052      0.034172
  H      -0.812015      1.212004      1.526578
13
Coordinates from ORCA-job PC_anion_cpcm_200_default E -381.727368940551
  C       1.620575     -0.339854      0.152779
  C       0.125486     -0.435751      0.383471
  C      -0.572294      0.938339      0.479201
  O      -1.810500      0.756228     -0.198471
  C      -1.505253     -0.154743     -1.299480
  O      -2.497406     -0.662990     -1.904726
  O      -0.543811     -1.093482     -0.706233
  H       2.097012      0.186528      0.989135
  H       1.827252      0.212964     -0.770722
  H       2.067394     -1.336349      0.076712
  H      -0.076674     -1.019131      1.294873
  H       0.031812      1.718207     -0.013415
  H      -0.763592      1.230035      1.516873
13
Coordinates from ORCA-job PC_anion_cpcm_200_default E -381.727466363145
  C       1.626895     -0.339054      0.171068
  C       0.126517     -0.435972      0.366600
  C      -0.568243      0.934981      0.468654
  O      -1.828130      0.731460     -0.159723
  C      -1.532319     -0.144402     -1.292374
  O      -2.524433     -0.668370     -1.880129
  O      -0.520824     -1.066484     -0.751094
  H       2.086264      0.175071      1.024321
  H       1.855148      0.227452     -0.738744
  H       2.077350     -1.333552      0.090356
  H      -0.094862     -1.036203      1.263355
  H       0.017942      1.701421     -0.066330
  H      -0.721304      1.253653      1.504041
13
Coordinates from ORCA-job PC_anion_cpcm_200_default E -381.727538710515
  C       1.626517     -0.338070      0.173812
  C       0.124634     -0.437481      0.365455
  C      -0.567306      0.932711      0.468378
  O      -1.824972      0.741866     -0.167286
  C      -1.541274     -0.145863     -1.295973
  O      -2.534131     -0.678688     -1.866437
  O      -0.515914     -1.058780     -0.758133
  H       2.085082      0.171467      1.030071
  H       1.856822      0.235317     -0.731015
  H       2.081126     -1.330189      0.086925
  H      -0.095556     -1.043768      1.258751
  H       0.030379      1.692257     -0.064810
  H      -0.725408      1.259219      1.500263
13
Coordinates from ORCA-job PC_anion_cpcm_200_default E -381.727564111220
  C       1.630319     -0.339034      0.179680
  C       0.127023     -0.434682      0.357912
  C      -0.565632      0.933682      0.463241
  O      -1.828414      0.737363     -0.159450
  C      -1.552176     -0.144501     -1.294228
  O      -2.546120     -0.687317     -1.851173
  O      -0.505516     -1.046606     -0.775385
  H       2.082674      0.162993      1.043801
  H       1.870504      0.239177     -0.719527
  H       2.081912     -1.332138      0.090025
  H      -0.101907     -1.045065      1.246462
  H       0.023708      1.694569     -0.077287
  H      -0.716374      1.261559      1.495930
13
Coordinates from ORCA-job PC_anion_cpcm_200_default E -381.727584413554
  C       1.634822     -0.340246      0.185151
  C       0.130359     -0.429966      0.349250
  C      -0.563187      0.936422      0.456708
  O      -1.829350      0.736019     -0.156774
  C      -1.564174     -0.145606     -1.293934
  O      -2.560739     -0.701589     -1.830314
  O      -0.493063     -1.034174     -0.793796
  H       2.080644      0.149780      1.059500
  H       1.886625      0.244683     -0.706475
  H       2.080011     -1.335534      0.089528
  H      -0.109190     -1.041920      1.234372
  H       0.017777      1.702620     -0.085019
  H      -0.710535      1.259511      1.491802
13
Coordinates from ORCA-job PC_anion_cpcm_200_default E -381.727587083203
  C       1.634511     -0.339959      0.184402
  C       0.130116     -0.430002      0.350072
  C      -0.563172      0.936769      0.456871
  O      -1.828420      0.736980     -0.159000
  C      -1.563175     -0.146566     -1.294733
  O      -2.560354     -0.701454     -1.831129
  O      -0.493556     -1.036533     -0.791680
  H       2.081221      0.149216      1.058686
  H       1.885375      0.245534     -0.707077
  H       2.079196     -1.335420      0.087534
  H      -0.108948     -1.040392      1.236421
  H       0.019101      1.703460     -0.082605
  H      -0.711896      1.258368      1.492239
13
Coordinates from ORCA-job PC_anion_cpcm_200_default E -381.727588608707
  C       1.634678     -0.339557      0.185245
  C       0.129908     -0.429930      0.349356
  C      -0.562815      0.937016      0.456049
  O      -1.828693      0.735965     -0.158558
  C      -1.564338     -0.146878     -1.295050
  O      -2.562386     -0.702348     -1.829143
  O      -0.491915     -1.036536     -0.793206
  H       2.081038      0.146889      1.061139
  H       1.886398      0.248265     -0.704408
  H       2.078949     -1.335046      0.085934
  H      -0.110582     -1.040008      1.235616
  H       0.019372      1.703036     -0.084439
  H      -0.709614      1.259133      1.491464
13
Coordinates from ORCA-job PC_anion_cpcm_200_default E -381.727588850837
  C       1.634706     -0.339553      0.185218
  C       0.129939     -0.430046      0.349564
  C      -0.562963      0.936971      0.456052
  O      -1.828617      0.736073     -0.159005
  C      -1.564232     -0.146889     -1.295112
  O      -2.562397     -0.701957     -1.829225
  O      -0.491928     -1.036883     -0.792730
  H       2.081364      0.146803      1.061035
  H       1.886121      0.248402     -0.704446
  H       2.078996     -1.334997      0.085644
  H      -0.110378     -1.040031      1.235918
  H       0.019425      1.702937     -0.084315
  H      -0.710036      1.259168      1.491402
