13
Coordinates from ORCA-job PC_anion_cpcm_14_default E -381.719500988484
  C           1.63434341718677     -0.33950743778508      0.18574977249223
  C           0.12886485293896     -0.43143823913302      0.34943589607547
  C          -0.56433514225551      0.93627766154930      0.45563141461030
  O          -1.82925719792388      0.73654058432750     -0.15610038100370
  C          -1.56493866934410     -0.14572951841046     -1.29766681878915
  O          -2.56016631865309     -0.69881529879900     -1.83271272060183
  O          -0.49053351704599     -1.03938919784903     -0.78978609190532
  H           2.08170052173482      0.14927223620218      1.06015769141819
  H           1.88428065950320      0.24599464089704     -0.70595878027387
  H           2.07919475951630     -1.33488467105712      0.08726967752425
  H          -0.10996278085276     -1.03926242416608      1.23837447075700
  H           0.01932661482320      1.70129594127593     -0.08585339396943
  H          -0.70851718962791      1.25964573294786      1.49145925366586
