13
Coordinates from ORCA-job PC_anion_cpcm_40_default E -381.655711214647
  C       1.583626     -0.338288      0.054397
  C       0.119798     -0.420765      0.465192
  C      -0.580686      0.955929      0.520491
  O      -1.536891      0.900638     -0.517985
  C      -1.543081     -0.317687     -1.088214
  O      -2.261602     -0.637900     -1.974707
  O      -0.631599     -1.120046     -0.518743
  H       2.151951      0.180080      0.821850
  H       1.681034      0.194200     -0.889025
  H       1.984583     -1.340186     -0.070884
  H       0.020096     -0.969659      1.408167
  H       0.108962      1.780275      0.321121
  H      -1.096192      1.133408      1.468342
13
Coordinates from ORCA-job PC_anion_cpcm_40_default E -381.681513426803
  C       1.599197     -0.343496      0.061771
  C       0.129888     -0.409499      0.460373
  C      -0.580115      0.959828      0.521876
  O      -1.559270      0.908710     -0.522543
  C      -1.516570     -0.295690     -1.152170
  O      -2.346512     -0.671576     -1.948697
  O      -0.629830     -1.118356     -0.535999
  H       2.166972      0.168966      0.843033
  H       1.716044      0.192908     -0.881255
  H       1.995497     -1.353740     -0.061603
  H       0.020253     -0.949437      1.407385
  H       0.098005      1.799623      0.330557
  H      -1.093560      1.111762      1.477273
13
Coordinates from ORCA-job PC_anion_cpcm_40_default E -381.704637623098
  C       1.605103     -0.346779      0.067077
  C       0.134236     -0.404308      0.455371
  C      -0.579861      0.962298      0.522510
  O      -1.566703      0.921894     -0.522915
  C      -1.480198     -0.273971     -1.218713
  O      -2.413479     -0.700539     -1.913768
  O      -0.618765     -1.122351     -0.545362
  H       2.171601      0.165170      0.851566
  H       1.731614      0.189334     -0.877198
  H       2.000326     -1.359816     -0.050948
  H       0.014726     -0.936751      1.406044
  H       0.091314      1.812376      0.343117
  H      -1.089916      1.093442      1.483220
13
Coordinates from ORCA-job PC_anion_cpcm_40_default E -381.718586095507
  C       1.606616     -0.346732      0.074247
  C       0.135701     -0.406084      0.446683
  C      -0.578355      0.962640      0.518251
  O      -1.570115      0.942948     -0.521259
  C      -1.447600     -0.253890     -1.290023
  O      -2.478869     -0.726007     -1.872473
  O      -0.606798     -1.135519     -0.550723
  H       2.170083      0.168346      0.860874
  H       1.740498      0.191069     -0.870475
  H       2.008195     -1.358767     -0.037734
  H       0.006460     -0.930449      1.402080
  H       0.095047      1.814543      0.354687
  H      -1.080862      1.077900      1.485864
13
Coordinates from ORCA-job PC_anion_cpcm_40_default E -381.721656371599
  C       1.594558     -0.341977      0.073360
  C       0.124850     -0.415201      0.445895
  C      -0.580460      0.954976      0.516828
  O      -1.565708      0.936068     -0.519132
  C      -1.399566     -0.236786     -1.344658
  O      -2.473730     -0.721557     -1.824714
  O      -0.622933     -1.142480     -0.538088
  H       2.157893      0.181685      0.854351
  H       1.721244      0.196269     -0.872020
  H       2.008648     -1.348790     -0.036283
  H       0.004888     -0.940318      1.402801
  H       0.111734      1.792752      0.357614
  H      -1.081418      1.085359      1.484045
13
Coordinates from ORCA-job PC_anion_cpcm_40_default E -381.722590545125
  C       1.587239     -0.341421      0.068204
  C       0.120758     -0.421214      0.455538
  C      -0.582500      0.954427      0.524632
  O      -1.576452      0.937258     -0.502505
  C      -1.393909     -0.238196     -1.342142
  O      -2.451269     -0.712767     -1.877889
  O      -0.635269     -1.157765     -0.513478
  H       2.155987      0.195355      0.837106
  H       1.700718      0.189842     -0.883807
  H       2.010584     -1.345888     -0.035289
  H       0.016336     -0.941991      1.416904
  H       0.121268      1.783269      0.357560
  H      -1.073492      1.099091      1.495165
13
Coordinates from ORCA-job PC_anion_cpcm_40_default E -381.723664249837
  C       1.565742     -0.341084      0.052157
  C       0.108260     -0.433255      0.478679
  C      -0.589763      0.951062      0.541677
  O      -1.599368      0.925034     -0.464621
  C      -1.362681     -0.236622     -1.333508
  O      -2.364611     -0.683019     -1.973193
  O      -0.671867     -1.182063     -0.453941
  H       2.146751      0.221999      0.792795
  H       1.646857      0.173948     -0.912384
  H       2.006294     -1.339588     -0.041695
  H       0.040785     -0.946877      1.446932
  H       0.135058      1.758964      0.351542
  H      -1.061456      1.131502      1.515561
13
Coordinates from ORCA-job PC_anion_cpcm_40_default E -381.723882652303
  C       1.553851     -0.342915      0.042382
  C       0.101892     -0.438381      0.490823
  C      -0.595457      0.949434      0.550151
  O      -1.621048      0.909007     -0.435351
  C      -1.339597     -0.231070     -1.326642
  O      -2.301729     -0.661170     -2.020309
  O      -0.693151     -1.191098     -0.422551
  H       2.140459      0.233480      0.768041
  H       1.618100      0.161515     -0.928573
  H       2.001163     -1.338791     -0.045868
  H       0.053189     -0.947882      1.462046
  H       0.133191      1.748631      0.338160
  H      -1.050865      1.149239      1.527691
13
Coordinates from ORCA-job PC_anion_cpcm_40_default E -381.723946410661
  C       1.557887     -0.343404      0.046062
  C       0.104000     -0.437472      0.487027
  C      -0.594849      0.949470      0.546843
  O      -1.629163      0.904011     -0.429166
  C      -1.345809     -0.228003     -1.326456
  O      -2.310035     -0.660410     -2.013087
  O      -0.687004     -1.187900     -0.433740
  H       2.140351      0.230581      0.776840
  H       1.627871      0.162013     -0.923628
  H       2.003325     -1.339984     -0.041363
  H       0.048794     -0.948629      1.456973
  H       0.127600      1.751217      0.325895
  H      -1.042968      1.148510      1.527798
13
Coordinates from ORCA-job PC_anion_cpcm_40_default E -381.724094607838
  C       1.569768     -0.344672      0.059792
  C       0.109322     -0.436600      0.473718
  C      -0.593194      0.948666      0.536110
  O      -1.667819      0.879344     -0.392812
  C      -1.365962     -0.214203     -1.324827
  O      -2.330580     -0.653088     -2.001203
  O      -0.667678     -1.179221     -0.470699
  H       2.136489      0.224534      0.806523
  H       1.658892      0.162929     -0.906540
  H       2.012373     -1.342551     -0.022249
  H       0.032841     -0.954151      1.438767
  H       0.108283      1.754777      0.271352
  H      -1.002735      1.154235      1.532069
13
Coordinates from ORCA-job PC_anion_cpcm_40_default E -381.724265708155
  C       1.584346     -0.345317      0.080665
  C       0.114943     -0.437222      0.454543
  C      -0.590699      0.946272      0.521685
  O      -1.720331      0.840309     -0.334083
  C      -1.396120     -0.194353     -1.319322
  O      -2.358654     -0.640954     -1.990261
  O      -0.639607     -1.166211     -0.523915
  H       2.128098      0.219397      0.847730
  H       1.699898      0.165648     -0.880716
  H       2.026561     -1.343720      0.006961
  H       0.009214     -0.966764      1.410545
  H       0.081818      1.752158      0.190282
  H      -0.939468      1.170755      1.535886
13
Coordinates from ORCA-job PC_anion_cpcm_40_default E -381.724535673980
  C       1.603801     -0.344721      0.113305
  C       0.122007     -0.437769      0.424127
  C      -0.585437      0.942030      0.500618
  O      -1.779130      0.785735     -0.252896
  C      -1.443722     -0.169002     -1.308449
  O      -2.410307     -0.630632     -1.965518
  O      -0.595388     -1.139743     -0.606264
  H       2.114104      0.210585      0.909925
  H       1.759598      0.175633     -0.837322
  H       2.046786     -1.343246      0.048194
  H      -0.027416     -0.989116      1.362687
  H       0.044879      1.740992      0.079998
  H      -0.849774      1.199253      1.531597
13
Coordinates from ORCA-job PC_anion_cpcm_40_default E -381.724835661222
  C       1.621526     -0.342341      0.150104
  C       0.127647     -0.436028      0.387779
  C      -0.576086      0.938254      0.478793
  O      -1.818581      0.740299     -0.181689
  C      -1.499448     -0.150654     -1.295326
  O      -2.479535     -0.641273     -1.921857
  O      -0.545510     -1.098253     -0.699217
  H       2.097393      0.192783      0.981406
  H       1.823563      0.199184     -0.780420
  H       2.065667     -1.340451      0.083392
  H      -0.070081     -1.015557      1.301801
  H       0.014853      1.722721     -0.021629
  H      -0.761408      1.231318      1.516864
13
Coordinates from ORCA-job PC_anion_cpcm_40_default E -381.724964714695
  C       1.621214     -0.338553      0.157011
  C       0.124263     -0.436740      0.380635
  C      -0.571029      0.936642      0.478580
  O      -1.811165      0.759663     -0.196385
  C      -1.515564     -0.156575     -1.299249
  O      -2.507790     -0.667481     -1.899905
  O      -0.535881     -1.087984     -0.716107
  H       2.095139      0.186510      0.995680
  H       1.830852      0.217134     -0.764231
  H       2.070867     -1.333906      0.079651
  H      -0.080749     -1.025388      1.288453
  H       0.037522      1.710993     -0.019067
  H      -0.757678      1.235684      1.514936
13
Coordinates from ORCA-job PC_anion_cpcm_40_default E -381.725058714430
  C       1.627310     -0.338349      0.173185
  C       0.125603     -0.436121      0.364658
  C      -0.567614      0.934172      0.468074
  O      -1.826808      0.736856     -0.161872
  C      -1.538880     -0.147153     -1.292665
  O      -2.530616     -0.673067     -1.875567
  O      -0.515994     -1.063096     -0.755603
  H       2.085973      0.174148      1.027836
  H       1.857120      0.230191     -0.734992
  H       2.078969     -1.332253      0.090632
  H      -0.097149     -1.038748      1.259865
  H       0.023383      1.698121     -0.066312
  H      -0.721299      1.255299      1.502760
13
Coordinates from ORCA-job PC_anion_cpcm_40_default E -381.725101736876
  C       1.629401     -0.339008      0.177412
  C       0.126465     -0.435332      0.360136
  C      -0.566898      0.933883      0.464313
  O      -1.828449      0.735528     -0.158398
  C      -1.546673     -0.144835     -1.293705
  O      -2.538768     -0.680185     -1.860737
  O      -0.509363     -1.053312     -0.767214
  H       2.084056      0.167066      1.037959
  H       1.865686      0.235135     -0.725383
  H       2.080721     -1.332518      0.090450
  H      -0.100224     -1.041928      1.251918
  H       0.021973      1.696271     -0.074670
  H      -0.717927      1.259234      1.497919
13
Coordinates from ORCA-job PC_anion_cpcm_40_default E -381.725123572396
  C       1.631369     -0.339543      0.180507
  C       0.127701     -0.433628      0.356075
  C      -0.565658      0.934658      0.461126
  O      -1.827945      0.737837     -0.159855
  C      -1.554107     -0.144944     -1.295716
  O      -2.547946     -0.690104     -1.846534
  O      -0.502796     -1.045515     -0.777198
  H       2.082905      0.159356      1.046882
  H       1.873639      0.239901     -0.717277
  H       2.080675     -1.333417      0.088640
  H      -0.103009     -1.042109      1.245812
  H       0.022236      1.698033     -0.077431
  H      -0.717065      1.259475      1.494969
13
Coordinates from ORCA-job PC_anion_cpcm_40_default E -381.725132545130
  C       1.633891     -0.339882      0.184941
  C       0.129226     -0.431258      0.350246
  C      -0.563826      0.935843      0.457137
  O      -1.829364      0.736314     -0.156554
  C      -1.563034     -0.145014     -1.295638
  O      -2.558659     -0.699687     -1.832803
  O      -0.494100     -1.036487     -0.790756
  H       2.080741      0.150830      1.058398
  H       1.884055      0.245196     -0.707029
  H       2.080421     -1.334577      0.088538
  H      -0.108514     -1.042112      1.236831
  H       0.019436      1.700141     -0.085120
  H      -0.710272      1.260693      1.491809
13
Coordinates from ORCA-job PC_anion_cpcm_40_default E -381.725135750430
  C       1.634557     -0.339832      0.185296
  C       0.129751     -0.430296      0.349409
  C      -0.563372      0.936722      0.456128
  O      -1.828711      0.737197     -0.158335
  C      -1.564627     -0.146304     -1.296121
  O      -2.561364     -0.702373     -1.829670
  O      -0.491821     -1.036228     -0.792531
  H       2.080956      0.147882      1.060612
  H       1.886072      0.246832     -0.705210
  H       2.079226     -1.335195      0.086821
  H      -0.109705     -1.040199      1.236262
  H       0.019459      1.702607     -0.084223
  H      -0.710421      1.259187      1.491561
13
Coordinates from ORCA-job PC_anion_cpcm_40_default E -381.725136586019
  C       1.634822     -0.339682      0.185809
  C       0.129820     -0.430115      0.348877
  C      -0.563207      0.936883      0.455626
  O      -1.829024      0.736266     -0.157614
  C      -1.565299     -0.146470     -1.295793
  O      -2.562438     -0.702435     -1.828971
  O      -0.490793     -1.036138     -0.793525
  H       2.080962      0.146937      1.061854
  H       1.886856      0.247752     -0.704035
  H       2.079070     -1.335186      0.086587
  H      -0.110663     -1.039986      1.235497
  H       0.018949      1.702737     -0.085507
  H      -0.709056      1.259438      1.491195
