13
Coordinates from ORCA-job PC_anion_cpcm_20_default E -381.652247177380
  C       1.583626     -0.338288      0.054397
  C       0.119798     -0.420765      0.465192
  C      -0.580686      0.955929      0.520491
  O      -1.536891      0.900638     -0.517985
  C      -1.543081     -0.317687     -1.088214
  O      -2.261602     -0.637900     -1.974707
  O      -0.631599     -1.120046     -0.518743
  H       2.151951      0.180080      0.821850
  H       1.681034      0.194200     -0.889025
  H       1.984583     -1.340186     -0.070884
  H       0.020096     -0.969659      1.408167
  H       0.108962      1.780275      0.321121
  H      -1.096192      1.133408      1.468342
13
Coordinates from ORCA-job PC_anion_cpcm_20_default E -381.678506353274
  C       1.599076     -0.343700      0.061419
  C       0.129774     -0.409200      0.461102
  C      -0.580288      0.959812      0.522532
  O      -1.559432      0.909363     -0.522119
  C      -1.516045     -0.295515     -1.152488
  O      -2.345282     -0.671448     -1.950477
  O      -0.629172     -1.118705     -0.535332
  H       2.167645      0.169512      0.841585
  H       1.714699      0.191624     -0.882307
  H       1.995134     -1.354078     -0.061332
  H       0.020252     -0.948953      1.408375
  H       0.097703      1.800027      0.331044
  H      -1.094064      1.111260      1.477997
13
Coordinates from ORCA-job PC_anion_cpcm_20_default E -381.701508794075
  C       1.604907     -0.346920      0.066767
  C       0.134020     -0.404085      0.456019
  C      -0.580049      0.962217      0.523093
  O      -1.566765      0.922416     -0.522509
  C      -1.479591     -0.273785     -1.219054
  O      -2.412043     -0.700322     -1.915311
  O      -0.618193     -1.122632     -0.544675
  H       2.172274      0.165780      0.850213
  H       1.730100      0.188159     -0.878219
  H       1.999890     -1.360098     -0.050735
  H       0.014685     -0.936330      1.406973
  H       0.091092      1.812593      0.343553
  H      -1.090328      1.093007      1.483885
13
Coordinates from ORCA-job PC_anion_cpcm_20_default E -381.715450147277
  C       1.606389     -0.346818      0.074015
  C       0.135396     -0.406076      0.447070
  C      -0.578657      0.962536      0.518559
  O      -1.570072      0.943227     -0.520679
  C      -1.447036     -0.253745     -1.290357
  O      -2.477105     -0.725541     -1.873600
  O      -0.606409     -1.135678     -0.549861
  H       2.170688      0.168937      0.859754
  H       1.739012      0.190065     -0.871357
  H       2.007744     -1.358975     -0.037642
  H       0.006427     -0.930151      1.402808
  H       0.094767      1.814599      0.354960
  H      -1.081145      1.077619      1.486330
13
Coordinates from ORCA-job PC_anion_cpcm_20_default E -381.718592591334
  C       1.594391     -0.342022      0.073272
  C       0.124525     -0.415405      0.446033
  C      -0.580801      0.954966      0.516906
  O      -1.565895      0.936613     -0.518234
  C      -1.399334     -0.236731     -1.345355
  O      -2.472615     -0.721299     -1.826250
  O      -0.622515     -1.142983     -0.537055
  H       2.158385      0.182257      0.853505
  H       1.720060      0.195438     -0.872677
  H       2.008419     -1.348898     -0.036180
  H       0.004949     -0.939900      1.403522
  H       0.111685      1.792821      0.357908
  H      -1.081254      1.085142      1.484605
13
Coordinates from ORCA-job PC_anion_cpcm_20_default E -381.719528966243
  C       1.586933     -0.341396      0.068107
  C       0.120265     -0.421557      0.455646
  C      -0.582910      0.954345      0.524641
  O      -1.576611      0.937570     -0.501574
  C      -1.393394     -0.238097     -1.343123
  O      -2.449750     -0.712337     -1.879031
  O      -0.635110     -1.158255     -0.512297
  H       2.156277      0.196001      0.836282
  H       1.699360      0.189132     -0.884425
  H       2.010316     -1.345876     -0.035339
  H       0.016474     -0.941675      1.417635
  H       0.121417      1.783055      0.357802
  H      -1.073267      1.099088      1.495677
13
Coordinates from ORCA-job PC_anion_cpcm_20_default E -381.720637614528
  C       1.564647     -0.340992      0.051581
  C       0.107198     -0.434134      0.479415
  C      -0.590509      0.950856      0.542077
  O      -1.600345      0.924828     -0.462407
  C      -1.361089     -0.236474     -1.334414
  O      -2.359989     -0.681553     -1.976842
  O      -0.672975     -1.183323     -0.450880
  H       2.146407      0.223453      0.790732
  H       1.643800      0.172892     -0.913729
  H       2.005896     -1.339251     -0.042154
  H       0.041782     -0.946802      1.448513
  H       0.135839      1.757714      0.351478
  H      -1.060661      1.132785      1.516631
13
Coordinates from ORCA-job PC_anion_cpcm_20_default E -381.720841958344
  C       1.553714     -0.342838      0.042520
  C       0.101364     -0.438832      0.490648
  C      -0.595944      0.949374      0.549874
  O      -1.621447      0.909319     -0.434280
  C      -1.339636     -0.230971     -1.327870
  O      -2.300852     -0.660802     -2.020757
  O      -0.692600     -1.191549     -0.421984
  H       2.140454      0.234012      0.767830
  H       1.617340      0.160960     -0.928774
  H       2.001127     -1.338697     -0.045814
  H       0.053283     -0.947683      1.462451
  H       0.133433      1.748300      0.338057
  H      -1.050236      1.149406      1.528098
13
Coordinates from ORCA-job PC_anion_cpcm_20_default E -381.720905918751
  C       1.557511     -0.343431      0.045973
  C       0.103392     -0.437987      0.487150
  C      -0.595475      0.949372      0.546811
  O      -1.630372      0.903778     -0.427068
  C      -1.345317     -0.227643     -1.327391
  O      -2.307505     -0.659363     -2.014960
  O      -0.686860     -1.188563     -0.432503
  H       2.140237      0.231440      0.775966
  H       1.626447      0.160936     -0.924303
  H       2.003178     -1.339957     -0.041195
  H       0.049112     -0.948398      1.457739
  H       0.127527      1.750767      0.325162
  H      -1.041875      1.149047      1.528617
13
Coordinates from ORCA-job PC_anion_cpcm_20_default E -381.721066180264
  C       1.570095     -0.344973      0.060529
  C       0.109148     -0.437075      0.473215
  C      -0.593872      0.948392      0.535599
  O      -1.673060      0.876147     -0.386190
  C      -1.366468     -0.212262     -1.324939
  O      -2.327577     -0.650161     -2.004311
  O      -0.666333     -1.179457     -0.471662
  H       2.136041      0.225569      0.806961
  H       1.659022      0.160892     -0.906640
  H       2.012848     -1.342887     -0.020013
  H       0.032077     -0.954305      1.438565
  H       0.105806      1.754452      0.265238
  H      -0.997727      1.155669      1.533650
13
Coordinates from ORCA-job PC_anion_cpcm_20_default E -381.721231872217
  C       1.584273     -0.345578      0.080959
  C       0.114652     -0.437720      0.454617
  C      -0.591437      0.945873      0.521715
  O      -1.723939      0.837702     -0.328506
  C      -1.395916     -0.192717     -1.319101
  O      -2.354966     -0.637700     -1.994163
  O      -0.638740     -1.166759     -0.523689
  H       2.127935      0.221118      0.846755
  H       1.698716      0.163120     -0.881703
  H       2.026816     -1.343962      0.009087
  H       0.008811     -0.966873      1.411006
  H       0.079619      1.751412      0.185875
  H      -0.935825      1.172083      1.537148
13
Coordinates from ORCA-job PC_anion_cpcm_20_default E -381.721507603435
  C       1.603889     -0.344747      0.114112
  C       0.121716     -0.438250      0.423805
  C      -0.585809      0.941507      0.500649
  O      -1.781367      0.783960     -0.248517
  C      -1.444426     -0.167682     -1.308103
  O      -2.409004     -0.628394     -1.967845
  O      -0.593710     -1.139666     -0.607300
  H       2.114106      0.212353      0.909660
  H       1.758952      0.173761     -0.837645
  H       2.047325     -1.343198      0.050687
  H      -0.028667     -0.989907      1.362260
  H       0.043323      1.739584      0.076014
  H      -0.846328      1.200680      1.532223
13
Coordinates from ORCA-job PC_anion_cpcm_20_default E -381.721811340077
  C       1.621647     -0.342041      0.151582
  C       0.127126     -0.436451      0.386620
  C      -0.575811      0.937810      0.478683
  O      -1.819079      0.740743     -0.179947
  C      -1.501435     -0.150113     -1.295468
  O      -2.481447     -0.642302     -1.920666
  O      -0.543138     -1.096763     -0.701924
  H       2.097327      0.193602      0.982760
  H       1.823848      0.199240     -0.779097
  H       2.066412     -1.339953      0.085231
  H      -0.072343     -1.017222      1.299788
  H       0.015463      1.720707     -0.024363
  H      -0.758570      1.232742      1.516801
13
Coordinates from ORCA-job PC_anion_cpcm_20_default E -381.721928742157
  C       1.621176     -0.338512      0.157791
  C       0.123733     -0.437306      0.380100
  C      -0.571228      0.936293      0.478227
  O      -1.811491      0.759623     -0.195045
  C      -1.516252     -0.155748     -1.299991
  O      -2.507674     -0.667351     -1.898831
  O      -0.534857     -1.087274     -0.716875
  H       2.095113      0.187022      0.996223
  H       1.830511      0.216807     -0.763675
  H       2.071270     -1.333681      0.080405
  H      -0.081556     -1.026243      1.287901
  H       0.037841      1.709641     -0.020747
  H      -0.756586      1.236730      1.514517
13
Coordinates from ORCA-job PC_anion_cpcm_20_default E -381.722018646878
  C       1.627464     -0.338182      0.175060
  C       0.124946     -0.436750      0.362993
  C      -0.567512      0.933589      0.467076
  O      -1.827746      0.736206     -0.158848
  C      -1.541557     -0.146011     -1.293372
  O      -2.532739     -0.674160     -1.872786
  O      -0.513640     -1.060784     -0.758774
  H       2.085168      0.173531      1.030768
  H       1.858484      0.231505     -0.732086
  H       2.080073     -1.331621      0.091548
  H      -0.098900     -1.040500      1.257539
  H       0.023933      1.695395     -0.070498
  H      -0.717974      1.257783      1.501381
13
Coordinates from ORCA-job PC_anion_cpcm_20_default E -381.722058307537
  C       1.629027     -0.338935      0.177469
  C       0.125814     -0.436028      0.360296
  C      -0.567330      0.933582      0.464357
  O      -1.828185      0.736807     -0.158376
  C      -1.546890     -0.144671     -1.294991
  O      -2.538192     -0.679811     -1.861582
  O      -0.509135     -1.054190     -0.765847
  H       2.084238      0.167892      1.037398
  H       1.864439      0.234713     -0.725903
  H       2.080941     -1.332209      0.090379
  H      -0.099909     -1.041929      1.253068
  H       0.023330      1.695233     -0.074229
  H      -0.718149      1.259547      1.497963
13
Coordinates from ORCA-job PC_anion_cpcm_20_default E -381.722081056693
  C       1.631436     -0.339649      0.180933
  C       0.127462     -0.433908      0.355613
  C      -0.566057      0.934584      0.460641
  O      -1.828172      0.738255     -0.158768
  C      -1.555150     -0.144656     -1.296804
  O      -2.548066     -0.690008     -1.846581
  O      -0.501636     -1.045640     -0.777102
  H       2.082857      0.159368      1.047436
  H       1.873850      0.239406     -0.717083
  H       2.080678     -1.333562      0.088946
  H      -0.103032     -1.041677      1.246178
  H       0.022125      1.697856     -0.078183
  H      -0.716295      1.259629      1.494775
13
Coordinates from ORCA-job PC_anion_cpcm_20_default E -381.722088865980
  C       1.633509     -0.339903      0.184286
  C       0.128768     -0.431876      0.351059
  C      -0.564605      0.935674      0.457416
  O      -1.829128      0.737182     -0.156589
  C      -1.562145     -0.144934     -1.296893
  O      -2.556554     -0.697614     -1.835696
  O      -0.494646     -1.038926     -0.787579
  H       2.081279      0.152388      1.056491
  H       1.882183      0.243570     -0.709139
  H       2.080144     -1.334644      0.088594
  H      -0.107374     -1.041105      1.239411
  H       0.019778      1.700145     -0.083760
  H      -0.711207      1.260042      1.492401
13
Coordinates from ORCA-job PC_anion_cpcm_20_default E -381.722091584472
  C       1.633977     -0.339761      0.184476
  C       0.129117     -0.431161      0.350540
  C      -0.564213      0.936360      0.456690
  O      -1.828525      0.737863     -0.158158
  C      -1.563226     -0.146067     -1.297314
  O      -2.558591     -0.699436     -1.833650
  O      -0.492922     -1.039244     -0.788595
  H       2.081586      0.150205      1.058028
  H       1.883452      0.244927     -0.707900
  H       2.079093     -1.335068      0.087115
  H      -0.108375     -1.039392      1.239268
  H       0.019940      1.702098     -0.082825
  H      -0.711313      1.258678      1.492325
13
Coordinates from ORCA-job PC_anion_cpcm_20_default E -381.722092306649
  C       1.634759     -0.339636      0.186172
  C       0.129412     -0.430606      0.348590
  C      -0.563651      0.936630      0.455326
  O      -1.829487      0.736005     -0.155907
  C      -1.565871     -0.145961     -1.296653
  O      -2.561899     -0.701186     -1.830123
  O      -0.490003     -1.036955     -0.792827
  H       2.080983      0.147651      1.061910
  H       1.886484      0.247052     -0.704252
  H       2.079159     -1.335141      0.087243
  H      -0.110812     -1.039680      1.236104
  H       0.018631      1.702062     -0.086706
  H      -0.707708      1.259765      1.491123
13
Coordinates from ORCA-job PC_anion_cpcm_20_default E -381.722092636963
  C       1.634492     -0.339551      0.185666
  C       0.129241     -0.430950      0.349365
  C      -0.563890      0.936485      0.455737
  O      -1.829158      0.736283     -0.156756
  C      -1.564827     -0.146018     -1.296776
  O      -2.560873     -0.699913     -1.831580
  O      -0.490909     -1.038317     -0.790999
  H       2.081472      0.148494      1.060589
  H       1.885088      0.246678     -0.705380
  H       2.079171     -1.334954      0.086962
  H      -0.110134     -1.039605      1.237361
  H       0.019158      1.701818     -0.085604
  H      -0.708832      1.259550      1.491415
