13
Coordinates from ORCA-job PC_anion_cpcm_7_default E -381.710974924226
  C           1.63362688443589     -0.33934869030156      0.18587201681657
  C           0.12752582721999     -0.43324892413126      0.35008192656435
  C          -0.56591532249077      0.93543415893524      0.45554011462459
  O          -1.82964399454907      0.73740213774382     -0.15390389076048
  C          -1.56471083541493     -0.14472902526083     -1.30051315780713
  O          -2.55691685179731     -0.69493198265403     -1.83757740383732
  O          -0.49015803941094     -1.04314451569839     -0.78504649242240
  H           2.08226056190523      0.15302023322017      1.05793325859076
  H           1.88097899724356      0.24307204045659     -0.70859791102005
  H           2.07963664667478     -1.33445317835289      0.08903553166001
  H          -0.10878200846265     -1.03851160679392      1.24215486294903
  H           0.01993249792793      1.69915511319853     -0.08663238349906
  H          -0.70783435328168      1.26028424963853      1.49165351814113
