12
Coordinates from ORCA-job DMC_optfreq E -343.552370302177
  C      -2.318878     -0.114206      0.123037
  O      -1.049280     -0.725197      0.316030
  C      -0.000232      0.005054     -0.063354
  O      -0.050600      1.103204     -0.539542
  O       1.114073     -0.687469      0.174210
  C       2.325639     -0.033210     -0.181440
  H      -3.050859     -0.833872      0.479389
  H      -2.479981      0.106427     -0.933950
  H      -2.385824      0.815479      0.691419
  H       2.433862      0.899546      0.375435
  H       2.339669      0.190449     -1.249913
  H       3.122410     -0.726204      0.074721
12
Coordinates from ORCA-job DMC_optfreq E -343.553169177941
  C      -2.325054     -0.114074      0.123483
  O      -1.047160     -0.732389      0.318847
  C      -0.000356      0.007736     -0.065071
  O      -0.050950      1.114915     -0.545328
  O       1.112575     -0.694863      0.177226
  C       2.331773     -0.032851     -0.181815
  H      -3.058767     -0.836503      0.481301
  H      -2.489909      0.106515     -0.935732
  H      -2.395136      0.817362      0.693858
  H       2.443182      0.901653      0.376784
  H       2.349183      0.191030     -1.252972
  H       3.130619     -0.728531      0.075463
12
Coordinates from ORCA-job DMC_optfreq E -343.553283081151
  C      -2.324934     -0.111632      0.122349
  O      -1.046121     -0.740045      0.322370
  C      -0.000168      0.004470     -0.063185
  O      -0.050803      1.113561     -0.544745
  O       1.112270     -0.702612      0.180799
  C       2.331418     -0.030406     -0.182933
  H      -3.061312     -0.832243      0.479380
  H      -2.485950      0.107944     -0.937385
  H      -2.391492      0.819327      0.693410
  H       2.439357      0.903443      0.376898
  H       2.344981      0.192379     -1.254094
  H       3.132753     -0.724185      0.073180
12
Coordinates from ORCA-job DMC_optfreq E -343.553298287637
  C      -2.325214     -0.110065      0.121963
  O      -1.046450     -0.743103      0.322912
  C      -0.000172      0.001822     -0.063832
  O      -0.050734      1.110900     -0.544074
  O       1.112780     -0.705682      0.181213
  C       2.331609     -0.028823     -0.183343
  H      -3.062221     -0.829663      0.479344
  H      -2.483931      0.108526     -0.937915
  H      -2.387980      0.820384      0.693533
  H       2.435886      0.904275      0.377659
  H       2.342868      0.193069     -1.254309
  H       3.133559     -0.721641      0.072893
12
Coordinates from ORCA-job DMC_optfreq E -343.553299152218
  C      -2.325670     -0.109547      0.120779
  O      -1.046601     -0.743017      0.325772
  C       0.000154      0.003159     -0.058443
  O      -0.050600      1.110017     -0.541936
  O       1.113303     -0.705617      0.183937
  C       2.331904     -0.028284     -0.184561
  H      -3.062574     -0.829895      0.476429
  H      -2.479869      0.107923     -0.939746
  H      -2.388612      0.820431      0.692634
  H       2.436468      0.904188      0.376961
  H       2.338569      0.192615     -1.255518
  H       3.133527     -0.721971      0.069735
12
Coordinates from ORCA-job DMC_optfreq E -343.553301783501
  C      -2.325826     -0.109156      0.121522
  O      -1.046789     -0.743625      0.323395
  C      -0.000128      0.001284     -0.063260
  O      -0.050676      1.109414     -0.543248
  O       1.113201     -0.706233      0.181527
  C       2.332146     -0.027881     -0.183829
  H      -3.062189     -0.829038      0.479096
  H      -2.481910      0.108120     -0.938750
  H      -2.386099      0.820827      0.693620
  H       2.434144      0.904420      0.378413
  H       2.340663      0.193045     -1.254751
  H       3.133461     -0.721176      0.072308
12
Coordinates from ORCA-job DMC_optfreq E -343.553302158909
  C      -2.325777     -0.109477      0.121493
  O      -1.046646     -0.743033      0.323615
  C      -0.000092      0.002011     -0.062560
  O      -0.050681      1.110104     -0.543264
  O       1.113065     -0.705645      0.181777
  C       2.332101     -0.028203     -0.183849
  H      -3.062051     -0.829634      0.478814
  H      -2.482042      0.107935     -0.938799
  H      -2.387054      0.820609      0.693456
  H       2.435095      0.904221      0.378149
  H       2.340775      0.192898     -1.254808
  H       3.133306     -0.721786      0.072019
