12
DMC G2 r2SCAN-3c Opt from G1 charge=0 mult=1
C     -2.3257770000    -0.1094770000     0.1214930000
O     -1.0466460000    -0.7430330000     0.3236150000
C     -0.0000920000     0.0020110000    -0.0625600000
O     -0.0506810000     1.1101040000    -0.5432640000
O      1.1130650000    -0.7056450000     0.1817770000
C      2.3321010000    -0.0282030000    -0.1838490000
H     -3.0620510000    -0.8296340000     0.4788140000
H     -2.4820420000     0.1079350000    -0.9387990000
H     -2.3870540000     0.8206090000     0.6934560000
H      2.4350950000     0.9042210000     0.3781490000
H      2.3407750000     0.1928980000    -1.2548080000
H      3.1333060000    -0.7217860000     0.0720190000
