12
Coordinates from ORCA-job DMC_optfreq E -343.553302158909
  C          -2.32577711158947     -0.10947663916532      0.12149280527580
  O          -1.04664604759713     -0.74303327131913      0.32361527502933
  C          -0.00009190899101      0.00201120331517     -0.06255984588706
  O          -0.05068062971675      1.11010359078156     -0.54326448794654
  O           1.11306514785502     -0.70564472666282      0.18177706411381
  C           2.33210122719465     -0.02820273317732     -0.18384891533498
  H          -3.06205088999608     -0.82963357474132      0.47881437495481
  H          -2.48204172038703      0.10793488689651     -0.93879925742842
  H          -2.38705447300053      0.82060857990073      0.69345572960685
  H           2.43509524738314      0.90422084534353      0.37814929193189
  H           2.34077548648957      0.19289804942686     -1.25480772166316
  H           3.13330568235562     -0.72178622059845      0.07201922734768
