17
 energy: -29.400151949764 gnorm: 0.000555289338 xtb: 6.7.1pre (5071a88)
C            2.23386528769734       -1.15657756995091        0.11984533725196
O            0.88530685834095       -0.90941723361566        0.36858944185260
P            0.00149966755160        0.01773072249928       -0.62751755174469
O            0.68530284898989        0.50010025288855       -1.80503954374419
O           -1.29223735766785       -0.86152787636225       -0.85749131823204
C           -2.12651488405092       -1.40151871108301        0.13512820872623
O           -0.51140299284032        1.14494998941672        0.41526257380828
C           -0.19215311495947        2.49189526388066        0.23579756397449
H            2.84685253866013       -0.67439557391559        0.89635050998638
H            2.53328748005358       -0.80373513461902       -0.87032875751073
H            2.40587720176632       -2.23625032083268        0.23415059453666
H           -2.12329750717991       -2.49472952730524        0.02868729368480
H           -3.15378609966450       -1.07498886587326       -0.07563010519036
H           -1.82665819838439       -1.10979839960801        1.14139097292321
H            0.50397579468581        2.81582223790758        1.02352323000458
H           -1.11008549512333        3.07642818412141        0.38796086063323
H            0.24016796212493        2.67601257245131       -0.75067932096065
