17
 energy: -29.400145239968 gnorm: 0.000573094071 xtb: 6.7.1pre (5071a88)
C            2.26107779477547       -1.05887214767235       -0.21308545231490
O            1.28624983231086       -0.15714136743543        0.21852309925735
P           -0.08059971695358        0.06505118656180       -0.61881422098830
O           -0.17143238369391       -0.61957813279133       -1.88764733284080
O           -1.17305332627098       -0.37804249316532        0.49588491634526
C           -2.09006316624914       -1.39632452352918        0.24364625151208
O           -0.22760372452501        1.63927200493725       -0.63640609013711
C           -0.11277656625797        2.50197143150642        0.46591135469456
H            3.23624697492846       -0.55848322215428       -0.13577568160757
H            2.06881644709600       -1.40350793150606       -1.23207452389824
H            2.30592021190774       -1.91436053604426        0.47683788997925
H           -1.87360080212232       -2.25702850654065        0.89453494332565
H           -2.07387131761579       -1.70341547687656       -0.80521289995856
H           -3.08428608146155       -1.03855709816624        0.54653087160221
H            0.16149391280484        1.97986939540445        1.38215635678658
H           -1.06666335064943        3.03226005670728        0.58949960864277
H            0.63414525197681        3.26688737076418        0.21549089959964
