15
Coordinates from ORCA-job EMC_anion_cpcm_80_moread E -382.908440021902
  C          -2.39926446898186      0.49607720201641      0.59987691400905
  C          -1.51403196244829     -0.73971991926090      0.66351280573720
  O          -0.14282119531251     -0.41252244280708      0.89655699545303
  C           0.67100602033998     -0.39362777793162     -0.30753145353304
  O           0.21727990452931      0.15641885648056     -1.35967585492650
  O           1.92523512340718      0.09007817850130      0.24835927042349
  C           2.92981096859323      0.24279126212286     -0.74411311753394
  H          -2.11654848844371      1.12901342108171     -0.24604976967320
  H          -3.45066174651261      0.20438582228761      0.48450981719636
  H          -2.30808107680870      1.08303384758333      1.52046204266268
  H          -1.83121401554336     -1.38001371900104      1.49837580255154
  H          -1.60596024151834     -1.32503057349718     -0.26220391689656
  H           3.10383651255659     -0.70046492694335     -1.28661473999256
  H           2.67089638195614      1.01820409168281     -1.47744435296949
  H           3.85051826418698      0.53137665768455     -0.22802044250804
