15
 energy: -24.979301790644 gnorm: 0.000413553427 xtb: 6.7.1pre (5071a88)
C           -1.55143923322890        0.74562815916092        0.79304943380408
C           -1.53261412765233       -0.70919560834128        0.32430556423889
O           -0.37326464257448       -1.40534972033841        0.74742411812125
C            0.74268672366647       -1.30532558695444       -0.12451571534593
O            0.59257873769894       -1.44587036876361       -1.37820922347395
O            1.54491029428419       -0.13146129780680        0.35902139723848
C            2.16972718601474        0.59147716143705       -0.64231084599159
H           -0.64031060058417        1.23249603838312        0.45829060876682
H           -2.41628826049734        1.27223171881210        0.38584136816922
H           -1.58244181733492        0.78931750253422        1.88047921185764
H           -2.40083286245858       -1.25013446558499        0.73054170580949
H           -1.57254964572465       -0.74974161049170       -0.77465177729185
H            3.26613204250207        0.52117873217243       -0.55209436793995
H            1.86630134265869        0.18810792320076       -1.61896929326366
H            1.88740484323045        1.65664140258202       -0.58820218469876
