11
DOL conformer 0/2 rel=+0.00 kJ/mol from g1_reference; GFN2-xTB opt; T6 conformer ensemble
C   0.53421537  0.94875449 -0.06194100
C   0.94314821 -0.49506785  0.23395842
O  -0.16292362 -1.22914463 -0.25012713
C  -1.28944709 -0.39597899 -0.15013748
O  -0.86519621  0.91341764  0.13041562
H   0.95631269  1.68327288  0.62283231
H   0.77283009  1.21879443 -1.09975492
H   1.06685767 -0.65384094  1.31395997
H   1.83419962 -0.82632884 -0.29791689
H  -1.83420109 -0.44410576 -1.10633473
H  -1.95579564 -0.71977242  0.66504582
