18
Coordinates from ORCA-job DEC_anion_cpcm_20_default E -422.210135901780
  C          -3.11925545232677      0.41043557509129      0.38919383428268
  C          -2.41281476238653     -0.82583878757598     -0.15483240266566
  O          -1.05473322938429     -0.92244646639012      0.26571348508384
  C          -0.16880284714550      0.02024829091100     -0.40608942631417
  O          -0.25723129260593      0.14359110363437     -1.66938589771116
  O           1.10291440437471     -0.38296616117766      0.16981249364060
  C           2.19010163947288      0.40838190076104     -0.29910161298178
  C           3.43217302723848      0.02976853883633      0.48411623246606
  H          -2.65781768519858      1.32328982992549     -0.00057873524698
  H          -3.06765749148488      0.43697489665145      1.48323675129737
  H          -4.17501089979783      0.40178040275214      0.09339780264840
  H          -2.46902242079938     -0.84080928078024     -1.25260258128423
  H          -2.90298876114620     -1.73249311005171      0.22123150082786
  H           2.35052741675469      0.24562301173584     -1.37549447213075
  H           1.95826132830664      1.47902055414660     -0.16241855735644
  H           4.28863907784600      0.62064570672493      0.14132886475680
  H           3.67061266309963     -1.03049519758143      0.34636167498395
  H           3.29210529518286      0.21528920238665      1.55439462570363
