18
Coordinates from ORCA-job DEC_anion_cpcm_200_default E -422.150722955409
  C      -3.096416      0.395636      0.369268
  C      -2.371148     -0.816987     -0.195162
  O      -1.030604     -0.901608      0.296181
  C      -0.118900     -0.173806     -0.347027
  O      -0.316782      0.511242     -1.311202
  O       1.059255     -0.344734      0.247145
  C       2.159884      0.354984     -0.341958
  C       3.402255      0.047096      0.471625
  H      -2.612420      1.308209      0.029924
  H      -3.081992      0.369649      1.456122
  H      -4.127128      0.395722      0.026351
  H      -2.347708     -0.770232     -1.288604
  H      -2.844110     -1.745990      0.129159
  H       2.271820      0.028994     -1.381919
  H       1.938748      1.428018     -0.344128
  H       4.256105      0.564490      0.044198
  H       3.593931     -1.022245      0.468976
  H       3.265210      0.371561      1.499335
18
Coordinates from ORCA-job DEC_anion_cpcm_200_default E -422.176308743174
  C      -3.230491      0.343356      0.346607
  C      -2.353101     -0.790209     -0.171439
  O      -1.016806     -0.763126      0.367715
  C      -0.115052      0.028954     -0.248369
  O      -0.283382      0.591754     -1.316638
  O       1.083995     -0.225725      0.310454
  C       2.217719      0.367463     -0.341401
  C       3.456686     -0.020570      0.440255
  H      -2.839756      1.303780      0.015141
  H      -3.265838      0.336476      1.436251
  H      -4.245651      0.217890     -0.043752
  H      -2.294877     -0.753050     -1.264481
  H      -2.753544     -1.758024      0.140415
  H       2.267349      0.007402     -1.376310
  H       2.080777      1.458275     -0.364705
  H       4.337847      0.416326     -0.032738
  H       3.566745     -1.106504      0.464492
  H       3.387377      0.345532      1.466786
18
Coordinates from ORCA-job DEC_anion_cpcm_200_default E -422.200281913994
  C      -3.291177      0.298281      0.320922
  C      -2.322581     -0.778276     -0.156068
  O      -1.019304     -0.657520      0.442410
  C      -0.135302      0.214546     -0.155695
  O      -0.279189      0.638382     -1.321743
  O       1.090399     -0.118026      0.376567
  C       2.234776      0.378321     -0.333674
  C       3.474819     -0.072556      0.411379
  H      -2.951663      1.285345      0.001287
  H      -3.373278      0.292336      1.410761
  H      -4.280215      0.106397     -0.109554
  H      -2.221872     -0.740961     -1.246479
  H      -2.675517     -1.770185      0.141135
  H       2.224094     -0.005620     -1.361337
  H       2.169819      1.478234     -0.378914
  H       4.366732      0.294249     -0.104424
  H       3.517554     -1.164131      0.459944
  H       3.471904      0.321183      1.431767
18
Coordinates from ORCA-job DEC_anion_cpcm_200_default E -422.211796409739
  C      -3.332650      0.265650      0.308447
  C      -2.315463     -0.775357     -0.144681
  O      -1.044910     -0.599846      0.494497
  C      -0.160606      0.359079     -0.108811
  O      -0.278630      0.643888     -1.365864
  O       1.110317     -0.045258      0.422965
  C       2.254032      0.388511     -0.323002
  C       3.494326     -0.102610      0.395496
  H      -3.021676      1.270764      0.002047
  H      -3.445802      0.252695      1.398796
  H      -4.306743      0.047930     -0.145078
  H      -2.186624     -0.733068     -1.232789
  H      -2.649303     -1.781863      0.134648
  H       2.209042     -0.005688     -1.346390
  H       2.245117      1.490491     -0.386877
  H       4.391784      0.217188     -0.146752
  H       3.497070     -1.196343      0.459802
  H       3.540718      0.303837      1.411830
18
Coordinates from ORCA-job DEC_anion_cpcm_200_default E -422.212974334396
  C      -3.320923      0.276095      0.314387
  C      -2.317875     -0.774895     -0.145815
  O      -1.041472     -0.619256      0.481512
  C      -0.164378      0.352708     -0.123154
  O      -0.257822      0.555534     -1.387685
  O       1.104623     -0.064682      0.412910
  C       2.244537      0.396130     -0.317649
  C       3.487353     -0.093136      0.398189
  H      -2.998156      1.277216      0.011994
  H      -3.428564      0.259771      1.403930
  H      -4.302150      0.078064     -0.133137
  H      -2.198326     -0.735051     -1.235409
  H      -2.664289     -1.777112      0.133775
  H       2.212084      0.019017     -1.348486
  H       2.232188      1.497236     -0.367951
  H       4.383387      0.245482     -0.132654
  H       3.503872     -1.187170      0.441879
  H       3.525913      0.294049      1.421649
18
Coordinates from ORCA-job DEC_anion_cpcm_200_default E -422.214134657671
  C      -3.277802      0.318721      0.340926
  C      -2.360998     -0.794569     -0.151676
  O      -1.054163     -0.719414      0.416592
  C      -0.168233      0.250725     -0.210835
  O      -0.247311      0.404104     -1.476145
  O       1.107452     -0.158590      0.348338
  C       2.240195      0.405323     -0.310444
  C       3.485538     -0.052228      0.423459
  H      -2.903958      1.297016      0.022536
  H      -3.343504      0.312062      1.433910
  H      -4.288698      0.188561     -0.064122
  H      -2.289489     -0.771629     -1.246541
  H      -2.760153     -1.771167      0.148969
  H       2.269808      0.087417     -1.361737
  H       2.175516      1.506218     -0.306012
  H       4.378515      0.365625     -0.053355
  H       3.567824     -1.144244      0.406414
  H       3.469461      0.276072      1.468007
18
Coordinates from ORCA-job DEC_anion_cpcm_200_default E -422.215067265375
  C      -3.179703      0.382854      0.374062
  C      -2.403896     -0.818082     -0.153196
  O      -1.061602     -0.863094      0.319102
  C      -0.170770      0.088440     -0.354679
  O      -0.239802      0.187544     -1.615168
  O       1.104793     -0.302341      0.241700
  C       2.208278      0.415807     -0.295631
  C       3.457082      0.004451      0.461343
  H      -2.735898      1.317948      0.017219
  H      -3.176498      0.395496      1.469433
  H      -4.222449      0.348988      0.036743
  H      -2.412897     -0.822939     -1.252088
  H      -2.872910     -1.747399      0.193425
  H       2.321772      0.205647     -1.369409
  H       2.046552      1.503662     -0.197728
  H       4.328033      0.545899      0.076373
  H       3.647356     -1.068353      0.347037
  H       3.362560      0.225474      1.529743
18
Coordinates from ORCA-job DEC_anion_cpcm_200_default E -422.215194502515
  C      -3.145821      0.399353      0.383530
  C      -2.412936     -0.823949     -0.153429
  O      -1.059751     -0.899190      0.286294
  C      -0.170403      0.045642     -0.397292
  O      -0.242539      0.144932     -1.657767
  O       1.102494     -0.342257      0.204761
  C       2.198064      0.416270     -0.293199
  C       3.444377      0.018499      0.474538
  H      -2.688924      1.320975      0.008338
  H      -3.115091      0.420172      1.478553
  H      -4.196586      0.385513      0.071076
  H      -2.452611     -0.837420     -1.251812
  H      -2.895922     -1.738922      0.211903
  H       2.336846      0.237102     -1.369923
  H       2.002667      1.496205     -0.169172
  H       4.307122      0.591574      0.117504
  H       3.663712     -1.046178      0.338402
  H       3.325303      0.211677      1.545980
18
Coordinates from ORCA-job DEC_anion_cpcm_200_default E -422.215268316228
  C      -3.127028      0.407180      0.389194
  C      -2.415436     -0.825783     -0.154507
  O      -1.056088     -0.915453      0.267932
  C      -0.169862      0.026184     -0.414314
  O      -0.249512      0.136425     -1.676011
  O       1.100508     -0.364864      0.181517
  C       2.193846      0.413537     -0.295087
  C       3.436403      0.025320      0.482542
  H      -2.666923      1.322705      0.003414
  H      -3.079874      0.431827      1.483575
  H      -4.181719      0.398237      0.090278
  H      -2.471640     -0.841882     -1.252340
  H      -2.902734     -1.734562      0.220081
  H       2.348071      0.246933     -1.371757
  H       1.976002      1.487665     -0.160138
  H       4.295084      0.612127      0.138364
  H       3.669111     -1.035844      0.341865
  H       3.301791      0.210248      1.553676
18
Coordinates from ORCA-job DEC_anion_cpcm_200_default E -422.215298850084
  C      -3.120059      0.409693      0.392116
  C      -2.414996     -0.825090     -0.156088
  O      -1.053762     -0.920673      0.260556
  C      -0.169029      0.020593     -0.415552
  O      -0.253576      0.138745     -1.678761
  O       1.100146     -0.375720      0.170957
  C       2.192610      0.410378     -0.298177
  C       3.432513      0.028305      0.486090
  H      -2.660466      1.324116      0.003551
  H      -3.066686      0.434036      1.486134
  H      -4.176110      0.400356      0.097986
  H      -2.475795     -0.839728     -1.253600
  H      -2.902831     -1.732802      0.219937
  H       2.353695      0.245254     -1.374009
  H       1.963829      1.481763     -0.162074
  H       4.289930      0.618438      0.144794
  H       3.669539     -1.032219      0.348305
  H       3.291049      0.214555      1.556117
18
Coordinates from ORCA-job DEC_anion_cpcm_200_default E -422.215307729343
  C      -3.117162      0.410764      0.394227
  C      -2.415044     -0.824114     -0.157509
  O      -1.053630     -0.924051      0.256777
  C      -0.168341      0.017280     -0.415024
  O      -0.254547      0.138267     -1.679275
  O       1.101010     -0.382439      0.165463
  C       2.191984      0.408113     -0.300493
  C       3.430495      0.030712      0.488186
  H      -2.657645      1.325249      0.005908
  H      -3.061294      0.433228      1.488105
  H      -4.173904      0.402643      0.102465
  H      -2.476705     -0.836233     -1.254914
  H      -2.903799     -1.731676      0.217535
  H       2.356846      0.242698     -1.375667
  H       1.958179      1.478387     -0.165742
  H       4.287369      0.622061      0.147727
  H       3.670319     -1.029516      0.353056
  H       3.285867      0.218627      1.557459
18
Coordinates from ORCA-job DEC_anion_cpcm_200_default E -422.215309336730
  C      -3.116802      0.410763      0.395357
  C      -2.415354     -0.823566     -0.158355
  O      -1.054177     -0.925165      0.255519
  C      -0.168033      0.016143     -0.414799
  O      -0.254294      0.138073     -1.679300
  O       1.101713     -0.384787      0.163729
  C       2.191983      0.406895     -0.301682
  C       3.429943      0.031915      0.489155
  H      -2.657419      1.325726      0.007992
  H      -3.060292      0.431671      1.489237
  H      -4.173834      0.403826      0.104619
  H      -2.476664     -0.833882     -1.255787
  H      -2.904655     -1.731348      0.215474
  H       2.358383      0.240516     -1.376473
  H       1.957298      1.477160     -0.168854
  H       4.286902      0.623085      0.148539
  H       3.670878     -1.028321      0.355896
  H       3.284425      0.221298      1.558015
18
Coordinates from ORCA-job DEC_anion_cpcm_200_default E -422.215309695330
  C      -3.115807      0.410847      0.396649
  C      -2.415705     -0.823281     -0.159114
  O      -1.054442     -0.926435      0.253748
  C      -0.167916      0.014869     -0.416010
  O      -0.254256      0.137797     -1.680433
  O       1.102014     -0.386919      0.161622
  C       2.191850      0.405738     -0.302744
  C       3.429103      0.033084      0.490363
  H      -2.656397      1.326050      0.009842
  H      -3.058101      0.430460      1.490503
  H      -4.173248      0.405319      0.107379
  H      -2.477549     -0.832156     -1.256533
  H      -2.905549     -1.731072      0.213999
  H       2.360185      0.238754     -1.377162
  H       1.956134      1.475959     -0.171497
  H       4.286115      0.624401      0.150089
  H       3.671371     -1.027079      0.358783
  H       3.282198      0.223664      1.558802
