18
Coordinates from ORCA-job DEC_anion_cpcm_5_default E -422.123774235554
  C      -3.096416      0.395636      0.369268
  C      -2.371148     -0.816987     -0.195162
  O      -1.030604     -0.901608      0.296181
  C      -0.118900     -0.173806     -0.347027
  O      -0.316782      0.511242     -1.311202
  O       1.059255     -0.344734      0.247145
  C       2.159884      0.354984     -0.341958
  C       3.402255      0.047096      0.471625
  H      -2.612420      1.308209      0.029924
  H      -3.081992      0.369649      1.456122
  H      -4.127128      0.395722      0.026351
  H      -2.347708     -0.770232     -1.288604
  H      -2.844110     -1.745990      0.129159
  H       2.271820      0.028994     -1.381919
  H       1.938748      1.428018     -0.344128
  H       4.256105      0.564490      0.044198
  H       3.593931     -1.022245      0.468976
  H       3.265210      0.371561      1.499335
18
Coordinates from ORCA-job DEC_anion_cpcm_5_default E -422.155576353973
  C      -3.208384      0.350894      0.347779
  C      -2.356016     -0.799926     -0.175589
  O      -1.027447     -0.786701      0.368772
  C      -0.123051      0.010656     -0.251531
  O      -0.295156      0.572743     -1.327980
  O       1.082430     -0.236784      0.312563
  C       2.207018      0.366476     -0.337597
  C       3.451865     -0.010986      0.441341
  H      -2.791941      1.303084      0.022027
  H      -3.242896      0.337217      1.437269
  H      -4.225739      0.253393     -0.043162
  H      -2.293865     -0.757429     -1.268555
  H      -2.772770     -1.762469      0.132506
  H       2.259672      0.011629     -1.374226
  H       2.057241      1.457408     -0.356050
  H       4.328664      0.437428     -0.029386
  H       3.573029     -1.095260      0.461122
  H       3.377345      0.348626      1.468982
18
Coordinates from ORCA-job DEC_anion_cpcm_5_default E -422.179713231836
  C      -3.295019      0.306514      0.330796
  C      -2.349547     -0.792060     -0.153533
  O      -1.039609     -0.694999      0.433233
  C      -0.135311      0.187880     -0.188132
  O      -0.294449      0.647746     -1.379577
  O       1.113603     -0.139783      0.368295
  C       2.251092      0.376675     -0.331131
  C       3.492289     -0.061923      0.420261
  H      -2.932499      1.286381      0.009746
  H      -3.370642      0.303986      1.423140
  H      -4.295810      0.134732     -0.096241
  H      -2.256919     -0.752849     -1.245652
  H      -2.723937     -1.777831      0.144113
  H       2.255964      0.002755     -1.363905
  H       2.165720      1.480921     -0.366513
  H       4.387190      0.325219     -0.084828
  H       3.553761     -1.156219      0.460886
  H       3.474123      0.322857      1.447326
18
Coordinates from ORCA-job DEC_anion_cpcm_5_default E -422.186793348049
  C      -3.299354      0.249221      0.270263
  C      -2.237088     -0.766767     -0.133376
  O      -1.003285     -0.545047      0.551528
  C      -0.174381      0.447503     -0.016652
  O      -0.273901      0.647831     -1.265149
  O       1.070061      0.007249      0.478816
  C       2.193295      0.394235     -0.313947
  C       3.444067     -0.132102      0.360979
  H      -2.994454      1.256202     -0.028194
  H      -3.456261      0.237710      1.353456
  H      -4.245188      0.006353     -0.223485
  H      -2.064484     -0.720163     -1.215602
  H      -2.549426     -1.781066      0.141242
  H       2.094543     -0.004476     -1.332042
  H       2.217124      1.493852     -0.388996
  H       4.329446      0.155055     -0.214730
  H       3.411945     -1.222726      0.433370
  H       3.537342      0.277136      1.370803
18
Coordinates from ORCA-job DEC_anion_cpcm_5_default E -422.190860068663
  C      -3.329472      0.275432      0.314411
  C      -2.317953     -0.771816     -0.142565
  O      -1.042670     -0.620118      0.486379
  C      -0.157502      0.345626     -0.123702
  O      -0.258137      0.564953     -1.391545
  O       1.113358     -0.068158      0.415161
  C       2.247575      0.394943     -0.318048
  C       3.491660     -0.094366      0.396696
  H      -3.005464      1.275846      0.010979
  H      -3.441104      0.263111      1.404451
  H      -4.309229      0.067973     -0.139485
  H      -2.195247     -0.725539     -1.231864
  H      -2.664582     -1.775943      0.133483
  H       2.212786      0.021578     -1.350815
  H       2.228779      1.498134     -0.364547
  H       4.389817      0.245372     -0.134345
  H       3.508258     -1.189706      0.441744
  H       3.529128      0.292679      1.421896
18
Coordinates from ORCA-job DEC_anion_cpcm_5_default E -422.191731014251
  C      -3.305626      0.300322      0.329228
  C      -2.341024     -0.782237     -0.145747
  O      -1.050448     -0.673883      0.452572
  C      -0.159409      0.285996     -0.173724
  O      -0.252035      0.474418     -1.439569
  O       1.113932     -0.122814      0.378382
  C       2.244805      0.400617     -0.313706
  C       3.491019     -0.071068      0.410204
  H      -2.953769      1.288910      0.017408
  H      -3.394509      0.294081      1.421255
  H      -4.302101      0.129433     -0.101781
  H      -2.242929     -0.746316     -1.238426
  H      -2.717425     -1.772742      0.141174
  H       2.244531      0.061264     -1.358884
  H       2.195942      1.503996     -0.327199
  H       4.387974      0.314006     -0.090572
  H       3.543812     -1.165990      0.419699
  H       3.497262      0.282006      1.447968
18
Coordinates from ORCA-job DEC_anion_cpcm_5_default E -422.193104709383
  C      -3.190667      0.378137      0.362615
  C      -2.389796     -0.815741     -0.146315
  O      -1.061861     -0.841432      0.350745
  C      -0.167673      0.102597     -0.332738
  O      -0.247836      0.211372     -1.588264
  O       1.108940     -0.297565      0.256240
  C       2.205099      0.415060     -0.292890
  C       3.461076     -0.003400      0.449447
  H      -2.751009      1.315580      0.006482
  H      -3.203569      0.400133      1.457927
  H      -4.227264      0.324575      0.006976
  H      -2.377272     -0.820213     -1.245675
  H      -2.856189     -1.750431      0.192717
  H       2.301147      0.206718     -1.368921
  H       2.046391      1.504175     -0.189571
  H       4.333393      0.529891      0.054002
  H       3.638663     -1.078704      0.336811
  H       3.378427      0.219249      1.518695
18
Coordinates from ORCA-job DEC_anion_cpcm_5_default E -422.193188901283
  C      -3.165141      0.391357      0.364251
  C      -2.397898     -0.824865     -0.144058
  O      -1.060787     -0.871113      0.329957
  C      -0.169899      0.074848     -0.358466
  O      -0.252267      0.182062     -1.614951
  O       1.107195     -0.327758      0.231379
  C       2.196488      0.418020     -0.287421
  C       3.453808      0.006006      0.456038
  H      -2.710864      1.314900     -0.009161
  H      -3.159121      0.424589      1.459466
  H      -4.207999      0.356602      0.025796
  H      -2.408373     -0.843085     -1.243474
  H      -2.877607     -1.745491      0.214499
  H       2.309695      0.239205     -1.367517
  H       2.014858      1.500687     -0.158786
  H       4.318847      0.566064      0.082586
  H       3.653231     -1.062458      0.318703
  H       3.355833      0.200431      1.529443
18
Coordinates from ORCA-job DEC_anion_cpcm_5_default E -422.193243304304
  C      -3.145581      0.400743      0.360043
  C      -2.402156     -0.833657     -0.140842
  O      -1.057975     -0.892812      0.317690
  C      -0.172534      0.057826     -0.365666
  O      -0.262643      0.178860     -1.623343
  O       1.105337     -0.349085      0.214573
  C       2.189822      0.420537     -0.282707
  C       3.448984      0.010318      0.458076
  H      -2.680069      1.311382     -0.030056
  H      -3.126792      0.446297      1.454702
  H      -4.191923      0.376792      0.031882
  H      -2.429149     -0.866471     -1.239775
  H      -2.889470     -1.742199      0.236941
  H       2.313222      0.265045     -1.365555
  H       1.989606      1.496816     -0.132717
  H       4.307586      0.589302      0.099419
  H       3.661906     -1.052760      0.301237
  H       3.341827      0.183066      1.534380
18
Coordinates from ORCA-job DEC_anion_cpcm_5_default E -422.193260306918
  C      -3.136537      0.404903      0.357603
  C      -2.402342     -0.836581     -0.139761
  O      -1.056295     -0.902300      0.313198
  C      -0.173579      0.050423     -0.364593
  O      -0.268827      0.180091     -1.622712
  O       1.104880     -0.359336      0.206921
  C       2.186145      0.421072     -0.281586
  C       3.445941      0.012039      0.458594
  H      -2.666563      1.310129     -0.039255
  H      -3.113276      0.455341      1.451933
  H      -4.183922      0.384434      0.032754
  H      -2.434710     -0.875136     -1.238325
  H      -2.892005     -1.740280      0.245936
  H       2.313172      0.274777     -1.365242
  H       1.976729      1.494150     -0.122822
  H       4.301540      0.598642      0.105471
  H       3.664374     -1.048746      0.294281
  H       3.335277      0.176378      1.535886
18
Coordinates from ORCA-job DEC_anion_cpcm_5_default E -422.193265907674
  C      -3.134131      0.406110      0.357635
  C      -2.401758     -0.836261     -0.140158
  O      -1.055722     -0.905024      0.311318
  C      -0.173297      0.047688     -0.362745
  O      -0.270835      0.181521     -1.621092
  O       1.105388     -0.363943      0.203430
  C       2.185110      0.420159     -0.282533
  C       3.444574      0.012989      0.459323
  H      -2.664176      1.310639     -0.040717
  H      -3.109434      0.457130      1.451877
  H      -4.181879      0.385381      0.034073
  H      -2.434805     -0.875024     -1.238630
  H      -2.891601     -1.739319      0.246766
  H       2.313626      0.275170     -1.366108
  H       1.972051      1.492294     -0.122653
  H       4.299502      0.601219      0.107228
  H       3.664896     -1.047350      0.294721
  H       3.332491      0.176619      1.536547
18
Coordinates from ORCA-job DEC_anion_cpcm_5_default E -422.193267199001
  C      -3.133635      0.406419      0.359133
  C      -2.401748     -0.835282     -0.140889
  O      -1.055743     -0.905752      0.309556
  C      -0.172719      0.046018     -0.363896
  O      -0.270592      0.180295     -1.622287
  O       1.105962     -0.366509      0.200879
  C       2.185127      0.419009     -0.283749
  C       3.443879      0.014005      0.460578
  H      -2.664916      1.311658     -0.039126
  H      -3.107602      0.456643      1.453373
  H      -4.181875      0.385279      0.037097
  H      -2.435140     -0.872450     -1.239408
  H      -2.891702     -1.738742      0.245098
  H       2.315276      0.273519     -1.367049
  H       1.970552      1.491013     -0.124932
  H       4.298920      0.602400      0.108884
  H       3.665503     -1.046336      0.297553
  H       3.330454      0.178815      1.537466
