18
Coordinates from ORCA-job DEC_anion_cpcm_20_default E -422.144133649185
  C      -3.096416      0.395636      0.369268
  C      -2.371148     -0.816987     -0.195162
  O      -1.030604     -0.901608      0.296181
  C      -0.118900     -0.173806     -0.347027
  O      -0.316782      0.511242     -1.311202
  O       1.059255     -0.344734      0.247145
  C       2.159884      0.354984     -0.341958
  C       3.402255      0.047096      0.471625
  H      -2.612420      1.308209      0.029924
  H      -3.081992      0.369649      1.456122
  H      -4.127128      0.395722      0.026351
  H      -2.347708     -0.770232     -1.288604
  H      -2.844110     -1.745990      0.129159
  H       2.271820      0.028994     -1.381919
  H       1.938748      1.428018     -0.344128
  H       4.256105      0.564490      0.044198
  H       3.593931     -1.022245      0.468976
  H       3.265210      0.371561      1.499335
18
Coordinates from ORCA-job DEC_anion_cpcm_20_default E -422.171348128723
  C      -3.224967      0.345352      0.346940
  C      -2.353567     -0.792341     -0.172427
  O      -1.019038     -0.768870      0.367876
  C      -0.116826      0.024209     -0.249132
  O      -0.285717      0.585832     -1.319399
  O       1.083431     -0.228640      0.310957
  C       2.214789      0.367281     -0.340447
  C       3.455252     -0.018176      0.440454
  H      -2.827859      1.303861      0.017171
  H      -3.260191      0.336707      1.436487
  H      -4.240719      0.226601     -0.043796
  H      -2.294308     -0.753737     -1.265459
  H      -2.757966     -1.758929      0.138444
  H       2.265117      0.008608     -1.375848
  H       2.074485      1.458030     -0.362373
  H       4.335271      0.421722     -0.031943
  H       3.568195     -1.103715      0.463470
  H       3.384619      0.346204      1.467307
18
Coordinates from ORCA-job DEC_anion_cpcm_20_default E -422.195318069841
  C      -3.286391      0.300331      0.321192
  C      -2.322800     -0.780570     -0.156893
  O      -1.021054     -0.663493      0.442572
  C      -0.136879      0.209953     -0.156368
  O      -0.281086      0.632592     -1.323972
  O       1.090042     -0.121060      0.377168
  C       2.231906      0.378274     -0.332714
  C       3.473611     -0.070254      0.411395
  H      -2.940253      1.285667      0.003332
  H      -3.368366      0.292923      1.411007
  H      -4.276503      0.115006     -0.109874
  H      -2.221185     -0.741653     -1.247276
  H      -2.679852     -1.771575      0.139016
  H       2.221992     -0.004116     -1.361056
  H       2.163829      1.478356     -0.376397
  H       4.364754      0.299707     -0.103720
  H       3.519078     -1.161745      0.458476
  H       3.469158      0.321661      1.432395
18
Coordinates from ORCA-job DEC_anion_cpcm_20_default E -422.206770127555
  C      -3.329103      0.266868      0.307561
  C      -2.313056     -0.776208     -0.144538
  O      -1.044091     -0.602906      0.495893
  C      -0.161182      0.357316     -0.107248
  O      -0.277784      0.637242     -1.364023
  O       1.109165     -0.047070      0.424785
  C       2.249895      0.389088     -0.321864
  C       3.491995     -0.101603      0.394293
  H      -3.013312      1.270628      0.002491
  H      -3.443366      0.253322      1.397773
  H      -4.303504      0.052953     -0.147599
  H      -2.182668     -0.732580     -1.232527
  H      -2.649556     -1.782412      0.133469
  H       2.204047     -0.003216     -1.346066
  H       2.239657      1.491141     -0.384340
  H       4.388799      0.220210     -0.148020
  H       3.495782     -1.195455      0.456729
  H       3.538282      0.302681      1.411514
18
Coordinates from ORCA-job DEC_anion_cpcm_20_default E -422.207929902841
  C      -3.317240      0.278653      0.313648
  C      -2.318464     -0.777459     -0.145313
  O      -1.042838     -0.626239      0.481776
  C      -0.165177      0.346548     -0.124121
  O      -0.259044      0.549832     -1.388230
  O       1.105054     -0.069793      0.412862
  C       2.241997      0.396993     -0.316138
  C       3.486894     -0.091022      0.397528
  H      -2.987827      1.277456      0.010714
  H      -3.424957      0.263719      1.403313
  H      -4.299553      0.085951     -0.134163
  H      -2.198574     -0.738160     -1.235030
  H      -2.669734     -1.778108      0.134671
  H       2.210496      0.024157     -1.348662
  H       2.226397      1.498489     -0.362695
  H       4.382283      0.252342     -0.131725
  H       3.506462     -1.185223      0.437122
  H       3.523824      0.291865      1.422728
18
Coordinates from ORCA-job DEC_anion_cpcm_20_default E -422.209101412782
  C      -3.270584      0.323847      0.340172
  C      -2.363618     -0.798940     -0.150237
  O      -1.056660     -0.732550      0.414424
  C      -0.169942      0.240252     -0.216040
  O      -0.248873      0.389744     -1.481173
  O       1.108476     -0.169604      0.344650
  C       2.236474      0.407251     -0.307578
  C       3.484735     -0.048195      0.423409
  H      -2.887017      1.297299      0.018353
  H      -3.334256      0.321333      1.433391
  H      -4.283566      0.202818     -0.062826
  H      -2.294803     -0.779833     -1.245609
  H      -2.771148     -1.771233      0.154060
  H       2.269731      0.099626     -1.362022
  H       2.165736      1.508052     -0.294442
  H       4.375959      0.379784     -0.048069
  H       3.574256     -1.139507      0.396700
  H       3.465098      0.269856      1.471121
18
Coordinates from ORCA-job DEC_anion_cpcm_20_default E -422.209891339508
  C      -3.181666      0.381487      0.368365
  C      -2.401188     -0.820512     -0.150675
  O      -1.062226     -0.860815      0.327686
  C      -0.172277      0.095972     -0.343889
  O      -0.243113      0.198512     -1.603454
  O       1.105670     -0.299013      0.248566
  C       2.206851      0.416544     -0.293838
  C       3.458794      0.002087      0.456687
  H      -2.736007      1.314925      0.009763
  H      -3.182876      0.398734      1.463648
  H      -4.222884      0.345592      0.026176
  H      -2.405783     -0.828898     -1.249715
  H      -2.870709     -1.749275      0.197462
  H       2.314546      0.207123     -1.368473
  H       2.048719      1.505013     -0.195170
  H       4.329606      0.541319      0.068101
  H       3.645078     -1.071276      0.341380
  H       3.369466      0.222481      1.525662
18
Coordinates from ORCA-job DEC_anion_cpcm_20_default E -422.210024281997
  C      -3.149149      0.397849      0.376995
  C      -2.409848     -0.826251     -0.150443
  O      -1.060163     -0.895650      0.296975
  C      -0.171643      0.053301     -0.385098
  O      -0.246100      0.157159     -1.644304
  O       1.103361     -0.337974      0.213310
  C       2.196821      0.417190     -0.291052
  C       3.446958      0.015622      0.468978
  H      -2.690611      1.317986      0.000380
  H      -3.124259      0.423632      1.472069
  H      -4.198097      0.380964      0.058193
  H      -2.443705     -0.843718     -1.249121
  H      -2.892998     -1.740887      0.216140
  H       2.328394      0.238375     -1.368888
  H       2.005662      1.497946     -0.165898
  H       4.309689      0.586086      0.107434
  H       3.661496     -1.049849      0.331386
  H       3.334192      0.208217      1.541228
18
Coordinates from ORCA-job DEC_anion_cpcm_20_default E -422.210095121349
  C      -3.131778      0.405650      0.381940
  C      -2.411913     -0.827770     -0.150869
  O      -1.056289     -0.910363      0.280573
  C      -0.170750      0.033834     -0.401874
  O      -0.252283      0.146699     -1.662178
  O       1.101340     -0.359241      0.191651
  C       2.192587      0.415265     -0.292267
  C       3.439622      0.021788      0.476098
  H      -2.670298      1.319937     -0.004949
  H      -3.091923      0.435625      1.476512
  H      -4.184387      0.392816      0.075419
  H      -2.460955     -0.848389     -1.249060
  H      -2.899012     -1.736454      0.224789
  H       2.338133      0.249459     -1.370385
  H       1.980072      1.490421     -0.155171
  H       4.298395      0.605830      0.127099
  H       3.666847     -1.040199      0.332491
  H       3.312590      0.205092      1.548465
18
Coordinates from ORCA-job DEC_anion_cpcm_20_default E -422.210124262422
  C      -3.123774      0.408988      0.384922
  C      -2.411880     -0.827329     -0.152018
  O      -1.054047     -0.916556      0.272601
  C      -0.169868      0.026125     -0.405504
  O      -0.256076      0.144829     -1.667440
  O       1.100963     -0.371161      0.179906
  C       2.190851      0.412829     -0.294741
  C       3.435446      0.025082      0.479866
  H      -2.662216      1.321496     -0.005674
  H      -3.077011      0.439386      1.479139
  H      -4.177994      0.396599      0.083926
  H      -2.466460     -0.847305     -1.249874
  H      -2.900056     -1.734241      0.226123
  H       2.343772      0.250806     -1.372338
  H       1.966539      1.484873     -0.154347
  H       4.292533      0.614061      0.135343
  H       3.668200     -1.035726      0.336852
  H       3.301078      0.207246      1.551541
18
Coordinates from ORCA-job DEC_anion_cpcm_20_default E -422.210133744117
  C      -3.121421      0.409953      0.386772
  C      -2.411992     -0.826415     -0.153293
  O      -1.053960     -0.919223      0.269346
  C      -0.169160      0.023301     -0.404660
  O      -0.257074      0.144452     -1.667818
  O       1.101851     -0.377331      0.174741
  C       2.190479      0.410801     -0.296870
  C       3.433811      0.027166      0.481716
  H      -2.660161      1.322551     -0.003781
  H      -3.072372      0.438832      1.480872
  H      -4.176285      0.398302      0.087919
  H      -2.467264     -0.844198     -1.251062
  H      -2.900822     -1.733243      0.224053
  H       2.346844      0.248638     -1.373909
  H       1.961465      1.481779     -0.157487
  H       4.290449      0.617177      0.137937
  H       3.668994     -1.033409      0.341077
  H       3.296618      0.210865      1.552731
18
Coordinates from ORCA-job DEC_anion_cpcm_20_default E -422.210135501158
  C      -3.119719      0.410526      0.388199
  C      -2.412526     -0.826089     -0.154149
  O      -1.054441     -0.921637      0.266904
  C      -0.168906      0.020919     -0.405656
  O      -0.257107      0.142839     -1.669073
  O       1.102555     -0.381266      0.171395
  C       2.190045      0.409539     -0.298084
  C       3.432672      0.028859      0.483183
  H      -2.658160      1.323065     -0.002135
  H      -3.068976      0.438175      1.482244
  H      -4.175157      0.400839      0.091305
  H      -2.468557     -0.842364     -1.251903
  H      -2.902335     -1.732611      0.222697
  H       2.348935      0.247623     -1.374804
  H       1.958889      1.480126     -0.159729
  H       4.289033      0.619836      0.140353
  H       3.670100     -1.031383      0.343686
  H       3.293656      0.213005      1.553852
18
Coordinates from ORCA-job DEC_anion_cpcm_20_default E -422.210135901780
  C      -3.119255      0.410436      0.389194
  C      -2.412815     -0.825839     -0.154832
  O      -1.054733     -0.922446      0.265713
  C      -0.168803      0.020248     -0.406089
  O      -0.257231      0.143591     -1.669386
  O       1.102914     -0.382966      0.169812
  C       2.190102      0.408382     -0.299102
  C       3.432173      0.029769      0.484116
  H      -2.657818      1.323290     -0.000579
  H      -3.067657      0.436975      1.483237
  H      -4.175011      0.401780      0.093398
  H      -2.469022     -0.840809     -1.252603
  H      -2.902989     -1.732493      0.221232
  H       2.350527      0.245623     -1.375494
  H       1.958261      1.479021     -0.162419
  H       4.288639      0.620646      0.141329
  H       3.670613     -1.030495      0.346362
  H       3.292105      0.215289      1.554395
