11
DOL G2 r2SCAN-3c Opt from G1 charge=0 mult=1
C      0.5419230000     0.9442990000    -0.0676750000
C      0.9457850000    -0.4875140000     0.2409940000
O     -0.1563970000    -1.2289330000    -0.2884670000
C     -1.3062230000    -0.4010720000    -0.1520930000
O     -0.8678570000     0.9141670000     0.1702680000
H      0.9837760000     1.6894490000     0.5997330000
H      0.7609700000     1.2035450000    -1.1156690000
H      1.0465220000    -0.6484520000     1.3260860000
H      1.8547290000    -0.8178150000    -0.2695920000
H     -1.8471730000    -0.4220740000    -1.1110730000
H     -1.9560570000    -0.7455990000     0.6674890000
