11
Coordinates from ORCA-job DOL_optfreq E -268.292311609763
  C           0.54192343748657      0.94429925194873     -0.06767549235196
  C           0.94578515049089     -0.48751364940723      0.24099375830394
  O          -0.15639668799997     -1.22893348173603     -0.28846743700128
  C          -1.30622303626239     -0.40107215263340     -0.15209294539620
  O          -0.86785678472732      0.91416658105167      0.17026806065574
  H           0.98377631876723      1.68944918530509      0.59973267327066
  H           0.76097021046308      1.20354527938758     -1.11566868052539
  H           1.04652205385182     -0.64845249173334      1.32608594593003
  H           1.85472946382692     -0.81781503711075     -0.26959194681030
  H          -1.84717297294901     -0.42207412633806     -1.11107283259167
  H          -1.95605715294784     -0.74559935873424      0.66748889651644
