11
Coordinates from ORCA-job DOL_optfreq E -268.291326928004
  C       0.534215      0.948754     -0.061941
  C       0.943148     -0.495068      0.233958
  O      -0.162924     -1.229145     -0.250127
  C      -1.289447     -0.395979     -0.150137
  O      -0.865196      0.913418      0.130416
  H       0.956313      1.683273      0.622832
  H       0.772830      1.218794     -1.099755
  H       1.066858     -0.653841      1.313960
  H       1.834200     -0.826329     -0.297917
  H      -1.834201     -0.444106     -1.106335
  H      -1.955796     -0.719772      0.665046
11
Coordinates from ORCA-job DOL_optfreq E -268.292118910931
  C       0.539992      0.948069     -0.064510
  C       0.946801     -0.491578      0.237347
  O      -0.163302     -1.230194     -0.263230
  C      -1.305086     -0.400778     -0.151947
  O      -0.868622      0.913159      0.143243
  H       0.972887      1.684843      0.617732
  H       0.778753      1.216270     -1.106693
  H       1.068811     -0.648616      1.321568
  H       1.847702     -0.818840     -0.288980
  H      -1.850601     -0.439413     -1.110301
  H      -1.967335     -0.732920      0.665772
11
Coordinates from ORCA-job DOL_optfreq E -268.292272167944
  C       0.541339      0.946028     -0.067135
  C       0.946197     -0.489362      0.239980
  O      -0.160347     -1.231307     -0.275768
  C      -1.308380     -0.401769     -0.152337
  O      -0.869468      0.914871      0.156260
  H       0.980501      1.685134      0.609444
  H       0.773412      1.211444     -1.111380
  H       1.061133     -0.647692      1.324654
  H       1.852339     -0.815482     -0.279181
  H      -1.852115     -0.431792     -1.110668
  H      -1.964611     -0.740073      0.666130
11
Coordinates from ORCA-job DOL_optfreq E -268.292303718891
  C       0.541586      0.944534     -0.068240
  C       0.945372     -0.488033      0.241131
  O      -0.157890     -1.230782     -0.283797
  C      -1.307824     -0.401578     -0.152280
  O      -0.868981      0.915261      0.164851
  H       0.983388      1.686241      0.603531
  H       0.766747      1.207166     -1.114122
  H       1.053117     -0.647990      1.325759
  H       1.853861     -0.815228     -0.272936
  H      -1.849674     -0.426004     -1.110811
  H      -1.959703     -0.743586      0.666914
11
Coordinates from ORCA-job DOL_optfreq E -268.292309743368
  C       0.541695      0.944118     -0.068183
  C       0.945292     -0.487574      0.241236
  O      -0.156838     -1.229871     -0.286974
  C      -1.306892     -0.401282     -0.152174
  O      -0.868384      0.914864      0.168384
  H       0.983888      1.687657      0.601019
  H       0.763016      1.204960     -1.115174
  H       1.048853     -0.648358      1.325989
  H       1.854305     -0.816276     -0.270569
  H      -1.847876     -0.423427     -1.111008
  H      -1.957058     -0.744810      0.667455
11
Coordinates from ORCA-job DOL_optfreq E -268.292311343450
  C       0.541826      0.944179     -0.067836
  C       0.945562     -0.487490      0.241063
  O      -0.156490     -1.229208     -0.288075
  C      -1.306353     -0.401113     -0.152111
  O      -0.868008      0.914405      0.169717
  H       0.983777      1.688857      0.600082
  H       0.761388      1.203935     -1.115520
  H       1.047020     -0.648503      1.326017
  H       1.854527     -0.817346     -0.269843
  H      -1.847143     -0.422438     -1.111107
  H      -1.956106     -0.745276      0.667613
11
Coordinates from ORCA-job DOL_optfreq E -268.292311609763
  C       0.541923      0.944299     -0.067675
  C       0.945785     -0.487514      0.240994
  O      -0.156397     -1.228933     -0.288467
  C      -1.306223     -0.401072     -0.152093
  O      -0.867857      0.914167      0.170268
  H       0.983776      1.689449      0.599733
  H       0.760970      1.203545     -1.115669
  H       1.046522     -0.648452      1.326086
  H       1.854729     -0.817815     -0.269592
  H      -1.847173     -0.422074     -1.111073
  H      -1.956057     -0.745599      0.667489
