10
 energy: -20.801367627971 gnorm: 0.000955615720 xtb: 6.7.1pre (5071a88)
O            2.76096939681633       -0.05986682146837        0.19240608876314
C            1.53148157163069       -0.03094801427554        0.42703378557773
O            0.73582778288418        1.15259359002441       -0.05401660565830
C           -0.58694285599437        0.78882082245832       -0.12368300073032
C           -0.62323049697922       -0.76383030371865       -0.03347489802784
O            0.68472038818937       -1.18183686313428       -0.03892377312771
H           -1.02030848876172        1.14267336473334       -1.07445776163717
H           -1.17706090750264        1.23421589110892        0.70260232255814
H           -1.15608993093680       -1.20600526874941       -0.88986450947398
H           -1.14936643934583       -1.07581639697875        0.89237836175635
