10
 energy: -20.117269531196 gnorm: 0.000683944416 xtb: 6.7.1pre (5071a88)
O            2.69264634393438       -0.05458539580620        0.23836980714810
C            1.53151853704019       -0.03111031524104        0.13444950768067
O            0.74611222580699        1.09058911088853       -0.00062240478776
C           -0.58422649189123        0.77048092624266       -0.09746430108824
C           -0.62278085934535       -0.74600189927798       -0.00920423262860
O            0.68993624311008       -1.11969894042715        0.12780594677018
H           -1.00662172255532        1.19328344544429       -1.03546794397083
H           -1.15778229286482        1.29771761086347        0.69627687081815
H           -1.06900945469502       -1.25283824797920       -0.89294274661867
H           -1.21979250853990       -1.14783629470738        0.83879950667703
