17
 energy: -29.400151029724 gnorm: 0.000921717266 xtb: 6.7.1pre (5071a88)
C            2.23315911608037       -1.15617697998264        0.12063694087946
O            0.88455991779101       -0.90856496026789        0.36917624741065
P            0.00141875711268        0.01813079991740       -0.62720676327449
O            0.68594131835635        0.50038533543369       -1.80431096010551
O           -1.29273767618467       -0.86068831790261       -0.85767223626690
C           -2.12560032445848       -1.40298460181290        0.13492215592804
O           -0.51148196577694        1.14581472833107        0.41545654225059
C           -0.19216853006591        2.49261169789266        0.23494030430262
H            2.84580313719586       -0.67536908482770        0.89821627418559
H            2.53301084184647       -0.80213542167127       -0.86901352308737
H            2.40452640577641       -2.23608696192417        0.23325517848540
H           -2.12153764501202       -2.49643645631186        0.02675561048723
H           -3.15352744384319       -1.07655681220805       -0.07455027608931
H           -1.82541122106354       -1.11230682981651        1.14202358744519
H            0.50318842991373        2.81726751398660        1.02307905747360
H           -1.11024708848504        3.07736002743299        0.38560170568050
H            0.24110396081687        2.67573633373142       -0.75130985570553
