15
 energy: -24.979297985899 gnorm: 0.000792555073 xtb: 6.7.1pre (5071a88)
C           -1.55430408854655        0.74522944580804        0.79107626760916
C           -1.53440596732598       -0.71111492185141        0.32717987285473
O           -0.37172423208410       -1.40410326509891        0.74785271517341
C            0.74131560130378       -1.30238264128325       -0.12621709952922
O            0.58922549645084       -1.43998430093350       -1.38001595131540
O            1.54492861686421       -0.12834430668795        0.35849583833846
C            2.17415596017690        0.59124565489186       -0.64209891416621
H           -0.64507726628569        1.23271650896589        0.45135831345751
H           -2.42155505652314        1.26886622975094        0.38482160866494
H           -1.58167023715507        0.79262081263799        1.87861775354384
H           -2.39970182021321       -1.25270357967000        0.73869911298033
H           -1.57833293124173       -0.75506630311754       -0.77144953840273
H            3.27064851666232        0.51111016836258       -0.55453569038845
H            1.86558515292164        0.19312283523710       -1.61976967004496
H            1.90091223499531        1.65878764298762       -0.58401461877434
