13
 energy: -23.973932919384 gnorm: 0.000688526531 xtb: 6.7.1pre (5071a88)
C            1.41582685050823       -0.38823105920007       -0.09404188763652
C            0.04155626890183       -0.44956105752888        0.57954070510332
C           -0.64921953940193        0.94664651649518        0.59192245612932
O           -1.74018915883269        0.83077039372745       -0.26084555537088
C           -1.53553086449541       -0.37868600178558       -1.08086046781772
O           -1.09218594922501       -0.25808449316614       -2.26008497607549
O           -0.84527933853852       -1.25790703907767       -0.13111180600954
H            2.06951340987112        0.32187122599338        0.41407372822546
H            1.26594904617212       -0.08336321119811       -1.12755024825376
H            1.87674357310826       -1.37486677534032       -0.08563517105427
H            0.14047256987104       -0.85077661273804        1.60334461345635
H            0.05250845366713        1.72725453601187        0.24909732724620
H           -1.00016531160619        1.21493358780709        1.60215127205747
