13
Coordinates from ORCA-job PC_anion_cpcm_5_moread E -381.704031261878
  C           1.55919346509102     -0.34054770621521     -0.00154290563365
  C           0.12927089352063     -0.41670430871935      0.51605195228903
  C          -0.57831359727241      0.95340120713547      0.52975515925864
  O          -1.23691619640686      1.01466251601516     -0.72300638476769
  C          -1.75335297151339     -0.34661222065330     -0.94292499247360
  O          -2.14754453296379     -0.63046883891542     -2.09816130617843
  O          -0.66797966843417     -1.20056920562773     -0.37081716165640
  H           2.19840986517935      0.20084079331583      0.70753206166687
  H           1.58260349305166      0.18071237781640     -0.96523301980088
  H           1.97247515974939     -1.34492866083564     -0.14160855975228
  H           0.12018325352989     -0.86692299778947      1.52151144834981
  H           0.12589336390363      1.78916724854565      0.60964122423133
  H          -1.30392251743493      1.00796980592762      1.35880247446726
