17
Coordinates from ORCA-job TMP_cation_cpcm_7_default E -761.697425773305
  C           2.24198171825357     -0.96855837447921     -0.00044123224557
  O           1.41220217702633     -0.02076516824877     -0.77225824513408
  P          -0.13571383492764      0.06439174984628     -0.68730145840688
  O          -0.73918482230850      0.62575968919297     -1.97341183306044
  O          -0.65871574428714     -1.30708468293009     -0.17599643678576
  C          -2.09756034566890     -1.60236734917384     -0.01212118738498
  O          -0.63195676826027      1.16280253365080      0.36579827945992
  C           0.02822767189748      2.43495547986620      0.60476765067530
  H           3.26668077414914     -0.67483156626645     -0.21710833900378
  H           2.03471028515474     -1.97911790942875     -0.35457720887546
  H           2.01444772725742     -0.86464533183867      1.06210104767442
  H          -2.13863338819705     -2.66833746245969      0.20010222004408
  H          -2.62008788346142     -1.36346638588329     -0.94015529001436
  H          -2.48024787387791     -1.01689345565152      0.82528880155541
  H           0.37747131689947      2.38903135972433      1.64456690268452
  H          -0.73887353070754      3.20557320251147      0.51006201088293
  H           0.86525251105826      2.58355368156809     -0.07931569206533
