17
 energy: -29.400138347878 gnorm: 0.000897426438 xtb: 6.7.1pre (5071a88)
C            2.27171054078951       -1.16498027963397        0.00376974065886
O            1.42724806488896       -0.52857831331139       -0.92012359052430
P            0.00959813988485        0.10442589011980       -0.62106742189282
O           -0.70410878646862        0.67348724605309       -1.74043753934759
O           -0.74920248437627       -1.07360208986081        0.18909184724437
C           -2.07372507596711       -1.40813256833175       -0.10002167938091
O            0.33120440300690        1.12531684584438        0.59953178144955
C           -0.11913708473819        2.44344071119893        0.57575873417493
H            3.20539638659143       -0.59026958482529        0.07379402582691
H            2.54463159918858       -2.14342724213616       -0.41431772057052
H            1.81252072806894       -1.27855652773162        0.98576478208673
H           -2.13908087205429       -2.50415391087019       -0.14122775978966
H           -2.40996393266850       -0.95148606848188       -1.03415790827363
H           -2.72483599320371       -1.09858178423159        0.73071001733232
H            0.72773034794044        3.09564476339719        0.83293722786605
H           -0.86151106311920        2.59311527289786        1.37445828268701
H           -0.54847492776356        2.70633764990350       -0.39446282954748
