15
Coordinates from ORCA-job EMC_cation_opt E -382.519063076358
  C          -2.30229790149655      0.42182751468729      0.56262568713289
  C          -1.61214219786205     -0.84962093770244      0.85746025411674
  O          -0.13680380594592     -0.69028818538716      1.00776830762606
  C           0.55761308967684     -0.17628249071134      0.05089539233711
  O           0.06404152586219      0.41449232118707     -0.99611716282262
  O           1.82204818913516     -0.27917125589791      0.18331634493214
  C           2.71504674634327      0.34538562241205     -0.81950772852613
  H          -0.90970956827071      0.56666261006729     -0.89396410667528
  H          -3.27764350544564      0.37796414908585      0.08787779676328
  H          -2.02549706960535      1.32716645247714      1.09741525081690
  H          -1.89117394576437     -1.25384831258474      1.83957636016581
  H          -1.77637859275715     -1.62807328817289      0.10372596726321
  H           2.54314095713036     -0.12692263168499     -1.78725720026096
  H           2.51724392543902      1.41746605284828     -0.85093093626874
  H           3.71251215356089      0.13324237937650     -0.44288522660043
