15
Coordinates from ORCA-job EMC_cation_opt E -382.483077517560
  C      -2.278730      0.528346      0.532147
  C      -1.522077     -0.778402      0.645808
  O      -0.115261     -0.548159      0.927953
  C       0.637360     -0.247197     -0.139183
  O       0.269723     -0.188765     -1.290263
  O       1.887693     -0.026909      0.298126
  C       2.826729      0.301600     -0.744984
  H      -1.928114      1.104183     -0.328308
  H      -3.345767      0.323046      0.395548
  H      -2.156202      1.126847      1.439690
  H      -1.865840     -1.369254      1.498966
  H      -1.607741     -1.373487     -0.268767
  H       2.900979     -0.517715     -1.465463
  H       2.518352      1.212746     -1.265229
  H       3.778896      0.453120     -0.236042
15
Coordinates from ORCA-job EMC_cation_opt E -382.486510238743
  C      -2.328207      0.509648      0.529205
  C      -1.524933     -0.783305      0.661159
  O      -0.125071     -0.489266      0.904496
  C       0.635030     -0.200004     -0.161823
  O       0.245786     -0.060818     -1.300975
  O       1.889383     -0.017423      0.267841
  C       2.879920      0.280143     -0.743976
  H      -2.022648      1.050249     -0.374050
  H      -3.386961      0.248538      0.443460
  H      -2.194599      1.145904      1.407964
  H      -1.826218     -1.341660      1.555237
  H      -1.606132     -1.403004     -0.242349
  H       2.876507     -0.503411     -1.517123
  H       2.657028      1.245863     -1.213727
  H       3.831114      0.318547     -0.215339
15
Coordinates from ORCA-job EMC_cation_opt E -382.489189758616
  C      -2.415172      0.468060      0.537270
  C      -1.512662     -0.777101      0.664943
  O      -0.138579     -0.364582      0.866874
  C       0.635110     -0.038976     -0.175680
  O       0.232138      0.147931     -1.307791
  O       1.891318      0.028258      0.229388
  C       2.950043      0.217650     -0.751641
  H      -2.169250      0.975412     -0.407021
  H      -3.445617      0.103682      0.510196
  H      -2.296638      1.144747      1.385618
  H      -1.746707     -1.303136      1.601989
  H      -1.571359     -1.418849     -0.223251
  H       2.840757     -0.518725     -1.563996
  H       2.869193      1.230125     -1.172143
  H       3.877424      0.105505     -0.194757
15
Coordinates from ORCA-job EMC_cation_opt E -382.490633685821
  C      -2.444449      0.443221      0.517450
  C      -1.509333     -0.780355      0.682221
  O      -0.145466     -0.324289      0.845883
  C       0.646812     -0.013599     -0.179980
  O       0.211955      0.330035     -1.269417
  O       1.888134     -0.005348      0.197544
  C       2.974290      0.194388     -0.766385
  H      -2.211687      0.880727     -0.465945
  H      -3.461330      0.040202      0.541406
  H      -2.323319      1.175524      1.316552
  H      -1.717657     -1.236457      1.662001
  H      -1.570670     -1.469874     -0.161734
  H       2.815596     -0.446432     -1.639143
  H       2.969379      1.247765     -1.073162
  H       3.877744     -0.035508     -0.207292
15
Coordinates from ORCA-job EMC_cation_opt E -382.491889305623
  C      -2.451847      0.418947      0.482847
  C      -1.495439     -0.771821      0.708894
  O      -0.142029     -0.288999      0.881605
  C       0.656044      0.026758     -0.137244
  O       0.196205      0.419817     -1.205270
  O       1.898470     -0.039948      0.199295
  C       2.967855      0.185091     -0.788053
  H      -2.196981      0.828800     -0.507221
  H      -3.463254      0.002246      0.494322
  H      -2.362551      1.183082      1.256390
  H      -1.715776     -1.199523      1.698240
  H      -1.527751     -1.497675     -0.105779
  H       2.743747     -0.366916     -1.702775
  H       3.025623      1.258111     -0.991531
  H       3.867683     -0.157971     -0.283721
15
Coordinates from ORCA-job EMC_cation_opt E -382.493563609192
  C      -2.429285      0.370992      0.390899
  C      -1.473391     -0.742783      0.780428
  O      -0.128239     -0.241899      0.986963
  C       0.686687      0.035993     -0.030197
  O       0.161699      0.531704     -1.041928
  O       1.917703     -0.188293      0.195609
  C       2.924078      0.200610     -0.832760
  H      -2.092230      0.721869     -0.601853
  H      -3.444467     -0.029966      0.341395
  H      -2.404165      1.208356      1.093063
  H      -1.746083     -1.111918      1.779774
  H      -1.444658     -1.560038      0.055455
  H       2.572123     -0.109666     -1.813862
  H       3.090887      1.272129     -0.766934
  H       3.809339     -0.357092     -0.536052
15
Coordinates from ORCA-job EMC_cation_opt E -382.493881897199
  C      -2.436264      0.390693      0.423508
  C      -1.480813     -0.741629      0.756359
  O      -0.131152     -0.247392      0.965710
  C       0.684509      0.015893     -0.056143
  O       0.181134      0.437585     -1.107763
  O       1.925266     -0.158057      0.212383
  C       2.932454      0.199956     -0.818942
  H      -2.122669      0.785970     -0.560483
  H      -3.454155     -0.003472      0.370983
  H      -2.399212      1.198610      1.159032
  H      -1.737258     -1.154591      1.743440
  H      -1.459691     -1.529451     -0.001786
  H       2.622871     -0.205355     -1.782889
  H       3.030764      1.285143     -0.841248
  H       3.844214     -0.273902     -0.462162
15
Coordinates from ORCA-job EMC_cation_opt E -382.494032250851
  C      -2.434807      0.391730      0.426234
  C      -1.486653     -0.744907      0.755242
  O      -0.133678     -0.249879      0.957758
  C       0.684611      0.007747     -0.061327
  O       0.184986      0.448721     -1.108351
  O       1.922155     -0.174719      0.204676
  C       2.934852      0.199415     -0.818170
  H      -2.127526      0.779952     -0.564822
  H      -3.456067      0.005573      0.382429
  H      -2.386978      1.207249      1.152989
  H      -1.734798     -1.155437      1.747384
  H      -1.467813     -1.536725      0.001812
  H       2.639257     -0.207529     -1.786438
  H       3.011132      1.287706     -0.835085
  H       3.851328     -0.258897     -0.454331
15
Coordinates from ORCA-job EMC_cation_opt E -382.494150706725
  C      -2.425707      0.395702      0.427717
  C      -1.494596     -0.747540      0.753798
  O      -0.134181     -0.258045      0.957113
  C       0.685492     -0.008598     -0.059091
  O       0.185773      0.448776     -1.101627
  O       1.921396     -0.205970      0.197381
  C       2.931538      0.201701     -0.818587
  H      -2.121753      0.783039     -0.566134
  H      -3.453965      0.028373      0.383774
  H      -2.365415      1.217035      1.147270
  H      -1.736195     -1.164445      1.745903
  H      -1.474649     -1.542660      0.003969
  H       2.660483     -0.221048     -1.787531
  H       2.960280      1.292419     -0.839158
  H       3.861499     -0.218739     -0.444800
15
Coordinates from ORCA-job EMC_cation_opt E -382.494206563012
  C      -2.420548      0.400814      0.431775
  C      -1.500529     -0.751042      0.749837
  O      -0.133185     -0.270392      0.955753
  C       0.684967     -0.016059     -0.057549
  O       0.185874      0.449680     -1.097630
  O       1.921494     -0.216945      0.193486
  C       2.930805      0.202375     -0.819198
  H      -2.118868      0.792908     -0.560660
  H      -3.452807      0.044230      0.387265
  H      -2.351726      1.218977      1.154228
  H      -1.739517     -1.176297      1.738491
  H      -1.482783     -1.541595     -0.004806
  H       2.684793     -0.250910     -1.780760
  H       2.923046      1.292452     -0.865934
  H       3.868984     -0.178197     -0.424300
15
Coordinates from ORCA-job EMC_cation_opt E -382.494297452428
  C      -2.407588      0.412830      0.439268
  C      -1.512571     -0.759050      0.742333
  O      -0.129014     -0.305463      0.955226
  C       0.683065     -0.031762     -0.051616
  O       0.183841      0.451150     -1.086165
  O       1.922410     -0.236128      0.185473
  C       2.927356      0.205806     -0.821894
  H      -2.104373      0.816711     -0.547048
  H      -3.447393      0.078364      0.389856
  H      -2.323276      1.219100      1.173491
  H      -1.752434     -1.200419      1.721766
  H      -1.502921     -1.537269     -0.025166
  H       2.740061     -0.317356     -1.760420
  H       2.845724      1.287574     -0.934407
  H       3.877114     -0.084088     -0.380698
15
Coordinates from ORCA-job EMC_cation_opt E -382.494351319983
  C      -2.393928      0.421780      0.441278
  C      -1.520319     -0.766076      0.740429
  O      -0.125056     -0.339372      0.956615
  C       0.679794     -0.045916     -0.046123
  O       0.178773      0.449031     -1.076509
  O       1.922285     -0.248904      0.179142
  C       2.921808      0.211891     -0.824367
  H      -2.082144      0.829641     -0.540589
  H      -3.438934      0.104583      0.385565
  H      -2.299824      1.219391      1.183906
  H      -1.767277     -1.211469      1.714991
  H      -1.521098     -1.537668     -0.033880
  H       2.774542     -0.351642     -1.746230
  H       2.795867      1.284341     -0.976690
  H       3.875511     -0.019610     -0.357540
15
Coordinates from ORCA-job EMC_cation_opt E -382.494471639957
  C      -2.359442      0.438630      0.440458
  C      -1.534508     -0.781533      0.742345
  O      -0.117724     -0.416434      0.957862
  C       0.669904     -0.080875     -0.037000
  O       0.164449      0.434542     -1.060722
  O       1.919394     -0.274490      0.165587
  C       2.906005      0.230109     -0.827710
  H      -2.024306      0.842579     -0.536434
  H      -3.415008      0.161045      0.372092
  H      -2.243540      1.224867      1.192467
  H      -1.800294     -1.221219      1.712672
  H      -1.563679     -1.547276     -0.037503
  H       2.830326     -0.385707     -1.724252
  H       2.707888      1.282327     -1.034172
  H       3.860534      0.093436     -0.325691
15
Coordinates from ORCA-job EMC_cation_opt E -382.494698648557
  C      -2.309899      0.457847      0.435510
  C      -1.550056     -0.800979      0.749679
  O      -0.109783     -0.524121      0.952528
  C       0.653286     -0.129535     -0.028901
  O       0.143035      0.408475     -1.047152
  O       1.912146     -0.303117      0.146848
  C       2.881259      0.258725     -0.829484
  H      -1.942256      0.844225     -0.539308
  H      -3.376930      0.232644      0.354515
  H      -2.163775      1.233107      1.194178
  H      -1.841326     -1.218489      1.720108
  H      -1.626000     -1.563194     -0.031027
  H       2.888675     -0.397927     -1.699663
  H       2.614799      1.284774     -1.084639
  H       3.826824      0.217564     -0.293192
15
Coordinates from ORCA-job EMC_cation_opt E -382.494888902704
  C      -2.270566      0.464920      0.421144
  C      -1.553037     -0.813515      0.763728
  O      -0.105293     -0.599967      0.951200
  C       0.637072     -0.161179     -0.020959
  O       0.125335      0.388762     -1.040084
  O       1.902933     -0.316709      0.136848
  C       2.857196      0.283572     -0.827389
  H      -1.877391      0.821477     -0.559167
  H      -3.343053      0.272137      0.332298
  H      -2.105002      1.242426      1.173948
  H      -1.867287     -1.195744      1.740637
  H      -1.667346     -1.581297     -0.007562
  H       2.880110     -0.364816     -1.703874
  H       2.580899      1.310953     -1.067325
  H       3.805430      0.248980     -0.293446
15
Coordinates from ORCA-job EMC_cation_opt E -382.495020079919
  C      -2.214976      0.477129      0.412411
  C      -1.566624     -0.830802      0.773464
  O      -0.102737     -0.704750      0.932520
  C       0.617491     -0.208072     -0.017105
  O       0.106694      0.383513     -1.022078
  O       1.890181     -0.353983      0.111258
  C       2.826377      0.309983     -0.825576
  H      -1.803655      0.802696     -0.574678
  H      -3.296164      0.341736      0.321081
  H      -2.008621      1.251938      1.158397
  H      -1.891486     -1.181850      1.756615
  H      -1.734443     -1.599019      0.011718
  H       2.934007     -0.354246     -1.683860
  H       2.490022      1.311192     -1.097673
  H       3.753933      0.354534     -0.256494
15
Coordinates from ORCA-job EMC_cation_opt E -382.495052509013
  C      -2.134963      0.448264      0.334448
  C      -1.545123     -0.845718      0.826275
  O      -0.100198     -0.769713      0.983954
  C       0.587808     -0.222952      0.037637
  O       0.078429      0.432908     -0.940827
  O       1.865454     -0.382198      0.108334
  C       2.759395      0.347930     -0.815844
  H      -1.666999      0.665660     -0.673012
  H      -3.214681      0.348099      0.192077
  H      -1.915962      1.281132      1.011075
  H      -1.921790     -1.087367      1.827395
  H      -1.751775     -1.666405      0.128966
  H       2.680322     -0.134139     -1.793683
  H       2.528949      1.415417     -0.824184
  H       3.751135      0.169081     -0.402612
15
Coordinates from ORCA-job EMC_cation_opt E -382.495963785939
  C      -2.144271      0.457100      0.373887
  C      -1.553738     -0.844773      0.810278
  O      -0.107907     -0.705063      1.002411
  C       0.596389     -0.215799      0.028294
  O       0.106242      0.419720     -0.965682
  O       1.868183     -0.388519      0.118616
  C       2.766083      0.320388     -0.825094
  H      -1.670004      0.739187     -0.622406
  H      -3.218011      0.361969      0.174796
  H      -1.944725      1.284412      1.061426
  H      -1.923195     -1.159527      1.798891
  H      -1.710097     -1.661475      0.096256
  H       2.749824     -0.206239     -1.783677
  H       2.437378      1.359668     -0.901475
  H       3.747850      0.238952     -0.366523
15
Coordinates from ORCA-job EMC_cation_opt E -382.496495046951
  C      -2.146300      0.462815      0.382933
  C      -1.558474     -0.848812      0.809529
  O      -0.104015     -0.737457      0.979348
  C       0.590542     -0.224661      0.012215
  O       0.087101      0.375760     -0.991230
  O       1.866955     -0.359201      0.125928
  C       2.774142      0.330401     -0.822266
  H      -1.656077      0.749909     -0.601703
  H      -3.218245      0.372659      0.172554
  H      -1.948568      1.279060      1.083715
  H      -1.916479     -1.152227      1.800829
  H      -1.742215     -1.658694      0.095693
  H       2.763063     -0.215496     -1.766436
  H       2.459354      1.368327     -0.935714
  H       3.749217      0.257618     -0.345394
15
Coordinates from ORCA-job EMC_cation_opt E -382.496828408063
  C      -2.131125      0.450930      0.367159
  C      -1.560769     -0.855160      0.824442
  O      -0.100964     -0.766947      0.979498
  C       0.581646     -0.221323      0.022273
  O       0.064873      0.405832     -0.955825
  O       1.858659     -0.364020      0.118285
  C       2.764022      0.340224     -0.822783
  H      -1.608489      0.708998     -0.614783
  H      -3.196442      0.377163      0.121596
  H      -1.926570      1.285847      1.043899
  H      -1.915183     -1.126957      1.824395
  H      -1.764543     -1.682591      0.137297
  H       2.708227     -0.156241     -1.790844
  H       2.480765      1.390945     -0.882891
  H       3.745892      0.213303     -0.371719
15
Coordinates from ORCA-job EMC_cation_opt E -382.497258373388
  C      -2.106043      0.429394      0.345376
  C      -1.556919     -0.862710      0.851310
  O      -0.101612     -0.792715      0.992775
  C       0.563263     -0.213750      0.036907
  O       0.042008      0.419123     -0.932856
  O       1.841872     -0.344795      0.132641
  C       2.736549      0.355758     -0.820624
  H      -1.496772      0.653707     -0.614672
  H      -3.144546      0.368030      0.003140
  H      -1.914815      1.293059      0.989278
  H      -1.917750     -1.086760      1.862369
  H      -1.780827     -1.716882      0.204199
  H       2.562764     -0.034114     -1.823073
  H       2.541676      1.427293     -0.766932
  H       3.731153      0.105364     -0.459841
15
Coordinates from ORCA-job EMC_cation_opt E -382.498095635696
  C      -2.079652      0.400848      0.323985
  C      -1.557497     -0.870505      0.880875
  O      -0.106837     -0.809632      1.016816
  C       0.541561     -0.198906      0.061524
  O       0.004567      0.447284     -0.890696
  O       1.818950     -0.324494      0.149669
  C       2.695644      0.367988     -0.828113
  H      -1.309958      0.607220     -0.564802
  H      -3.048537      0.351576     -0.181018
  H      -1.926706      1.294249      0.937384
  H      -1.928350     -1.051509      1.900210
  H      -1.789607     -1.754783      0.278467
  H       2.398527      0.100619     -1.842089
  H       2.602533      1.442819     -0.664649
  H       3.685360     -0.002773     -0.577566
15
Coordinates from ORCA-job EMC_cation_opt E -382.497172592378
  C      -2.071266      0.372059      0.313998
  C      -1.568890     -0.877546      0.900866
  O      -0.119202     -0.813281      1.034252
  C       0.522399     -0.179308      0.079987
  O      -0.033314      0.482242     -0.854433
  O       1.794322     -0.306111      0.164121
  C       2.654443      0.372742     -0.841868
  H      -1.104360      0.575209     -0.459552
  H      -2.926560      0.345295     -0.362483
  H      -1.943913      1.292543      0.893558
  H      -1.942429     -1.038831      1.928090
  H      -1.792203     -1.788402      0.335675
  H       2.272313      0.193144     -1.848042
  H       2.629793      1.441375     -0.615179
  H       3.628868     -0.071130     -0.668992
15
Coordinates from ORCA-job EMC_cation_opt E -382.498651575917
  C      -2.158402      0.371579      0.358597
  C      -1.575333     -0.869668      0.877036
  O      -0.122022     -0.749160      1.009746
  C       0.561032     -0.150924      0.056210
  O       0.015650      0.510721     -0.886588
  O       1.822571     -0.298328      0.169942
  C       2.705027      0.341610     -0.844447
  H      -1.201054      0.636621     -0.448982
  H      -3.039565      0.338463     -0.278652
  H      -2.030914      1.289627      0.943010
  H      -1.914332     -1.097162      1.909282
  H      -1.748096     -1.771072      0.279676
  H       2.362318      0.082442     -1.850223
  H       2.639498      1.423231     -0.689076
  H       3.683621     -0.057978     -0.605534
15
Coordinates from ORCA-job EMC_cation_opt E -382.499679563593
  C      -2.127209      0.377375      0.315558
  C      -1.559352     -0.874048      0.890470
  O      -0.104728     -0.814240      1.023660
  C       0.569146     -0.181710      0.102225
  O       0.016999      0.589513     -0.762216
  O       1.833895     -0.359608      0.147698
  C       2.683871      0.358341     -0.836049
  H      -1.244783      0.557964     -0.623666
  H      -3.072007      0.323216     -0.226065
  H      -1.947535      1.318652      0.843529
  H      -1.904883     -1.041167      1.927083
  H      -1.775139     -1.777054      0.308893
  H       2.316719      0.157480     -1.845131
  H       2.642978      1.423891     -0.597333
  H       3.672028     -0.058604     -0.668657
15
Coordinates from ORCA-job EMC_cation_opt E -382.504007976295
  C      -2.089612      0.400819      0.335347
  C      -1.558013     -0.878928      0.885399
  O      -0.106641     -0.832605      1.050788
  C       0.549373     -0.226832      0.105608
  O      -0.028032      0.449425     -0.823039
  O       1.823562     -0.336443      0.174894
  C       2.644884      0.370470     -0.838400
  H      -1.105876      0.630708     -0.550371
  H      -2.994599      0.380531     -0.271641
  H      -1.930603      1.320351      0.905043
  H      -1.936063     -1.075197      1.902243
  H      -1.773521     -1.757986      0.268560
  H       2.316814      0.076811     -1.837502
  H       2.530845      1.444187     -0.674013
  H       3.657482      0.034689     -0.632916
15
Coordinates from ORCA-job EMC_cation_opt E -382.506366835965
  C      -2.105759      0.394364      0.362338
  C      -1.576639     -0.885714      0.891943
  O      -0.121442     -0.814429      1.027567
  C       0.532595     -0.202214      0.079065
  O      -0.015937      0.464673     -0.877353
  O       1.805023     -0.312939      0.167190
  C       2.652705      0.371560     -0.837284
  H      -1.048935      0.579177     -0.519548
  H      -3.003887      0.383689     -0.253447
  H      -1.924583      1.315034      0.922153
  H      -1.943189     -1.086630      1.909210
  H      -1.796243     -1.755853      0.264867
  H       2.345081      0.063600     -1.837966
  H       2.541625      1.448671     -0.696538
  H       3.659584      0.037011     -0.602197
15
Coordinates from ORCA-job EMC_cation_opt E -382.509814987991
  C      -2.137792      0.393538      0.381917
  C      -1.580829     -0.881435      0.884228
  O      -0.120083     -0.792017      1.035444
  C       0.547006     -0.195568      0.086501
  O      -0.016839      0.477472     -0.859506
  O       1.813919     -0.321594      0.168849
  C       2.656091      0.362746     -0.841051
  H      -1.014720      0.588383     -0.537295
  H      -3.036147      0.383260     -0.230929
  H      -1.944512      1.320393      0.926213
  H      -1.940316     -1.111908      1.898396
  H      -1.779893     -1.743464      0.239685
  H       2.361286      0.029369     -1.837629
  H       2.525857      1.440049     -0.720913
  H       3.666973      0.050776     -0.593912
15
Coordinates from ORCA-job EMC_cation_opt E -382.508386553367
  C      -2.225073      0.388999      0.410111
  C      -1.578097     -0.865917      0.879794
  O      -0.100598     -0.772980      1.004114
  C       0.583132     -0.182600      0.069920
  O       0.031075      0.509780     -0.866717
  O       1.845255     -0.333533      0.153370
  C       2.709923      0.347626     -0.835576
  H      -1.107089      0.639550     -0.639578
  H      -3.162603      0.310207     -0.136137
  H      -2.059543      1.320635      0.952738
  H      -1.892029     -1.098875      1.903548
  H      -1.795053     -1.721469      0.233320
  H       2.422877      0.026075     -1.835797
  H       2.617276      1.426159     -0.711160
  H       3.710547      0.006341     -0.581952
15
Coordinates from ORCA-job EMC_cation_opt E -382.515132200573
  C      -2.204006      0.394584      0.413941
  C      -1.581114     -0.871353      0.884092
  O      -0.108319     -0.784232      1.022929
  C       0.562378     -0.193522      0.084386
  O       0.009286      0.493790     -0.862885
  O       1.828237     -0.329565      0.157656
  C       2.680045      0.356903     -0.837859
  H      -0.990751      0.605211     -0.631914
  H      -3.125730      0.335353     -0.160460
  H      -2.018442      1.328344      0.944483
  H      -1.911519     -1.110183      1.901626
  H      -1.794536     -1.718365      0.225030
  H       2.394845      0.025890     -1.836173
  H       2.571975      1.434860     -0.715928
  H       3.687651      0.032285     -0.588925
15
Coordinates from ORCA-job EMC_cation_opt E -382.516123154856
  C      -2.219072      0.394941      0.425966
  C      -1.585951     -0.869299      0.884828
  O      -0.110525     -0.779699      1.017754
  C       0.561969     -0.191752      0.080409
  O       0.017993      0.497428     -0.871577
  O       1.827644     -0.329395      0.155312
  C       2.684264      0.355333     -0.836902
  H      -0.971087      0.604869     -0.657121
  H      -3.143578      0.329049     -0.142204
  H      -2.027671      1.329873      0.951776
  H      -1.906176     -1.115685      1.904415
  H      -1.797365     -1.714161      0.222594
  H       2.405358      0.022669     -1.836653
  H       2.573623      1.433574     -0.717800
  H       3.690575      0.032254     -0.580797
15
Coordinates from ORCA-job EMC_cation_opt E -382.517314809330
  C      -2.245393      0.394867      0.446876
  C      -1.595238     -0.865031      0.885476
  O      -0.115903     -0.767390      1.004288
  C       0.562044     -0.185964      0.068474
  O       0.038318      0.501610     -0.894969
  O       1.827682     -0.326935      0.152032
  C       2.697756      0.350894     -0.833784
  H      -0.963718      0.615237     -0.709753
  H      -3.179211      0.316149     -0.102877
  H      -2.045780      1.328247      0.971940
  H      -1.893292     -1.125567      1.909687
  H      -1.800505     -1.709717      0.221204
  H       2.431051      0.015759     -1.836617
  H       2.582859      1.429961     -0.721606
  H       3.699330      0.027880     -0.560371
15
Coordinates from ORCA-job EMC_cation_opt E -382.518338921809
  C      -2.272318      0.396089      0.476157
  C      -1.605502     -0.859201      0.883451
  O      -0.121831     -0.749970      0.999509
  C       0.562811     -0.185197      0.062211
  O       0.050457      0.486627     -0.921189
  O       1.827689     -0.323487      0.155085
  C       2.704359      0.347995     -0.831066
  H      -0.924867      0.632397     -0.765333
  H      -3.212945      0.315184     -0.060668
  H      -2.056786      1.326746      0.997953
  H      -1.885368     -1.149262      1.904869
  H      -1.798183     -1.698291      0.207687
  H       2.455408     -0.007752     -1.831630
  H       2.572310      1.427097     -0.740274
  H       3.704767      0.041024     -0.536761
15
Coordinates from ORCA-job EMC_cation_opt E -382.518739311376
  C      -2.287269      0.404727      0.517721
  C      -1.616521     -0.857771      0.873198
  O      -0.132371     -0.718568      0.997797
  C       0.560472     -0.179647      0.053020
  O       0.063669      0.470669     -0.955928
  O       1.824061     -0.316357      0.161743
  C       2.711501      0.343678     -0.823465
  H      -0.924932      0.615336     -0.846438
  H      -3.255061      0.339941      0.030023
  H      -2.026535      1.327879      1.030420
  H      -1.884861     -1.199036      1.882323
  H      -1.788520     -1.673176      0.163228
  H       2.511293     -0.067200     -1.814248
  H       2.533646      1.419560     -0.787904
  H       3.711427      0.089963     -0.481490
15
Coordinates from ORCA-job EMC_cation_opt E -382.518891498299
  C      -2.313741      0.398289      0.526836
  C      -1.615238     -0.853099      0.877000
  O      -0.133077     -0.699012      0.995518
  C       0.560108     -0.165926      0.047802
  O       0.071168      0.470824     -0.973470
  O       1.823664     -0.296810      0.168041
  C       2.720439      0.342670     -0.822009
  H      -0.902301      0.606546     -0.865830
  H      -3.280595      0.317839      0.039810
  H      -2.058784      1.325306      1.034709
  H      -1.876514     -1.199912      1.885592
  H      -1.786366     -1.669998      0.167985
  H       2.489056     -0.044113     -1.814962
  H       2.587964      1.423756     -0.768190
  H       3.714215      0.043640     -0.498833
15
Coordinates from ORCA-job EMC_cation_opt E -382.518971142092
  C      -2.304359      0.410340      0.544002
  C      -1.618584     -0.855031      0.868574
  O      -0.134807     -0.710740      0.992006
  C       0.557928     -0.180310      0.044810
  O       0.070051      0.445134     -0.985843
  O       1.822599     -0.299092      0.169093
  C       2.716487      0.345336     -0.819659
  H      -0.903679      0.606337     -0.875838
  H      -3.280917      0.353007      0.073091
  H      -2.026286      1.328893      1.055776
  H      -1.882666     -1.225411      1.868010
  H      -1.794910     -1.654315      0.140486
  H       2.536474     -0.097383     -1.799974
  H       2.528596      1.419727     -0.819351
  H       3.714073      0.113508     -0.455185
15
Coordinates from ORCA-job EMC_cation_opt E -382.518997001721
  C      -2.309070      0.410055      0.549688
  C      -1.614090     -0.853701      0.863749
  O      -0.136778     -0.690689      1.001744
  C       0.558661     -0.170984      0.048592
  O       0.067775      0.438662     -0.988886
  O       1.822690     -0.286196      0.178082
  C       2.718470      0.342885     -0.818874
  H      -0.911660      0.593124     -0.885770
  H      -3.290511      0.351949      0.089572
  H      -2.027967      1.329222      1.058544
  H      -1.884425     -1.238386      1.856103
  H      -1.779945     -1.644877      0.124197
  H       2.528612     -0.102416     -1.796169
  H       2.542804      1.419356     -0.822127
  H       3.715433      0.101997     -0.458446
15
Coordinates from ORCA-job EMC_cation_opt E -382.519032877933
  C      -2.305133      0.413777      0.552494
  C      -1.613533     -0.853084      0.861402
  O      -0.136621     -0.696138      1.001815
  C       0.558290     -0.174124      0.050024
  O       0.065542      0.437088     -0.985878
  O       1.822393     -0.289460      0.176087
  C       2.716689      0.343466     -0.819799
  H      -0.910413      0.586475     -0.881502
  H      -3.287343      0.362220      0.093063
  H      -2.020435      1.330536      1.063661
  H      -1.887711     -1.244466      1.849989
  H      -1.782254     -1.639416      0.117076
  H       2.542090     -0.116669     -1.793052
  H       2.524300      1.416964     -0.837608
  H       3.714139      0.122831     -0.447774
15
Coordinates from ORCA-job EMC_cation_opt E -382.519045621572
  C      -2.303620      0.416901      0.555958
  C      -1.611401     -0.851816      0.859205
  O      -0.136702     -0.695516      1.004220
  C       0.557530     -0.175927      0.050309
  O       0.064391      0.427215     -0.989463
  O       1.821883     -0.285376      0.178937
  C       2.715559      0.344604     -0.819172
  H      -0.909639      0.579717     -0.884477
  H      -3.286850      0.367342      0.098503
  H      -2.017092      1.331757      1.069378
  H      -1.889948     -1.249564      1.843989
  H      -1.780633     -1.634031      0.110288
  H       2.543398     -0.121379     -1.789901
  H       2.520237      1.417283     -0.843684
  H       3.712887      0.128791     -0.444089
15
Coordinates from ORCA-job EMC_cation_opt E -382.519051085105
  C      -2.302042      0.419604      0.559317
  C      -1.611053     -0.850841      0.857379
  O      -0.137333     -0.694217      1.005395
  C       0.556893     -0.176752      0.050031
  O       0.063807      0.420894     -0.992609
  O       1.821218     -0.283488      0.180302
  C       2.715188      0.345339     -0.818550
  H      -0.910371      0.572841     -0.888874
  H      -3.286304      0.371993      0.103841
  H      -2.013157      1.332310      1.075070
  H      -1.891803     -1.253779      1.839585
  H      -1.779380     -1.630182      0.105096
  H       2.546818     -0.125627     -1.787536
  H       2.515424      1.417052     -0.848954
  H       3.712095      0.134852     -0.439496
15
Coordinates from ORCA-job EMC_cation_opt E -382.519055023761
  C      -2.301163      0.421133      0.560440
  C      -1.611034     -0.849992      0.856850
  O      -0.137601     -0.692900      1.006334
  C       0.556594     -0.176999      0.049762
  O       0.063473      0.416401     -0.995038
  O       1.820934     -0.281633      0.181649
  C       2.715159      0.346067     -0.818127
  H      -0.910371      0.568435     -0.892743
  H      -3.284743      0.373066      0.103507
  H      -2.013362      1.332052      1.079771
  H      -1.892733     -1.254027      1.838506
  H      -1.778166     -1.629279      0.104234
  H       2.544734     -0.123818     -1.787318
  H       2.516426      1.418013     -0.847984
  H       3.711852      0.133482     -0.439844
15
Coordinates from ORCA-job EMC_cation_opt E -382.519057571441
  C      -2.300469      0.422350      0.561549
  C      -1.611699     -0.849653      0.856428
  O      -0.137749     -0.692511      1.006493
  C       0.556614     -0.177501      0.049624
  O       0.063608      0.413658     -0.996777
  O       1.820950     -0.280871      0.182465
  C       2.715050      0.346516     -0.817940
  H      -0.910307      0.565891     -0.895600
  H      -3.283215      0.375125      0.102680
  H      -2.013590      1.331300      1.084725
  H      -1.893234     -1.254362      1.837923
  H      -1.777947     -1.628633      0.103364
  H       2.545083     -0.124510     -1.786728
  H       2.515098      1.418238     -0.848906
  H       3.711807      0.134965     -0.439300
15
Coordinates from ORCA-job EMC_cation_opt E -382.519059848312
  C      -2.300579      0.422612      0.561520
  C      -1.612217     -0.849556      0.856576
  O      -0.137549     -0.691842      1.006783
  C       0.556975     -0.177272      0.049925
  O       0.063798      0.413018     -0.997246
  O       1.821327     -0.279918      0.183291
  C       2.715051      0.346519     -0.818212
  H      -0.909965      0.565098     -0.896353
  H      -3.281270      0.375817      0.098198
  H      -2.016969      1.329858      1.089387
  H      -1.892949     -1.253367      1.838643
  H      -1.777434     -1.628972      0.103894
  H       2.543270     -0.123949     -1.786972
  H       2.516401      1.418516     -0.848220
  H       3.712110      0.133437     -0.441215
15
Coordinates from ORCA-job EMC_cation_opt E -382.519061442065
  C      -2.301076      0.422590      0.561893
  C      -1.612496     -0.849588      0.856688
  O      -0.137277     -0.691226      1.007116
  C       0.557363     -0.176978      0.050395
  O       0.064037      0.413049     -0.997193
  O       1.821743     -0.279241      0.183787
  C       2.715007      0.346220     -0.818655
  H      -0.909795      0.565095     -0.896088
  H      -3.279813      0.377098      0.094305
  H      -2.020250      1.328499      1.093555
  H      -1.892410     -1.253382      1.838886
  H      -1.777022     -1.628649      0.103597
  H       2.543031     -0.125308     -1.786843
  H       2.516586      1.418228     -0.849319
  H       3.712372      0.133593     -0.442125
15
Coordinates from ORCA-job EMC_cation_opt E -382.519062477044
  C      -2.301848      0.422107      0.562052
  C      -1.612369     -0.849625      0.857110
  O      -0.136954     -0.690601      1.007525
  C       0.557619     -0.176476      0.050806
  O       0.064105      0.413984     -0.996512
  O       1.822033     -0.278964      0.183743
  C       2.715035      0.345723     -0.819201
  H      -0.909645      0.565982     -0.894741
  H      -3.278536      0.377506      0.090124
  H      -2.023787      1.327500      1.096085
  H      -1.891645     -1.253351      1.839413
  H      -1.776552     -1.628490      0.103803
  H       2.542563     -0.126036     -1.787141
  H       2.517434      1.417863     -0.849941
  H       3.712548      0.132877     -0.443125
15
Coordinates from ORCA-job EMC_cation_opt E -382.519063076358
  C      -2.302298      0.421828      0.562626
  C      -1.612142     -0.849621      0.857460
  O      -0.136804     -0.690288      1.007768
  C       0.557613     -0.176282      0.050895
  O       0.064042      0.414492     -0.996117
  O       1.822048     -0.279171      0.183316
  C       2.715047      0.345386     -0.819508
  H      -0.909710      0.566663     -0.893964
  H      -3.277644      0.377964      0.087878
  H      -2.025497      1.327166      1.097415
  H      -1.891174     -1.253848      1.839576
  H      -1.776379     -1.628073      0.103726
  H       2.543141     -0.126923     -1.787257
  H       2.517244      1.417466     -0.850931
  H       3.712512      0.133242     -0.442885
