13
Coordinates from ORCA-job AN_m1_shell2_cation_opt E -272.840638091440
  C          -0.51919748113628     -0.74473111042748     -0.68306871840589
  C           0.70863228295489     -0.24155954800317     -0.12160672081068
  N           1.69212672604988      0.16026674458455      0.32475005700073
  H          -0.29495082494957     -1.40480745191618     -1.52634767517394
  H          -1.06996011826395     -1.30564590111482      0.07790655140693
  H          -1.13424447516746      0.09024696390771     -1.03182437750471
  Li          3.33369480691343      0.85466485959941      1.10499818545612
  C           7.02496875985866      2.58865318087505      3.09290881439410
  C           5.85931951549404      2.03339607168426      2.45359904533347
  N           4.92714292541050      1.58917781481379      1.94217979028455
  H           7.07177992466563      2.24953687320381      4.13207543098141
  H           7.92578568879753      2.26102972514737      2.56536014209692
  H           6.97144637673726      3.68124812953552      3.07171661539797
