13
AN_m1_shell2_dication_sp
C     -0.5191970000    -0.7447310000    -0.6830690000
C      0.7086320000    -0.2415600000    -0.1216070000
N      1.6921270000     0.1602670000     0.3247500000
H     -0.2949510000    -1.4048070000    -1.5263480000
H     -1.0699600000    -1.3056460000     0.0779070000
H     -1.1342440000     0.0902470000    -1.0318240000
Li     3.3336950000     0.8546650000     1.1049980000
C      7.0249690000     2.5886530000     3.0929090000
C      5.8593200000     2.0333960000     2.4535990000
N      4.9271430000     1.5891780000     1.9421800000
H      7.0717800000     2.2495370000     4.1320750000
H      7.9257860000     2.2610300000     2.5653600000
H      6.9714460000     3.6812480000     3.0717170000
