13
Coordinates from ORCA-job AN_m1_shell2_cation_opt E -272.837447013714
  C      -0.471730     -0.022842     -0.026400
  C       0.944640      0.014723      0.002874
  N       2.090198      0.044996      0.026839
  H      -0.807413     -0.647383     -0.854678
  H      -0.848096     -0.435980      0.909768
  H      -0.863868      0.986167     -0.156259
  Li      3.996395      0.087576      0.041456
  C       6.677986      2.213331      2.916141
  C       5.825969      1.540736      2.005124
  N       5.136139      0.996944      1.268682
  H       6.506988      1.837692      3.925263
  H       7.719462      2.043491      2.641947
  H       6.470728      3.283431      2.892035
13
Coordinates from ORCA-job AN_m1_shell2_cation_opt E -272.838494861004
  C      -0.502107     -0.032769     -0.039404
  C       0.929842      0.009012     -0.005213
  N       2.081275      0.042391      0.023054
  H      -0.836495     -0.660202     -0.871337
  H      -0.884418     -0.448373      0.898049
  H      -0.900557      0.977961     -0.171230
  Li      3.992639      0.091804      0.047345
  C       6.708918      2.222588      2.928367
  C       5.842387      1.544828      2.010167
  N       5.144776      0.999964      1.272509
  H       6.541740      1.847715      3.942891
  H       7.753427      2.050185      2.651109
  H       6.505970      3.297777      2.906487
13
Coordinates from ORCA-job AN_m1_shell2_cation_opt E -272.838734291737
  C      -0.525828     -0.042313     -0.051966
  C       0.913724      0.005230     -0.010678
  N       2.065713      0.042976      0.023642
  H      -0.853062     -0.671432     -0.885950
  H      -0.911018     -0.459694      0.883910
  H      -0.927521      0.967208     -0.186033
  Li      3.983466      0.102202      0.061642
  C       6.735545      2.228805      2.936531
  C       5.856861      1.550699      2.017678
  N       5.152699      1.008073      1.283281
  H       6.571880      1.854453      3.952189
  H       7.778031      2.051514      2.653342
  H       6.536908      3.305161      2.915204
13
Coordinates from ORCA-job AN_m1_shell2_cation_opt E -272.838936678994
  C      -0.557284     -0.056868     -0.071169
  C       0.887058      0.000654     -0.017247
  N       2.038370      0.046151      0.027641
  H      -0.870449     -0.688616     -0.908283
  H      -0.945814     -0.477052      0.861759
  H      -0.962815      0.950309     -0.209103
  Li      3.965516      0.122708      0.089551
  C       6.773464      2.235968      2.945888
  C       5.878354      1.561344      2.031595
  N       5.163638      1.023535      1.303940
  H       6.614984      1.861903      3.962189
  H       7.811051      2.049611      2.651557
  H       6.581324      3.313236      2.924476
13
Coordinates from ORCA-job AN_m1_shell2_cation_opt E -272.839177967568
  C      -0.604513     -0.081414     -0.103567
  C       0.841174     -0.005729     -0.026293
  N       1.990485      0.054111      0.037794
  H      -0.892201     -0.717713     -0.945804
  H      -0.999187     -0.506413      0.824021
  H      -1.016891      0.921435     -0.248701
  Li      3.930887      0.162613      0.143237
  C       6.834066      2.245166      2.957885
  C       5.913084      1.580473      2.057000
  N       5.179487      1.052037      1.342072
  H       6.685090      1.871729      3.975325
  H       7.862271      2.042624      2.643584
  H       6.653647      3.323962      2.936240
13
Coordinates from ORCA-job AN_m1_shell2_cation_opt E -272.839391624636
  C      -0.652568     -0.110065     -0.141275
  C       0.788544     -0.011533     -0.034427
  N       1.934703      0.066698      0.053636
  H      -0.909889     -0.751775     -0.988790
  H      -1.056582     -0.540600      0.779310
  H      -1.074912      0.886806     -0.295973
  Li      3.885381      0.215746      0.213379
  C       6.900654      2.252359      2.967381
  C       5.950591      1.603237      2.087721
  N       5.193524      1.087292      1.389069
  H       6.764821      1.880778      3.986951
  H       7.917028      2.030590      2.629581
  H       6.736102      3.333348      2.946230
13
Coordinates from ORCA-job AN_m1_shell2_cation_opt E -272.839552893841
  C      -0.689631     -0.136410     -0.175857
  C       0.742704     -0.015051     -0.039063
  N       1.885109      0.081990      0.072911
  H      -0.919007     -0.783047     -1.027582
  H      -1.105834     -0.572212      0.736760
  H      -1.124239      0.853497     -0.340767
  Li      3.838181      0.271359      0.285798
  C       6.957706      2.255418      2.971531
  C       5.980887      1.623928      2.116039
  N       5.200526      1.121128      1.433999
  H       6.837258      1.887226      3.994231
  H       7.962684      2.016059      2.612451
  H       6.811054      3.338998      2.952341
13
Coordinates from ORCA-job AN_m1_shell2_cation_opt E -272.839687327436
  C      -0.716436     -0.159760     -0.206683
  C       0.705798     -0.016232     -0.039838
  N       1.843911      0.099395      0.095686
  H      -0.920494     -0.810375     -1.062024
  H      -1.147550     -0.601044      0.696573
  H      -1.165048      0.822309     -0.381994
  Li      3.791002      0.326636      0.358489
  C       7.004866      2.255193      2.971108
  C       6.002703      1.641532      2.140374
  N       5.199795      1.151891      1.475143
  H       6.902114      1.891386      3.997528
  H       7.999207      2.000474      2.593003
  H       6.877530      3.341475      2.955428
13
Coordinates from ORCA-job AN_m1_shell2_cation_opt E -272.839863783523
  C      -0.745962     -0.190622     -0.248015
  C       0.662061     -0.015129     -0.036253
  N       1.792562      0.127360      0.134041
  H      -0.913125     -0.845650     -1.108364
  H      -1.200331     -0.641037      0.639614
  H      -1.215115      0.779267     -0.438909
  Li      3.721498      0.406560      0.466664
  C       7.064132      2.252130      2.966219
  C       6.024730      1.663863      2.171382
  N       5.189719      1.193574      1.531974
  H       6.989423      1.894165      3.997491
  H       8.042309      1.976589      2.560706
  H       6.965495      3.341809      2.956243
13
Coordinates from ORCA-job AN_m1_shell2_cation_opt E -272.840101277600
  C      -0.775398     -0.231272     -0.303448
  C       0.611454     -0.009032     -0.024214
  N       1.727446      0.172493      0.198085
  H      -0.885159     -0.890742     -1.170045
  H      -1.262698     -0.697038      0.558893
  H      -1.272025      0.720186     -0.518441
  Li      3.617382      0.523856      0.630376
  C       7.137345      2.243662      2.952855
  C       6.042837      1.692658      2.211753
  N       5.162251      1.251827      1.613380
  H       7.105484      1.891463      3.988733
  H       8.088224      1.938090      2.505198
  H       7.080255      3.336732      2.949667
13
Coordinates from ORCA-job AN_m1_shell2_cation_opt E -272.840317767956
  C      -0.784926     -0.257451     -0.339706
  C       0.586472      0.000188     -0.009000
  N       1.688981      0.210594      0.252617
  H      -0.847824     -0.919143     -1.209389
  H      -1.294178     -0.735610      0.503067
  H      -1.298871      0.680323     -0.573894
  Li      3.539205      0.611022      0.754298
  C       7.179362      2.233650      2.937673
  C       6.042699      1.710580      2.237107
  N       5.129563      1.292746      1.671584
  H       7.178956      1.882936      3.974639
  H       8.105974      1.905052      2.456423
  H       7.151985      3.327995      2.937375
13
Coordinates from ORCA-job AN_m1_shell2_cation_opt E -272.840499509535
  C      -0.786978     -0.281034     -0.372796
  C       0.568517      0.012957      0.010180
  N       1.654982      0.252021      0.311733
  H      -0.796643     -0.944258     -1.243368
  H      -1.313289     -0.771912      0.451726
  H      -1.313514      0.644222     -0.627039
  Li      3.461226      0.697404      0.878559
  C       7.213692      2.221392      2.919419
  C       6.034441      1.726809      2.259789
  N       5.090333      1.332826      1.729001
  H       7.241323      1.868319      3.955015
  H       8.110813      1.868226      2.401446
  H       7.212493      3.315910      2.919128
13
Coordinates from ORCA-job AN_m1_shell2_cation_opt E -272.840580446076
  C      -0.786696     -0.305180     -0.406873
  C       0.546797      0.025906      0.028787
  N       1.613939      0.294187      0.371598
  H      -0.739830     -0.969578     -1.275107
  H      -1.328410     -0.808418      0.399724
  H      -1.323803      0.607289     -0.683248
  Li      3.378938      0.788007      1.009634
  C       7.247599      2.207660      2.899113
  C       6.028554      1.744878      2.284883
  N       5.054281      1.376622      1.791605
  H       7.303341      1.849555      3.931601
  H       8.110963      1.830284      2.342681
  H       7.271724      3.301671      2.898394
13
Coordinates from ORCA-job AN_m1_shell2_cation_opt E -272.840565014176
  C      -0.777418     -0.312530     -0.417413
  C       0.543918      0.034094      0.037437
  N       1.599827      0.313880      0.398151
  H      -0.705337     -0.977643     -1.280687
  H      -1.321253     -0.819460      0.383732
  H      -1.315507      0.594785     -0.704848
  Li      3.343423      0.825976      1.066584
  C       7.252723      2.198924      2.886867
  C       6.020643      1.751386      2.291455
  N       5.035643      1.394634      1.816360
  H       7.317298      1.834392      3.915400
  H       8.098643      1.812818      2.314147
  H       7.284795      3.291625      2.885609
13
Coordinates from ORCA-job AN_m1_shell2_cation_opt E -272.840509949211
  C      -0.536658     -0.723213     -0.652849
  C       0.710883     -0.243745     -0.122995
  N       1.708124      0.142137      0.299263
  H      -0.343564     -1.384042     -1.500280
  H      -1.074810     -1.275591      0.121584
  H      -1.142972      0.123236     -0.985278
  Li      3.350199      0.831040      1.069592
  C       7.007440      2.606660      3.120209
  C       5.859560      2.033694      2.453399
  N       4.940360      1.576041      1.921740
  H       7.034905      2.268842      4.160825
  H       7.926195      2.288138      2.610098
  H       6.937736      3.699681      3.097486
13
Coordinates from ORCA-job AN_m1_shell2_cation_opt E -272.840403543442
  C      -0.552493     -0.738149     -0.670592
  C       0.698740     -0.248978     -0.130336
  N       1.699512      0.144345      0.302303
  H      -0.348357     -1.406359     -1.521457
  H      -1.094224     -1.289672      0.103973
  H      -1.164104      0.108355     -1.006017
  Li      3.352548      0.846231      1.091375
  C       7.021933      2.605021      3.116870
  C       5.871558      2.038613      2.458279
  N       4.949393      1.585309      1.933711
  H       7.052200      2.263981      4.156214
  H       7.933364      2.284494      2.600342
  H       6.954300      3.696672      3.093324
13
Coordinates from ORCA-job AN_m1_shell2_cation_opt E -272.840588142398
  C      -0.541998     -0.736047     -0.668664
  C       0.703201     -0.246489     -0.127447
  N       1.697542      0.145533      0.304067
  H      -0.337049     -1.399387     -1.514365
  H      -1.084677     -1.288942      0.103802
  H      -1.151939      0.107327     -1.005759
  Li      3.348714      0.846265      1.091688
  C       7.018851      2.601790      3.113044
  C       5.867083      2.036743      2.455951
  N       4.944942      1.584690      1.933141
  H       7.051253      2.261343      4.152254
  H       7.928987      2.281351      2.597204
  H       6.954070      3.693705      3.090425
13
Coordinates from ORCA-job AN_m1_shell2_cation_opt E -272.840602169350
  C      -0.538131     -0.736401     -0.669693
  C       0.704117     -0.245536     -0.126340
  N       1.697270      0.147230      0.306448
  H      -0.331731     -1.399074     -1.515356
  H      -1.082005     -1.290611      0.101006
  H      -1.148762      0.105795     -1.008351
  Li      3.346817      0.846888      1.092964
  C       7.018701      2.600312      3.110364
  C       5.865552      2.035898      2.455509
  N       4.942495      1.584660      1.933795
  H       7.053352      2.260418      4.149690
  H       7.928242      2.279629      2.593718
  H       6.955433      3.692327      3.088139
13
Coordinates from ORCA-job AN_m1_shell2_cation_opt E -272.840610540055
  C      -0.535370     -0.736994     -0.670882
  C       0.704847     -0.244801     -0.125486
  N       1.697109      0.148786      0.308603
  H      -0.327418     -1.399251     -1.516531
  H      -1.080292     -1.292260      0.098347
  H      -1.146710      0.104207     -1.010871
  Li      3.345273      0.847550      1.094174
  C       7.018827      2.599037      3.108139
  C       5.864452      2.035297      2.455207
  N       4.940491      1.584781      1.934481
  H       7.055262      2.259512      4.147548
  H       7.927699      2.277940      2.590551
  H       6.956706      3.691131      3.086127
13
Coordinates from ORCA-job AN_m1_shell2_cation_opt E -272.840616424205
  C      -0.533089     -0.737636     -0.672077
  C       0.705497     -0.244189     -0.124775
  N       1.696902      0.150194      0.310561
  H      -0.323504     -1.399540     -1.517635
  H      -1.078888     -1.293784      0.095915
  H      -1.145032      0.102707     -1.013195
  Li      3.343894      0.848201      1.095319
  C       7.019084      2.597881      3.106178
  C       5.863556      2.034819      2.454954
  N       4.938734      1.584977      1.935172
  H       7.057017      2.258613      4.145632
  H       7.927228      2.276293      2.587599
  H       6.957898      3.690039      3.084282
13
Coordinates from ORCA-job AN_m1_shell2_cation_opt E -272.840620803887
  C      -0.531132     -0.738288     -0.673223
  C       0.706060     -0.243682     -0.124187
  N       1.696643      0.151469      0.312333
  H      -0.319923     -1.399884     -1.518636
  H      -1.077650     -1.295173      0.093728
  H      -1.143573      0.101315     -1.015310
  Li      3.342646      0.848838      1.096388
  C       7.019424      2.596821      3.104442
  C       5.862810      2.034434      2.454733
  N       4.937176      1.585226      1.935847
  H       7.058627      2.257737      4.143918
  H       7.926835      2.274703      2.584893
  H       6.959054      3.689031      3.082608
13
Coordinates from ORCA-job AN_m1_shell2_cation_opt E -272.840624197938
  C      -0.529417     -0.738941     -0.674323
  C       0.706542     -0.243262     -0.123697
  N       1.696333      0.152632      0.313948
  H      -0.316634     -1.400273     -1.519561
  H      -1.076544     -1.296459      0.091742
  H      -1.142280      0.100017     -1.017267
  Li      3.341504      0.849460      1.097392
  C       7.019828      2.595840      3.102888
  C       5.862186      2.034122      2.454539
  N       4.935782      1.585515      1.936507
  H       7.060126      2.256885      4.142370
  H       7.926517      2.273176      2.582410
  H       6.960196      3.688096      3.081088
13
Coordinates from ORCA-job AN_m1_shell2_cation_opt E -272.840626889021
  C      -0.527902     -0.739583     -0.675363
  C       0.706952     -0.242914     -0.123291
  N       1.695989      0.153693      0.315418
  H      -0.313633     -1.400693     -1.520408
  H      -1.075550     -1.297638      0.089940
  H      -1.141122      0.098808     -1.019075
  Li      3.340457      0.850063      1.098327
  C       7.020268      2.594930      3.101493
  C       5.861662      2.033871      2.454368
  N       4.934531      1.585831      1.937144
  H       7.061521      2.256062      4.140970
  H       7.926266      2.271727      2.580140
  H       6.961318      3.687227      3.079721
13
Coordinates from ORCA-job AN_m1_shell2_cation_opt E -272.840629072849
  C      -0.526546     -0.740208     -0.676365
  C       0.707297     -0.242624     -0.122951
  N       1.695610      0.154663      0.316774
  H      -0.310875     -1.401120     -1.521215
  H      -1.074657     -1.298742      0.088259
  H      -1.140073      0.097676     -1.020775
  Li      3.339490      0.850640      1.099219
  C       7.020740      2.594091      3.100218
  C       5.861222      2.033667      2.454220
  N       4.933404      1.586161      1.937769
  H       7.062853      2.255277      4.139680
  H       7.926076      2.270369      2.578034
  H       6.962422      3.686424      3.078472
13
Coordinates from ORCA-job AN_m1_shell2_cation_opt E -272.840630930174
  C      -0.525305     -0.740900     -0.677303
  C       0.707591     -0.242415     -0.122657
  N       1.695201      0.155563      0.318026
  H      -0.308298     -1.401719     -1.521887
  H      -1.073855     -1.299782      0.086754
  H      -1.139088      0.096495     -1.022453
  Li      3.338569      0.851281      1.100040
  C       7.021308      2.593063      3.099139
  C       5.860793      2.033725      2.454016
  N       4.932336      1.586670      1.938321
  H       7.063994      2.254156      4.138548
  H       7.925950      2.268599      2.576207
  H       6.963959      3.685453      3.077535
13
Coordinates from ORCA-job AN_m1_shell2_cation_opt E -272.840632471937
  C      -0.524186     -0.741555     -0.678199
  C       0.707840     -0.242238     -0.122412
  N       1.694780      0.156394      0.319182
  H      -0.305937     -1.402286     -1.522536
  H      -1.073129     -1.300757      0.085341
  H      -1.138199      0.095396     -1.024021
  Li      3.337721      0.851881      1.100820
  C       7.021865      2.592149      3.098132
  C       5.860435      2.033759      2.453849
  N       4.931372      1.587144      1.938867
  H       7.065091      2.253149      4.137490
  H       7.925856      2.267011      2.574490
  H       6.965387      3.684589      3.076658
13
Coordinates from ORCA-job AN_m1_shell2_cation_opt E -272.840633763770
  C      -0.523172     -0.742119     -0.679109
  C       0.708043     -0.242065     -0.122216
  N       1.694343      0.157156      0.320272
  H      -0.303762     -1.402693     -1.523269
  H      -1.072467     -1.301689      0.083912
  H      -1.137404      0.094450     -1.025473
  Li      3.336937      0.852381      1.101611
  C       7.022390      2.591507      3.097076
  C       5.860165      2.033625      2.453804
  N       4.930514      1.587468      1.939484
  H       7.066351      2.252522      4.136408
  H       7.925777      2.265921      2.572673
  H       6.966433      3.683975      3.075630
13
Coordinates from ORCA-job AN_m1_shell2_cation_opt E -272.840634868804
  C      -0.522247     -0.742664     -0.679976
  C       0.708210     -0.241920     -0.122051
  N       1.693900      0.157862      0.321289
  H      -0.301749     -1.403099     -1.523962
  H      -1.071869     -1.302565      0.082566
  H      -1.136672      0.093551     -1.026853
  Li      3.336208      0.852859      1.102362
  C       7.022910      2.590903      3.096108
  C       5.859940      2.033518      2.453759
  N       4.929732      1.587793      1.940071
  H       7.067549      2.251923      4.135414
  H       7.925734      2.264896      2.570996
  H       6.967438      3.683396      3.074690
13
Coordinates from ORCA-job AN_m1_shell2_cation_opt E -272.840635826644
  C      -0.521399     -0.743193     -0.680798
  C       0.708349     -0.241800     -0.121912
  N       1.693457      0.158521      0.322235
  H      -0.299886     -1.403512     -1.524610
  H      -1.071326     -1.303390      0.081308
  H      -1.136001      0.092690     -1.028164
  Li      3.335527      0.853324      1.103067
  C       7.023421      2.590328      3.095219
  C       5.859753      2.033435      2.453716
  N       4.929016      1.588122      1.940630
  H       7.068680      2.251342      4.134497
  H       7.925719      2.263922      2.569450
  H       6.968413      3.682845      3.073835
13
Coordinates from ORCA-job AN_m1_shell2_cation_opt E -272.840636685756
  C      -0.520602     -0.743760     -0.681568
  C       0.708467     -0.241718     -0.121788
  N       1.693010      0.159146      0.323119
  H      -0.298121     -1.404023     -1.525169
  H      -1.070828     -1.304184      0.080156
  H      -1.135363      0.091789     -1.029457
  Li      3.334871      0.853828      1.103721
  C       7.023971      2.589631      3.094447
  C       5.859561      2.033503      2.453632
  N       4.928327      1.588553      1.941133
  H       7.069682      2.250554      4.133675
  H       7.925731      2.262700      2.568081
  H       6.969631      3.682184      3.073171
13
Coordinates from ORCA-job AN_m1_shell2_cation_opt E -272.840637430525
  C      -0.519874     -0.744253     -0.682335
  C       0.708559     -0.241632     -0.121691
  N       1.692566      0.159723      0.323959
  H      -0.296485     -1.404416     -1.525774
  H      -1.070375     -1.304933      0.079002
  H      -1.134783      0.091003     -1.030667
  Li      3.334266      0.854253      1.104376
  C       7.024476      2.589131      3.093650
  C       5.859429      2.033442      2.453616
  N       4.927712      1.588867      1.941669
  H       7.070757      2.250037      4.132847
  H       7.925750      2.261845      2.566673
  H       6.970555      3.681706      3.072415
13
Coordinates from ORCA-job AN_m1_shell2_cation_opt E -272.840638091440
  C      -0.519197     -0.744731     -0.683069
  C       0.708632     -0.241560     -0.121607
  N       1.692127      0.160267      0.324750
  H      -0.294951     -1.404807     -1.526348
  H      -1.069960     -1.305646      0.077907
  H      -1.134244      0.090247     -1.031824
  Li      3.333695      0.854665      1.104998
  C       7.024969      2.588653      3.092909
  C       5.859320      2.033396      2.453599
  N       4.927143      1.589178      1.942180
  H       7.071780      2.249537      4.132075
  H       7.925786      2.261030      2.565360
  H       6.971446      3.681248      3.071717
