23
Coordinates from ORCA-job DOL_m1_shell2_cation_opt E -543.965884557311
  C      -0.052469      0.929234      0.886870
  C       0.556459      0.234604     -0.355930
  O      -0.598456     -0.162993     -1.089991
  C      -1.537712     -0.385645     -0.071479
  O      -1.454537      0.813320      0.656599
  H       0.217549      0.409453      1.811890
  H       0.212591      1.981481      0.970668
  H       1.143471     -0.646830     -0.077492
  H       1.161798      0.895457     -0.974008
  H      -2.534758     -0.518942     -0.487445
  H      -1.252101     -1.248471      0.551964
  Li     -1.494559      1.569219     -1.153014
  C      -1.981079      4.086650     -0.913545
  C      -3.301861      3.392978     -1.328620
  O      -2.860152      2.411682     -2.263300
  C      -1.731728      3.026156     -2.828434
  O      -1.003559      3.388606     -1.682477
  H      -1.980949      5.147694     -1.184026
  H      -1.747937      3.981418      0.144338
  H      -3.986871      4.092784     -1.819036
  H      -3.814470      2.897129     -0.506277
  H      -1.170728      2.319367     -3.437644
  H      -2.015707      3.915479     -3.415309
23
Coordinates from ORCA-job DOL_m1_shell2_cation_opt E -543.970409342931
  C      -0.038257      0.933916      0.897538
  C       0.577498      0.230501     -0.353924
  O      -0.595180     -0.175293     -1.097187
  C      -1.552062     -0.399132     -0.073277
  O      -1.460928      0.813540      0.662624
  H       0.232237      0.420650      1.827000
  H       0.219181      1.992765      0.980141
  H       1.168349     -0.649406     -0.076247
  H       1.181441      0.890393     -0.981472
  H      -2.553511     -0.523872     -0.497327
  H      -1.276984     -1.265631      0.550080
  Li     -1.497143      1.564613     -1.159041
  C      -1.986077      4.100216     -0.902032
  C      -3.319320      3.403463     -1.322301
  O      -2.870880      2.410245     -2.273701
  C      -1.726505      3.023084     -2.847867
  O      -0.996199      3.392247     -1.685344
  H      -1.981755      5.163563     -1.165989
  H      -1.744710      3.988642      0.157940
  H      -4.007896      4.103539     -1.808382
  H      -3.834029      2.897908     -0.501752
  H      -1.162315      2.305242     -3.451766
  H      -2.002718      3.908639     -3.443413
23
Coordinates from ORCA-job DOL_m1_shell2_cation_opt E -543.971520846374
  C      -0.026987      0.929142      0.905582
  C       0.590556      0.224011     -0.347733
  O      -0.588373     -0.185417     -1.101330
  C      -1.553105     -0.409659     -0.070853
  O      -1.461670      0.811112      0.672066
  H       0.239481      0.418860      1.836539
  H       0.220849      1.990431      0.986651
  H       1.180181     -0.656580     -0.074228
  H       1.188601      0.882685     -0.982078
  H      -2.553881     -0.525125     -0.500179
  H      -1.284547     -1.277318      0.550078
  Li     -1.498037      1.563273     -1.160888
  C      -1.993394      4.112812     -0.900633
  C      -3.329489      3.415132     -1.321448
  O      -2.882206      2.412154     -2.280321
  C      -1.728842      3.028026     -2.857977
  O      -0.992575      3.401394     -1.687664
  H      -1.984024      5.175181     -1.163727
  H      -1.743873      3.995446      0.156846
  H      -4.020083      4.111106     -1.807832
  H      -3.841698      2.900728     -0.504853
  H      -1.163940      2.303296     -3.453670
  H      -2.000708      3.909144     -3.458048
23
Coordinates from ORCA-job DOL_m1_shell2_cation_opt E -543.971864963369
  C      -0.018670      0.921420      0.910060
  C       0.597842      0.217878     -0.340742
  O      -0.581963     -0.193155     -1.100567
  C      -1.549435     -0.417288     -0.067897
  O      -1.458452      0.805273      0.679366
  H       0.244530      0.411620      1.841690
  H       0.223139      1.983881      0.989554
  H       1.185028     -0.664630     -0.069945
  H       1.192237      0.876226     -0.978328
  H      -2.549010     -0.524636     -0.501241
  H      -1.284196     -1.286045      0.551206
  Li     -1.498275      1.562974     -1.161242
  C      -2.001014      4.121961     -0.903471
  C      -3.334479      3.425334     -1.322881
  O      -2.889984      2.417480     -2.284495
  C      -1.733443      3.034304     -2.863034
  O      -0.994157      3.410723     -1.691013
  H      -1.988672      5.183526     -1.167895
  H      -1.746789      4.000981      0.152146
  H      -4.025689      4.118416     -1.811523
  H      -3.844622      2.906269     -0.508317
  H      -1.168149      2.304351     -3.451347
  H      -2.003543      3.912968     -3.465785
23
Coordinates from ORCA-job DOL_m1_shell2_cation_opt E -543.972169651423
  C      -0.007981      0.908821      0.915703
  C       0.606559      0.208088     -0.330631
  O      -0.572692     -0.204076     -1.095856
  C      -1.542070     -0.427685     -0.063533
  O      -1.451204      0.793475      0.688542
  H       0.251904      0.399289      1.848150
  H       0.228081      1.972387      0.993454
  H       1.190306     -0.677269     -0.062508
  H       1.198500      0.866025     -0.970421
  H      -2.540055     -0.524235     -0.502157
  H      -1.280672     -1.298563      0.553339
  Li     -1.498479      1.562663     -1.161431
  C      -2.011836      4.134368     -0.909533
  C      -3.340539      3.439742     -1.326623
  O      -2.899432      2.428223     -2.289938
  C      -1.741354      3.043974     -2.868677
  O      -1.000304      3.424640     -1.697503
  H      -1.996629      5.195222     -1.175819
  H      -1.753266      4.010226      0.144350
  H      -4.031996      4.129823     -1.818739
  H      -3.849197      2.917439     -0.513560
  H      -1.175513      2.307199     -3.447254
  H      -2.009899      3.920056     -3.475054
23
Coordinates from ORCA-job DOL_m1_shell2_cation_opt E -543.972423622132
  C       0.002697      0.893927      0.922650
  C       0.615913      0.195376     -0.320049
  O      -0.562099     -0.216555     -1.087909
  C      -1.532534     -0.439388     -0.058646
  O      -1.441251      0.777433      0.697747
  H       0.260860      0.385088      1.855975
  H       0.235356      1.958188      0.999409
  H       1.196697     -0.692505     -0.053603
  H       1.208211      0.852586     -0.960008
  H      -2.529106     -0.525828     -0.502332
  H      -1.275446     -1.313293      0.555874
  Li     -1.498746      1.562151     -1.161688
  C      -2.022896      4.148578     -0.917583
  C      -3.347968      3.455630     -1.332637
  O      -2.909029      2.442700     -2.295902
  C      -1.751187      3.055226     -2.874373
  O      -1.010160      3.440550     -1.706354
  H      -2.005937      5.209206     -1.184808
  H      -1.761749      4.023151      0.135387
  H      -4.039403      4.143687     -1.827775
  H      -3.856794      2.933132     -0.519970
  H      -1.184824      2.312017     -3.443950
  H      -2.018371      3.928775     -3.485157
23
Coordinates from ORCA-job DOL_m1_shell2_cation_opt E -543.972641800990
  C       0.012830      0.877361      0.931655
  C       0.626320      0.179485     -0.309781
  O      -0.550202     -0.230228     -1.077792
  C      -1.521383     -0.452379     -0.053393
  O      -1.429348      0.758317      0.706871
  H       0.271485      0.369746      1.865726
  H       0.245004      1.941790      1.008555
  H       1.205255     -0.709952     -0.043566
  H       1.221995      0.835679     -0.947658
  H      -2.516997     -0.531280     -0.501152
  H      -1.269466     -1.330197      0.558514
  Li     -1.499155      1.561328     -1.162166
  C      -2.033195      4.164882     -0.927256
  C      -3.357579      3.472552     -1.341038
  O      -2.919130      2.459864     -2.302159
  C      -1.762579      3.067709     -2.880430
  O      -1.022777      3.457814     -1.716959
  H      -2.016063      5.225828     -1.194000
  H      -1.771554      4.040407      0.125776
  H      -4.048765      4.160020     -1.837867
  H      -3.868222      2.953109     -0.527517
  H      -1.195870      2.319514     -3.443448
  H      -2.028370      3.938464     -3.496614
23
Coordinates from ORCA-job DOL_m1_shell2_cation_opt E -543.972762617501
  C       0.018885      0.865248      0.939617
  C       0.634243      0.166489     -0.303448
  O      -0.541091     -0.239763     -1.070451
  C      -1.513072     -0.462011     -0.049750
  O      -1.420489      0.744423      0.712860
  H       0.279789      0.358452      1.873739
  H       0.253412      1.929263      1.017763
  H       1.213054     -0.722879     -0.035840
  H       1.234409      0.822037     -0.937978
  H      -2.508610     -0.539585     -0.498789
  H      -1.265345     -1.343007      0.560137
  Li     -1.499587      1.560462     -1.162748
  C      -2.038998      4.177511     -0.934852
  C      -3.365939      3.484470     -1.348408
  O      -2.926703      2.472345     -2.306113
  C      -1.771147      3.076718     -2.884948
  O      -1.032438      3.469844     -1.724642
  H      -2.023391      5.239001     -1.200335
  H      -1.778881      4.055635      0.119049
  H      -4.056620      4.173030     -1.844907
  H      -3.878750      2.969644     -0.533147
  H      -1.204540      2.327268     -3.447024
  H      -2.035957      3.945237     -3.505484
23
Coordinates from ORCA-job DOL_m1_shell2_cation_opt E -543.972806220478
  C       0.020797      0.859680      0.944150
  C       0.638071      0.160062     -0.301121
  O      -0.536503     -0.243438     -1.067902
  C      -1.509330     -0.466504     -0.048285
  O      -1.416756      0.739023      0.715135
  H       0.283498      0.352546      1.877688
  H       0.258016      1.923127      1.023749
  H       1.217447     -0.728526     -0.031811
  H       1.241091      0.815711     -0.933006
  H      -2.505233     -0.547054     -0.496489
  H      -1.263478     -1.348887      0.560651
  Li     -1.499920      1.559815     -1.163249
  C      -2.040555      4.183724     -0.938664
  C      -3.370403      3.489721     -1.352245
  O      -2.930627      2.477273     -2.307150
  C      -1.775141      3.080630     -2.887167
  O      -1.036484      3.474566     -1.727562
  H      -2.026689      5.245439     -1.203682
  H      -1.782201      4.064207      0.116074
  H      -4.060443      4.179773     -1.847729
  H      -3.884251      2.978242     -0.535399
  H      -1.209025      2.332655     -3.452055
  H      -2.039649      3.948048     -3.509628
23
Coordinates from ORCA-job DOL_m1_shell2_cation_opt E -543.972817775436
  C       0.020934      0.857882      0.945938
  C       0.639302      0.158276     -0.300425
  O      -0.534775     -0.243964     -1.067889
  C      -1.508176     -0.467944     -0.048008
  O      -1.416046      0.738292      0.715418
  H       0.283922      0.349685      1.878821
  H       0.259513      1.920971      1.026610
  H       1.218927     -0.729853     -0.030178
  H       1.243155      0.814434     -0.931033
  H      -2.504327     -0.551750     -0.495095
  H      -1.262383     -1.350418      0.560751
  Li     -1.500169      1.559356     -1.163642
  C      -2.040508      4.185783     -0.940070
  C      -3.371788      3.491378     -1.353330
  O      -2.932230      2.478034     -2.306809
  C      -1.776481      3.081662     -2.887927
  O      -1.037228      3.475237     -1.727936
  H      -2.027448      5.247343     -1.205745
  H      -1.782953      4.067529      0.115033
  H      -4.061281      4.182257     -1.848388
  H      -3.885605      2.981290     -0.535563
  H      -1.210957      2.335447     -3.455749
  H      -2.041164      3.948904     -3.510484
23
Coordinates from ORCA-job DOL_m1_shell2_cation_opt E -543.972820866703
  C       0.020779      0.857182      0.946609
  C       0.639715      0.158104     -0.299910
  O      -0.533995     -0.243915     -1.068188
  C      -1.507655     -0.468544     -0.048001
  O      -1.416151      0.738413      0.715160
  H       0.283152      0.347948      1.879077
  H       0.259619      1.920132      1.027994
  H       1.219286     -0.729949     -0.029417
  H       1.243459      0.814771     -0.930068
  H      -2.503846     -0.554413     -0.494488
  H      -1.261210     -1.350656      0.560919
  Li     -1.500411      1.558931     -1.164026
  C      -2.040323      4.186442     -0.940694
  C      -3.371978      3.492139     -1.353373
  O      -2.933003      2.478020     -2.306396
  C      -1.777134      3.081972     -2.888228
  O      -1.037220      3.474915     -1.727959
  H      -2.027247      5.247723     -1.207392
  H      -1.782772      4.068702      0.114444
  H      -4.061126      4.183241     -1.848532
  H      -3.885438      2.982405     -0.535182
  H      -1.212144      2.336794     -3.457850
  H      -2.042124      3.949476     -3.510197
