23
Coordinates from ORCA-job DOL_m1_shell2_cation_opt E -543.972820866703
  C           0.02077898677967      0.85718214914177      0.94660869144808
  C           0.63971490009663      0.15810388030344     -0.29990984188583
  O          -0.53399477620938     -0.24391548721666     -1.06818813979701
  C          -1.50765537868233     -0.46854402281091     -0.04800138118814
  O          -1.41615062748061      0.73841285619578      0.71516024135831
  H           0.28315232667719      0.34794821737274      1.87907706872063
  H           0.25961878530767      1.92013186811962      1.02799396740898
  H           1.21928615390873     -0.72994909179756     -0.02941719832154
  H           1.24345916519175      0.81477087539437     -0.93006801556703
  H          -2.50384551461260     -0.55441318583426     -0.49448819966327
  H          -1.26121006244564     -1.35065604075409      0.56091854211159
  Li         -1.50041061932309      1.55893073771358     -1.16402584004087
  C          -2.04032301995603      4.18644174483369     -0.94069379022845
  C          -3.37197778132646      3.49213890964809     -1.35337341144718
  O          -2.93300299651429      2.47801991522992     -2.30639591362012
  C          -1.77713419791690      3.08197206651136     -2.88822787572935
  O          -1.03721994140421      3.47491468715693     -1.72795880741095
  H          -2.02724695451263      5.24772335125064     -1.20739204107308
  H          -1.78277198407935      4.06870186467812      0.11444389521606
  H          -4.06112608864871      4.18324109241433     -1.84853205974238
  H          -3.88543771944770      2.98240546113760     -0.53518207827604
  H          -1.21214448948259      2.33679431841200     -3.45785015932109
  H          -2.04212383191910      3.94947614849950     -3.51019738685130
