16
DME_anion_cpcm_200
C            2.43980850691618        0.75175266187693       -0.58715153479819
O            1.33043085884686       -0.06219096001494       -0.85695833011807
C            0.55647262546713       -0.33820588318127        0.28367844538837
C           -0.65010472265490       -1.19095039996051       -0.12210959004987
O           -1.62092199572737       -0.52581564279105       -0.88627691907568
C           -2.39675414217547        0.40917247519857       -0.18034112322055
H            2.95241959171669        0.90122641517134       -1.53485199324745
H            2.13448146909375        1.72442505619734       -0.17981266456786
H            3.12197200096541        0.27257263213129        0.12738327653425
H            0.22805648468158        0.59944493271816        0.75833600393214
H            1.15223543860681       -0.89867467125799        1.02326196912029
H           -0.29529127646748       -2.00335452879326       -0.75952349129019
H           -1.10390725129890       -1.60898974987863        0.79065567957890
H           -2.84711978660688       -0.04379006703921        0.71261509117436
H           -1.81770715824589        1.28814999199490        0.12341255043315
H           -3.18407063311752        0.72522773762827       -0.86233221979357
