7
Coordinates from ORCA-job AN_m1_reduced_opt E -140.211382000017
  C      -0.476009     -0.000086      0.008756
  C       0.962181      0.000062     -0.017741
  N       2.114769      0.000281     -0.038980
  H      -0.858552     -0.618556     -0.809284
  H      -0.825850     -0.405334      0.963431
  H      -0.845690      1.023551     -0.107569
  Li      4.020248      0.000692     -0.073891
7
Coordinates from ORCA-job AN_m1_reduced_opt E -140.211591407658
  C      -0.478581     -0.000087      0.008801
  C       0.963462      0.000056     -0.017773
  N       2.114801      0.000277     -0.038991
  H      -0.862013     -0.617912     -0.808359
  H      -0.829335     -0.404912      0.962510
  H      -0.849157      1.022487     -0.107374
  Li      4.031920      0.000700     -0.074092
7
Coordinates from ORCA-job AN_m1_reduced_opt E -140.212097336379
  C      -0.488908     -0.000090      0.008995
  C       0.962034      0.000025     -0.017750
  N       2.111715      0.000258     -0.038942
  H      -0.873982     -0.616818     -0.806679
  H      -0.841375     -0.404191      0.961056
  H      -0.861124      1.020683     -0.106933
  Li      4.082738      0.000743     -0.075024
7
Coordinates from ORCA-job AN_m1_reduced_opt E -140.212220868711
  C      -0.492706     -0.000093      0.009075
  C       0.957091      0.000001     -0.017629
  N       2.107364      0.000245     -0.038827
  H      -0.877133     -0.617132     -0.807056
  H      -0.844563     -0.404399      0.961600
  H      -0.864263      1.021215     -0.106950
  Li      4.105307      0.000773     -0.075491
7
Coordinates from ORCA-job AN_m1_reduced_opt E -140.212264923146
  C      -0.494503     -0.000096      0.009111
  C       0.951657     -0.000017     -0.017494
  N       2.102715      0.000232     -0.038696
  H      -0.878035     -0.617621     -0.807706
  H      -0.845477     -0.404721      0.962366
  H      -0.865145      1.022034     -0.107042
  Li      4.119886      0.000798     -0.075817
7
Coordinates from ORCA-job AN_m1_reduced_opt E -140.212266752960
  C      -0.494409     -0.000097      0.009107
  C       0.950490     -0.000020     -0.017456
  N       2.101726      0.000228     -0.038653
  H      -0.877938     -0.617703     -0.807822
  H      -0.845384     -0.404774      0.962486
  H      -0.865044      1.022171     -0.107064
  Li      4.121656      0.000804     -0.075876
7
Coordinates from ORCA-job AN_m1_reduced_opt E -140.212266852373
  C      -0.494208     -0.000097      0.009102
  C       0.950431     -0.000020     -0.017442
  N       2.101690      0.000226     -0.038634
  H      -0.877905     -0.617682     -0.807798
  H      -0.845362     -0.404760      0.962451
  H      -0.865014      1.022137     -0.107063
  Li      4.121465      0.000806     -0.075894
