7
Coordinates from ORCA-job AN_m1_dication_opt E -139.513835805052
  C          -1.38033603896593     -0.03370958229061      0.06684447599395
  C          -0.11656923708405     -0.47252849806150      0.45074650126330
  N           0.99170746173587     -0.79927971571201      0.80121833805159
  H          -1.64162165700409     -0.44767339846444     -0.93927588895329
  H          -2.15610963435126     -0.20329299365550      0.82228358002166
  H          -1.28341634028769      1.05155170654793     -0.21092357569481
  Li          9.67744244595714      0.90554248163614     -1.06617143068240
