7
Coordinates from ORCA-job AN_m1_cation_opt E -140.067894572171
  C          -0.47600876949836     -0.00008616894695      0.00875568380619
  C           0.96218064263899      0.00006238681699     -0.01774144256969
  N           2.11476902448047      0.00028103036157     -0.03897989188466
  H          -0.85855246588925     -0.61855609876175     -0.80928415305485
  H          -0.82585000372127     -0.40533365919209      0.96343081910417
  H          -0.84569042926974      1.02355065660624     -0.10756873095634
  Li          4.02024777765916      0.00069168591598     -0.07389101384482
