7
Coordinates from ORCA-job AN_m1_reduced_opt E -140.212266852373
  C          -0.49420806902710     -0.00009680247748      0.00910178708245
  C           0.95043102195028     -0.00002000813461     -0.01744174808916
  N           2.10169013401481      0.00022551593911     -0.03863391623509
  H          -0.87790492197693     -0.61768249425844     -0.80779826153599
  H          -0.84536209600383     -0.40475975841750      0.96245105566301
  H          -0.86501421253315      1.02213740706699     -0.10706305546569
  Li          4.12146514357592      0.00080614028194     -0.07589386141952
