7
Coordinates from ORCA-job AN_m1_dication_opt E -139.436006191173
  C      -0.476009     -0.000086      0.008756
  C       0.962181      0.000062     -0.017741
  N       2.114769      0.000281     -0.038980
  H      -0.858552     -0.618556     -0.809284
  H      -0.825850     -0.405334      0.963431
  H      -0.845690      1.023551     -0.107569
  Li      4.020248      0.000692     -0.073891
7
Coordinates from ORCA-job AN_m1_dication_opt E -139.447679584037
  C      -0.473064      0.009210     -0.014145
  C       0.934869      0.005404     -0.030163
  N       2.127846      0.002140     -0.043699
  H      -0.868913     -0.655549     -0.814596
  H      -0.843619     -0.410406      0.976891
  H      -0.855695      1.052905     -0.083925
  Li      4.069672     -0.003095     -0.065642
7
Coordinates from ORCA-job AN_m1_dication_opt E -139.451724950822
  C      -0.466077      0.019856     -0.040445
  C       0.913352      0.010974     -0.044191
  N       2.121695      0.003711     -0.047599
  H      -0.879578     -0.686320     -0.802440
  H      -0.848096     -0.404560      0.965328
  H      -0.865478      1.065024     -0.052372
  Li      4.115279     -0.008074     -0.053559
7
Coordinates from ORCA-job AN_m1_dication_opt E -139.453966430867
  C      -0.464845      0.030287     -0.066307
  C       0.904438      0.016071     -0.058125
  N       2.116055      0.005095     -0.051290
  H      -0.898476     -0.709535     -0.783704
  H      -0.855377     -0.395412      0.946487
  H      -0.883118      1.067187     -0.021528
  Li      4.172421     -0.013083     -0.040812
7
Coordinates from ORCA-job AN_m1_dication_opt E -139.455912394168
  C      -0.470108      0.039641     -0.089938
  C       0.901829      0.020183     -0.070800
  N       2.107895      0.006303     -0.054825
  H      -0.922659     -0.726107     -0.762893
  H      -0.867845     -0.385258      0.926055
  H      -0.905602      1.063203      0.006252
  Li      4.247587     -0.017356     -0.029130
7
Coordinates from ORCA-job AN_m1_dication_opt E -139.457427893338
  C      -0.479782      0.042666     -0.098823
  C       0.899996      0.020801     -0.075127
  N       2.095581      0.006621     -0.056173
  H      -0.942181     -0.729522     -0.752284
  H      -0.884410     -0.379235      0.915405
  H      -0.923597      1.057418      0.017462
  Li      4.325491     -0.018138     -0.025738
7
Coordinates from ORCA-job AN_m1_dication_opt E -139.458869679487
  C      -0.493970      0.039290     -0.093251
  C       0.892799      0.018003     -0.071007
  N       2.079594      0.005858     -0.054823
  H      -0.958356     -0.722845     -0.753305
  H      -0.906893     -0.377215      0.914845
  H      -0.938557      1.052812      0.013582
  Li      4.416480     -0.015294     -0.031318
7
Coordinates from ORCA-job AN_m1_dication_opt E -139.460863418046
  C      -0.517525      0.031000     -0.077632
  C       0.873403      0.012466     -0.060320
  N       2.056926      0.003968     -0.050688
  H      -0.977027     -0.709439     -0.762854
  H      -0.938971     -0.377068      0.920976
  H      -0.956246      1.049103     -0.000164
  Li      4.550536     -0.009419     -0.044596
7
Coordinates from ORCA-job AN_m1_dication_opt E -139.462467162338
  C      -0.536233      0.023349     -0.062850
  C       0.852724      0.008035     -0.050215
  N       2.042240      0.002217     -0.046322
  H      -0.984785     -0.698138     -0.775339
  H      -0.956517     -0.379200      0.930882
  H      -0.964157      1.049065     -0.015036
  Li      4.637825     -0.004719     -0.056397
7
Coordinates from ORCA-job AN_m1_dication_opt E -139.463876847864
  C      -0.556733      0.016788     -0.052227
  C       0.827433      0.004525     -0.042099
  N       2.026857      0.000605     -0.042133
  H      -0.991889     -0.689666     -0.788203
  H      -0.967053     -0.380936      0.941982
  H      -0.971678      1.050561     -0.027251
  Li      4.724161     -0.001266     -0.065346
7
Coordinates from ORCA-job AN_m1_dication_opt E -139.465585607688
  C      -0.583800      0.011033     -0.046499
  C       0.799269      0.000964     -0.035949
  N       2.003456     -0.001266     -0.037934
  H      -1.010667     -0.682794     -0.797437
  H      -0.985545     -0.379136      0.949389
  H      -0.989782      1.049530     -0.033921
  Li      4.858166      0.002279     -0.072927
7
Coordinates from ORCA-job AN_m1_dication_opt E -139.467355317648
  C      -0.612118      0.003772     -0.044041
  C       0.771040     -0.003619     -0.030267
  N       1.979714     -0.003936     -0.032651
  H      -1.031599     -0.675801     -0.808539
  H      -1.000144     -0.373852      0.957900
  H      -1.008807      1.047277     -0.038168
  Li      4.993011      0.006769     -0.079512
7
Coordinates from ORCA-job AN_m1_dication_opt E -139.469084547759
  C      -0.641432     -0.007631     -0.038810
  C       0.741926     -0.011113     -0.020786
  N       1.955575     -0.008287     -0.024331
  H      -1.050927     -0.664284     -0.823890
  H      -1.016293     -0.365691      0.968382
  H      -1.024980      1.042900     -0.045032
  Li      5.127229      0.014716     -0.090812
7
Coordinates from ORCA-job AN_m1_dication_opt E -139.470778248894
  C      -0.670966     -0.021926     -0.033340
  C       0.712876     -0.020678     -0.009512
  N       1.931252     -0.013965     -0.014017
  H      -1.070008     -0.650577     -0.841432
  H      -1.033650     -0.354679      0.979578
  H      -1.039380      1.037135     -0.051897
  Li      5.260974      0.025300     -0.104657
7
Coordinates from ORCA-job AN_m1_dication_opt E -139.472455062159
  C      -0.698763     -0.032713     -0.028179
  C       0.685335     -0.028041     -0.000079
  N       1.907268     -0.018576     -0.005476
  H      -1.088985     -0.639619     -0.853848
  H      -1.053969     -0.347104      0.987334
  H      -1.054816      1.032773     -0.057919
  Li      5.395028      0.033890     -0.117111
7
Coordinates from ORCA-job AN_m1_dication_opt E -139.474236255963
  C      -0.723040     -0.033546     -0.023628
  C       0.660967     -0.028797      0.004317
  N       1.884383     -0.019488     -0.002173
  H      -1.108502     -0.636412     -0.855115
  H      -1.078882     -0.349352      0.988677
  H      -1.074435      1.032601     -0.062805
  Li      5.530607      0.035604     -0.124551
7
Coordinates from ORCA-job AN_m1_dication_opt E -139.476203213561
  C      -0.742912     -0.022205     -0.019353
  C       0.641865     -0.021316      0.002391
  N       1.863349     -0.015386     -0.005863
  H      -1.129936     -0.642296     -0.841928
  H      -1.110413     -0.364733      0.982153
  H      -1.099519      1.037909     -0.067262
  Li      5.668663      0.028637     -0.125416
7
Coordinates from ORCA-job AN_m1_dication_opt E -139.478079006715
  C      -0.764782     -0.018431     -0.016024
  C       0.621962     -0.019258      0.003157
  N       1.841908     -0.014313     -0.006170
  H      -1.152992     -0.642823     -0.835215
  H      -1.139541     -0.372634      0.979268
  H      -1.121444      1.040498     -0.071357
  Li      5.805986      0.027570     -0.128937
7
Coordinates from ORCA-job AN_m1_dication_opt E -139.480104067592
  C      -0.783305     -0.012323     -0.016988
  C       0.606353     -0.016770     -0.000948
  N       1.820903     -0.012621     -0.010227
  H      -1.182481     -0.648132     -0.822995
  H      -1.170656     -0.380835      0.972612
  H      -1.143743      1.044620     -0.070150
  Li      5.944027      0.026673     -0.126582
7
Coordinates from ORCA-job AN_m1_dication_opt E -139.482215412631
  C      -0.796395      0.002411     -0.028328
  C       0.594322     -0.010334     -0.016408
  N       1.799814     -0.008341     -0.022920
  H      -1.219107     -0.666119     -0.798677
  H      -1.199408     -0.389160      0.956855
  H      -1.170654      1.051014     -0.055406
  Li      6.082525      0.021138     -0.110393
7
Coordinates from ORCA-job AN_m1_dication_opt E -139.484025363155
  C      -0.817004      0.008335     -0.033056
  C       0.572054     -0.008536     -0.020654
  N       1.776975     -0.007805     -0.025367
  H      -1.245452     -0.672461     -0.792992
  H      -1.216880     -0.388887      0.951787
  H      -1.197215      1.051337     -0.048783
  Li      6.218620      0.018627     -0.106212
7
Coordinates from ORCA-job AN_m1_dication_opt E -139.485781315447
  C      -0.842435      0.008934     -0.036405
  C       0.544493     -0.010126     -0.018943
  N       1.753301     -0.010527     -0.020986
  H      -1.266942     -0.671203     -0.799046
  H      -1.222960     -0.382754      0.954616
  H      -1.227968      1.048742     -0.046712
  Li      6.353609      0.017543     -0.107801
7
Coordinates from ORCA-job AN_m1_dication_opt E -139.487462818833
  C      -0.866124      0.018585     -0.047274
  C       0.520854     -0.005211     -0.025618
  N       1.730028     -0.009757     -0.022705
  H      -1.291939     -0.676741     -0.792264
  H      -1.223548     -0.384325      0.951926
  H      -1.267529      1.049961     -0.040740
  Li      6.489354      0.008097     -0.098603
7
Coordinates from ORCA-job AN_m1_dication_opt E -139.489026872603
  C      -0.893479      0.018528     -0.047064
  C       0.496090     -0.003549     -0.021260
  N       1.705926     -0.010638     -0.016357
  H      -1.313222     -0.671416     -0.796243
  H      -1.232773     -0.387922      0.957721
  H      -1.295290      1.050378     -0.048428
  Li      6.623844      0.005228     -0.103647
7
Coordinates from ORCA-job AN_m1_dication_opt E -139.490535984606
  C      -0.916522      0.029189     -0.051293
  C       0.474978      0.006490     -0.024778
  N       1.681793     -0.006164     -0.016952
  H      -1.338985     -0.676864     -0.785894
  H      -1.241914     -0.399722      0.953198
  H      -1.326858      1.053939     -0.050750
  Li      6.758604     -0.006258     -0.098808
7
Coordinates from ORCA-job AN_m1_dication_opt E -139.491993438519
  C      -0.940017      0.037098     -0.047604
  C       0.451970      0.016795     -0.021687
  N       1.657591     -0.001680     -0.012599
  H      -1.360343     -0.678664     -0.778581
  H      -1.257977     -0.414273      0.949048
  H      -1.353134      1.057656     -0.060388
  Li      6.893007     -0.016322     -0.103468
7
Coordinates from ORCA-job AN_m1_dication_opt E -139.493455912805
  C      -0.961687      0.054095     -0.035848
  C       0.429428      0.036418     -0.015658
  N       1.634449      0.007460     -0.006266
  H      -1.375023     -0.683468     -0.759265
  H      -1.281656     -0.443982      0.934935
  H      -1.382590      1.065471     -0.078962
  Li      7.028176     -0.035385     -0.114215
7
Coordinates from ORCA-job AN_m1_dication_opt E -139.494735728431
  C      -0.984092      0.073379     -0.003296
  C       0.405325      0.057871      0.005015
  N       1.612786      0.015669      0.011844
  H      -1.374307     -0.680471     -0.739009
  H      -1.323027     -0.484736      0.915271
  H      -1.409352      1.073432     -0.116807
  Li      7.163764     -0.054533     -0.148296
7
Coordinates from ORCA-job AN_m1_dication_opt E -139.496159398501
  C      -1.010023      0.062922      0.000190
  C       0.381110      0.042836      0.014651
  N       1.590996      0.005145      0.021608
  H      -1.390902     -0.668158     -0.757889
  H      -1.350351     -0.470659      0.928889
  H      -1.430045      1.068728     -0.119595
  Li      7.300312     -0.040205     -0.163132
7
Coordinates from ORCA-job AN_m1_dication_opt E -139.497497277921
  C      -1.030788      0.061752      0.007451
  C       0.362685      0.030282      0.022517
  N       1.569959     -0.003643      0.026978
  H      -1.403997     -0.661180     -0.762963
  H      -1.393750     -0.465774      0.932074
  H      -1.450566      1.066727     -0.122925
  Li      7.437554     -0.027553     -0.178410
7
Coordinates from ORCA-job AN_m1_dication_opt E -139.498722723624
  C      -1.049973      0.064469      0.028196
  C       0.342237      0.020593      0.041327
  N       1.548400     -0.012941      0.041498
  H      -1.405137     -0.652633     -0.765309
  H      -1.449964     -0.468377      0.927604
  H      -1.467556      1.065184     -0.137301
  Li      7.573089     -0.015685     -0.211293
7
Coordinates from ORCA-job AN_m1_dication_opt E -139.499836560112
  C      -1.072295      0.064926      0.045385
  C       0.318473      0.013441      0.061233
  N       1.524767     -0.021927      0.059823
  H      -1.406983     -0.642048     -0.773235
  H      -1.493627     -0.469193      0.928142
  H      -1.485263      1.061958     -0.152536
  Li      7.706025     -0.006547     -0.244090
7
Coordinates from ORCA-job AN_m1_dication_opt E -139.500912048319
  C      -1.096166      0.058639      0.057573
  C       0.293921      0.002868      0.081585
  N       1.500233     -0.034001      0.080493
  H      -1.410562     -0.628824     -0.789119
  H      -1.534404     -0.462124      0.935754
  H      -1.499431      1.056466     -0.164364
  Li      7.837507      0.007585     -0.277200
7
Coordinates from ORCA-job AN_m1_dication_opt E -139.501904537477
  C      -1.122081      0.050635      0.082716
  C       0.268497     -0.004949      0.115767
  N       1.475599     -0.047839      0.114696
  H      -1.400850     -0.606671     -0.804858
  H      -1.590045     -0.460737      0.940037
  H      -1.506054      1.047047     -0.190520
  Li      7.966031      0.023123     -0.333117
7
Coordinates from ORCA-job AN_m1_dication_opt E -139.502918761581
  C      -1.147488      0.036156      0.092646
  C       0.244059     -0.018618      0.141933
  N       1.450775     -0.065463      0.144392
  H      -1.402568     -0.584835     -0.827017
  H      -1.632466     -0.446486      0.952373
  H      -1.515815      1.035911     -0.204492
  Li      8.094600      0.043944     -0.375112
7
Coordinates from ORCA-job AN_m1_dication_opt E -139.503936116199
  C      -1.169162      0.011375      0.087918
  C       0.222790     -0.041357      0.161737
  N       1.427555     -0.089667      0.170898
  H      -1.423333     -0.561431     -0.854070
  H      -1.666343     -0.417943      0.969549
  H      -1.525416      1.023546     -0.207019
  Li      8.225006      0.076089     -0.404291
7
Coordinates from ORCA-job AN_m1_dication_opt E -139.504601468894
  C      -1.190605     -0.016463      0.101965
  C       0.199033     -0.065696      0.198645
  N       1.403704     -0.117784      0.211854
  H      -1.428277     -0.527589     -0.876304
  H      -1.724183     -0.393526      0.975712
  H      -1.518219      1.005836     -0.224615
  Li      8.349643      0.115830     -0.462536
7
Coordinates from ORCA-job AN_m1_dication_opt E -139.505844660510
  C      -1.205776     -0.016695      0.086575
  C       0.181981     -0.071618      0.188104
  N       1.384779     -0.122343      0.205883
  H      -1.485325     -0.532411     -0.871525
  H      -1.733028     -0.390412      0.971947
  H      -1.544079      1.012286     -0.215868
  Li      8.492545      0.121803     -0.440395
7
Coordinates from ORCA-job AN_m1_dication_opt E -139.506875151992
  C      -1.223310     -0.014036      0.077387
  C       0.161847     -0.072204      0.179380
  N       1.365162     -0.123722      0.201710
  H      -1.538571     -0.539019     -0.863436
  H      -1.747243     -0.394428      0.964657
  H      -1.560877      1.019008     -0.211334
  Li      8.634089      0.125011     -0.423642
7
Coordinates from ORCA-job AN_m1_dication_opt E -139.507783676225
  C      -1.244052     -0.014792      0.074796
  C       0.139343     -0.074450      0.179823
  N       1.343417     -0.129296      0.207597
  H      -1.578523     -0.539253     -0.860342
  H      -1.771558     -0.397453      0.960162
  H      -1.568256      1.021936     -0.213189
  Li      8.770724      0.133918     -0.424126
7
Coordinates from ORCA-job AN_m1_dication_opt E -139.508672650391
  C      -1.267413     -0.012933      0.076825
  C       0.114964     -0.077069      0.184356
  N       1.319713     -0.137846      0.218893
  H      -1.607424     -0.540638     -0.857763
  H      -1.802478     -0.402101      0.954354
  H      -1.570111      1.025745     -0.217143
  Li      8.903846      0.145452     -0.434800
7
Coordinates from ORCA-job AN_m1_dication_opt E -139.509518898455
  C      -1.291804     -0.013766      0.077799
  C       0.090053     -0.087482      0.193941
  N       1.294488     -0.156565      0.238645
  H      -1.627446     -0.538833     -0.860525
  H      -1.835663     -0.398775      0.950525
  H      -1.571453      1.028779     -0.219875
  Li      9.032922      0.167252     -0.455788
7
Coordinates from ORCA-job AN_m1_dication_opt E -139.510355007598
  C      -1.316335     -0.018410      0.078140
  C       0.064110     -0.113922      0.212149
  N       1.266927     -0.196868      0.274487
  H      -1.635019     -0.534842     -0.869326
  H      -1.879201     -0.382152      0.945497
  H      -1.563015      1.032972     -0.218776
  Li      9.153632      0.213833     -0.497448
7
Coordinates from ORCA-job AN_m1_dication_opt E -139.511105354504
  C      -1.337922     -0.024628      0.074772
  C       0.038342     -0.152557      0.234972
  N       1.238127     -0.255959      0.323722
  H      -1.642228     -0.527777     -0.880612
  H      -1.922873     -0.357812      0.938836
  H      -1.548997      1.038884     -0.216386
  Li      9.266648      0.280459     -0.550582
7
Coordinates from ORCA-job AN_m1_dication_opt E -139.511787567117
  C      -1.354998     -0.028268      0.070317
  C       0.014210     -0.191849      0.256325
  N       1.209319     -0.318325      0.374303
  H      -1.659037     -0.519971     -0.888732
  H      -1.963352     -0.336491      0.928351
  H      -1.531736      1.045075     -0.214900
  Li      9.376692      0.350439     -0.600942
7
Coordinates from ORCA-job AN_m1_dication_opt E -139.512357599885
  C      -1.367466     -0.031769      0.065832
  C      -0.010572     -0.244172      0.287255
  N       1.175650     -0.405472      0.447690
  H      -1.673344     -0.506588     -0.899496
  H      -2.005206     -0.310845      0.913263
  H      -1.495837      1.050539     -0.215528
  Li      9.467872      0.448917     -0.674294
7
Coordinates from ORCA-job AN_m1_dication_opt E -139.512778983071
  C      -1.373700     -0.035010      0.064542
  C      -0.036762     -0.312726      0.330599
  N       1.133321     -0.520307      0.545883
  H      -1.672243     -0.489656     -0.912372
  H      -2.053038     -0.277700      0.890398
  H      -1.434627      1.054077     -0.214463
  Li      9.528145      0.581931     -0.779865
7
Coordinates from ORCA-job AN_m1_dication_opt E -139.513088578555
  C      -1.374622     -0.036890      0.063040
  C      -0.063672     -0.381275      0.377304
  N       1.084128     -0.639040      0.651134
  H      -1.664037     -0.470263     -0.925315
  H      -2.090393     -0.247210      0.866654
  H      -1.366996      1.054419     -0.213712
  Li      9.566691      0.720870     -0.894383
7
Coordinates from ORCA-job AN_m1_dication_opt E -139.513306135088
  C      -1.369259     -0.036930      0.065789
  C      -0.090460     -0.450154      0.426129
  N       1.029927     -0.756455      0.755425
  H      -1.643860     -0.454630     -0.934743
  H      -2.127605     -0.215908      0.836992
  H      -1.294741      1.051767     -0.208006
  Li      9.587094      0.862919     -1.016864
7
Coordinates from ORCA-job AN_m1_dication_opt E -139.513835805052
  C      -1.380336     -0.033710      0.066844
  C      -0.116569     -0.472528      0.450747
  N       0.991707     -0.799280      0.801218
  H      -1.641622     -0.447673     -0.939276
  H      -2.156110     -0.203293      0.822284
  H      -1.283416      1.051552     -0.210924
  Li      9.677442      0.905542     -1.066171
