7
Coordinates from ORCA-job AN_m1_cation_opt E -140.067106585022
  C      -0.455242     -0.000067      0.008377
  C       0.954821      0.000140     -0.017570
  N       2.104461      0.000312     -0.038724
  H      -0.840794     -0.615737     -0.805852
  H      -0.808353     -0.403480      0.958766
  H      -0.828179      1.018854     -0.107328
  Li      3.964382      0.000588     -0.072948
7
Coordinates from ORCA-job AN_m1_cation_opt E -140.067651061799
  C      -0.463548     -0.000072      0.008527
  C       0.964351      0.000132     -0.017751
  N       2.117307      0.000312     -0.038967
  H      -0.851894     -0.617648     -0.808193
  H      -0.819314     -0.404734      0.961895
  H      -0.839192      1.022016     -0.107507
  Li      3.983386      0.000605     -0.073282
7
Coordinates from ORCA-job AN_m1_cation_opt E -140.067776364949
  C      -0.469615     -0.000077      0.008636
  C       0.967972      0.000118     -0.017824
  N       2.121130      0.000308     -0.039048
  H      -0.856416     -0.618058     -0.808655
  H      -0.823780     -0.405008      0.962610
  H      -0.843659      1.022702     -0.107510
  Li      3.995463      0.000625     -0.073487
7
Coordinates from ORCA-job AN_m1_cation_opt E -140.067829756350
  C      -0.473691     -0.000081      0.008709
  C       0.967760      0.000102     -0.017829
  N       2.120638      0.000302     -0.039053
  H      -0.857655     -0.618425     -0.809121
  H      -0.824971     -0.405251      0.963200
  H      -0.844848      1.023317     -0.107562
  Li      4.003862      0.000645     -0.073622
7
Coordinates from ORCA-job AN_m1_cation_opt E -140.067871964173
  C      -0.477226     -0.000085      0.008773
  C       0.965241      0.000080     -0.017795
  N       2.117810      0.000294     -0.039022
  H      -0.857765     -0.618901     -0.809754
  H      -0.825026     -0.405563      0.963937
  H      -0.844901      1.024114     -0.107654
  Li      4.012964      0.000671     -0.073763
7
Coordinates from ORCA-job AN_m1_cation_opt E -140.067888153152
  C      -0.477807     -0.000087      0.008784
  C       0.962861      0.000068     -0.017759
  N       2.115359      0.000287     -0.038990
  H      -0.857499     -0.619038     -0.809942
  H      -0.824746     -0.405651      0.964146
  H      -0.844615      1.024345     -0.107684
  Li      4.017542      0.000685     -0.073834
7
Coordinates from ORCA-job AN_m1_cation_opt E -140.067893164816
  C      -0.476998     -0.000087      0.008771
  C       0.961839      0.000063     -0.017741
  N       2.114381      0.000284     -0.038976
  H      -0.857691     -0.618886     -0.809737
  H      -0.824955     -0.405549      0.963919
  H      -0.844813      1.024095     -0.107649
  Li      4.019332      0.000690     -0.073866
7
Coordinates from ORCA-job AN_m1_cation_opt E -140.067894333975
  C      -0.476290     -0.000086      0.008760
  C       0.961897      0.000062     -0.017739
  N       2.114477      0.000282     -0.038977
  H      -0.858171     -0.618681     -0.809457
  H      -0.825455     -0.405415      0.963615
  H      -0.845302      1.023757     -0.107600
  Li      4.019940      0.000691     -0.073881
7
Coordinates from ORCA-job AN_m1_cation_opt E -140.067894572171
  C      -0.476009     -0.000086      0.008756
  C       0.962181      0.000062     -0.017741
  N       2.114769      0.000281     -0.038980
  H      -0.858552     -0.618556     -0.809284
  H      -0.825850     -0.405334      0.963431
  H      -0.845690      1.023551     -0.107569
  Li      4.020248      0.000692     -0.073891
