10
Coordinates from ORCA-job EC_cation_opt E -341.957241912276
  C      -0.238857     -0.969902     -0.109764
  C      -0.912031      0.416320     -0.068701
  O       0.178684      1.327558      0.135599
  C       1.357825      0.653188      0.210420
  O       2.421178      1.164784      0.375482
  O       1.156840     -0.685126      0.071244
  H      -0.368713     -1.478638     -1.069615
  H      -0.567942     -1.627566      0.700324
  H      -1.411242      0.675634     -1.007083
  H      -1.615743      0.523748      0.762094
10
Coordinates from ORCA-job EC_cation_opt E -341.962018991738
  C      -0.237648     -0.962744     -0.104358
  C      -0.905489      0.412840     -0.063588
  O       0.182326      1.329396      0.079546
  C       1.352325      0.651819      0.171560
  O       2.402470      1.152132      0.471691
  O       1.158873     -0.680213      0.012886
  H      -0.379338     -1.494555     -1.062948
  H      -0.543026     -1.626997      0.717566
  H      -1.428865      0.677228     -1.000615
  H      -1.601630      0.541094      0.778261
10
Coordinates from ORCA-job EC_cation_opt E -341.964919269839
  C      -0.235405     -0.955089     -0.098229
  C      -0.898039      0.409896     -0.057722
  O       0.189204      1.330317      0.026471
  C       1.329938      0.640558      0.184698
  O       2.382878      1.140044      0.522908
  O       1.162127     -0.672000     -0.043353
  H      -0.383655     -1.505933     -1.054041
  H      -0.516050     -1.632778      0.726075
  H      -1.438631      0.680860     -0.992349
  H      -1.592368      0.564126      0.785542
10
Coordinates from ORCA-job EC_cation_opt E -341.966061582952
  C      -0.233243     -0.953446     -0.100591
  C      -0.896047      0.410436     -0.059955
  O       0.203666      1.333912     -0.027295
  C       1.318851      0.635821      0.167680
  O       2.349605      1.120955      0.605644
  O       1.172822     -0.659887     -0.096851
  H      -0.399606     -1.522273     -1.037730
  H      -0.486073     -1.626761      0.732165
  H      -1.461413      0.676872     -0.976077
  H      -1.568563      0.584370      0.793010
10
Coordinates from ORCA-job EC_cation_opt E -341.966429806186
  C      -0.234197     -0.957111     -0.106542
  C      -0.899718      0.411902     -0.065635
  O       0.209625      1.337453     -0.038750
  C       1.315696      0.634322      0.169642
  O       2.342246      1.117655      0.623972
  O       1.179246     -0.657410     -0.104492
  H      -0.406153     -1.529014     -1.035999
  H      -0.477965     -1.621691      0.733661
  H      -1.472837      0.674712     -0.973001
  H      -1.555943      0.589182      0.797144
10
Coordinates from ORCA-job EC_cation_opt E -341.966894781102
  C      -0.238258     -0.963643     -0.115479
  C      -0.907395      0.412791     -0.074272
  O       0.217265      1.342642     -0.044734
  C       1.307582      0.630520      0.169973
  O       2.334946      1.115339      0.636671
  O       1.187956     -0.655672     -0.102699
  H      -0.409509     -1.535094     -1.038535
  H      -0.470952     -1.612387      0.736972
  H      -1.484076      0.674213     -0.972525
  H      -1.537562      0.591291      0.804628
10
Coordinates from ORCA-job EC_cation_opt E -341.967618155385
  C      -0.247354     -0.973260     -0.124403
  C      -0.920403      0.411745     -0.082867
  O       0.227570      1.347996     -0.039209
  C       1.291574      0.622836      0.168725
  O       2.334286      1.117156      0.632643
  O       1.198318     -0.653139     -0.086047
  H      -0.404984     -1.537501     -1.046848
  H      -0.469403     -1.602057      0.741008
  H      -1.489794      0.677666     -0.976432
  H      -1.519810      0.588558      0.813430
10
Coordinates from ORCA-job EC_cation_opt E -341.964755625513
  C      -0.276807     -1.000712     -0.143490
  C      -0.960229      0.406088     -0.100385
  O       0.253774      1.357084      0.012486
  C       1.245806      0.600260      0.172805
  O       2.361410      1.135403      0.562911
  O       1.219540     -0.644511     -0.003892
  H      -0.377572     -1.529874     -1.076383
  H      -0.485062     -1.584059      0.743879
  H      -1.486698      0.690409     -0.995259
  H      -1.494163      0.569911      0.827328
10
Coordinates from ORCA-job EC_cation_opt E -341.968906467689
  C      -0.260527     -0.983204     -0.128319
  C      -0.935837      0.408066     -0.086012
  O       0.228938      1.351129      0.005635
  C       1.281565      0.617554      0.176286
  O       2.365388      1.135026      0.564641
  O       1.200865     -0.657856     -0.029238
  H      -0.385592     -1.525057     -1.066013
  H      -0.491517     -1.601935      0.739226
  H      -1.475632      0.684495     -0.991471
  H      -1.527653      0.571782      0.815266
10
Coordinates from ORCA-job EC_cation_opt E -341.969578236487
  C      -0.263651     -0.983663     -0.125498
  C      -0.938217      0.405704     -0.082912
  O       0.228012      1.348913      0.025558
  C       1.277834      0.615429      0.179024
  O       2.378764      1.142561      0.529780
  O       1.198899     -0.658455     -0.006257
  H      -0.373821     -1.516465     -1.070301
  H      -0.503741     -1.609984      0.733916
  H      -1.464111      0.687697     -0.995054
  H      -1.539970      0.568262      0.811743
10
Coordinates from ORCA-job EC_cation_opt E -341.970665923114
  C      -0.270231     -0.983991     -0.117958
  C      -0.942623      0.400214     -0.074175
  O       0.224273      1.340731      0.084142
  C       1.267234      0.609375      0.188583
  O       2.412364      1.161363      0.427083
  O       1.190552     -0.659412      0.060470
  H      -0.339863     -1.492888     -1.079482
  H      -0.535411     -1.633948      0.715496
  H      -1.430730      0.697570     -1.002397
  H      -1.575566      0.560985      0.798239
10
Coordinates from ORCA-job EC_cation_opt E -341.970856450132
  C      -0.269193     -0.982899     -0.114623
  C      -0.941184      0.400281     -0.070499
  O       0.219292      1.337775      0.105875
  C       1.269118      0.610128      0.191099
  O       2.420879      1.165804      0.389095
  O       1.184947     -0.662391      0.085472
  H      -0.328049     -1.484057     -1.081527
  H      -0.547148     -1.643240      0.707117
  H      -1.419186      0.700301     -1.003748
  H      -1.589477      0.558297      0.791740
10
Coordinates from ORCA-job EC_cation_opt E -341.970888856267
  C      -0.267804     -0.982691     -0.114282
  C      -0.940262      0.401287     -0.069882
  O       0.217645      1.337518      0.111943
  C       1.270405      0.610872      0.193318
  O       2.422615      1.166458      0.376010
  O       1.183049     -0.663951      0.096361
  H      -0.324033     -1.481498     -1.082892
  H      -0.551037     -1.646862      0.703060
  H      -1.418187      0.700481     -1.003750
  H      -1.592392      0.558385      0.790113
10
Coordinates from ORCA-job EC_cation_opt E -341.970895389209
  C      -0.267295     -0.982698     -0.114728
  C      -0.940164      0.401698     -0.069931
  O       0.217701      1.337722      0.113458
  C       1.270164      0.610884      0.194943
  O       2.423282      1.166497      0.369070
  O       1.182349     -0.664386      0.104469
  H      -0.320990     -1.479667     -1.084264
  H      -0.553550     -1.648954      0.699943
  H      -1.419425      0.699908     -1.003232
  H      -1.592071      0.558997      0.790272
10
Coordinates from ORCA-job EC_cation_opt E -341.970900263450
  C      -0.266704     -0.982388     -0.115386
  C      -0.939792      0.401939     -0.069949
  O       0.218353      1.338245      0.109163
  C       1.270133      0.611086      0.195635
  O       2.422826      1.165890      0.368306
  O       1.181822     -0.664618      0.110406
  H      -0.318456     -1.478233     -1.085502
  H      -0.555584     -1.650779      0.696683
  H      -1.423536      0.698217     -1.001411
  H      -1.589061      0.560639      0.792056
10
Coordinates from ORCA-job EC_cation_opt E -341.970911879321
  C      -0.265930     -0.981832     -0.116876
  C      -0.939470      0.402041     -0.069636
  O       0.220217      1.339391      0.096106
  C       1.269757      0.611341      0.196657
  O       2.422273      1.164813      0.367366
  O       1.180178     -0.665115      0.125800
  H      -0.310660     -1.473728     -1.089142
  H      -0.561758     -1.655359      0.688451
  H      -1.434042      0.693885     -0.996512
  H      -1.580567      0.564562      0.797787
10
Coordinates from ORCA-job EC_cation_opt E -341.970958691588
  C      -0.260806     -0.977776     -0.126355
  C      -0.937630      0.402114     -0.067282
  O       0.232212      1.341898      0.006722
  C       1.265485      0.612441      0.202113
  O       2.417342      1.156270      0.363351
  O       1.163867     -0.664994      0.226370
  H      -0.256888     -1.443202     -1.111377
  H      -0.599978     -1.684187      0.632524
  H      -1.501822      0.665808     -0.960456
  H      -1.521783      0.591628      0.834389
10
Coordinates from ORCA-job EC_cation_opt E -341.970990706520
  C      -0.261568     -0.977567     -0.126112
  C      -0.937499      0.401548     -0.067121
  O       0.232725      1.341722      0.002935
  C       1.265920      0.612709      0.200947
  O       2.416833      1.156816      0.368418
  O       1.164221     -0.665109      0.223100
  H      -0.257935     -1.443082     -1.111339
  H      -0.600123     -1.683209      0.633816
  H      -1.502336      0.665233     -0.960109
  H      -1.520239      0.590939      0.835465
10
Coordinates from ORCA-job EC_cation_opt E -341.971236137870
  C      -0.265274     -0.973828     -0.128670
  C      -0.936698      0.396394     -0.062874
  O       0.241991      1.335436     -0.075269
  C       1.264538      0.613407      0.195220
  O       2.411266      1.156804      0.390152
  O       1.150297     -0.664105      0.269833
  H      -0.223408     -1.417263     -1.124453
  H      -0.627924     -1.694631      0.605815
  H      -1.541243      0.646877     -0.934356
  H      -1.473546      0.600909      0.864601
10
Coordinates from ORCA-job EC_cation_opt E -341.971395424063
  C      -0.269140     -0.972625     -0.127659
  C      -0.938551      0.392289     -0.058028
  O       0.243897      1.327812     -0.116537
  C       1.263304      0.611399      0.191707
  O       2.412336      1.157796      0.383255
  O       1.135108     -0.663333      0.312484
  H      -0.187559     -1.391549     -1.132957
  H      -0.652417     -1.704629      0.584989
  H      -1.558597      0.639527     -0.920985
  H      -1.448381      0.603314      0.883732
10
Coordinates from ORCA-job EC_cation_opt E -341.971418039858
  C      -0.267124     -0.971812     -0.130514
  C      -0.938013      0.392299     -0.055728
  O       0.246652      1.319554     -0.155249
  C       1.259482      0.609685      0.193002
  O       2.407941      1.154641      0.376613
  O       1.119579     -0.659932      0.358004
  H      -0.156935     -1.374494     -1.139706
  H      -0.668520     -1.717464      0.557678
  H      -1.582966      0.631701     -0.902162
  H      -1.420096      0.615822      0.898061
10
Coordinates from ORCA-job EC_cation_opt E -341.971391188067
  C      -0.266208     -0.977628     -0.125264
  C      -0.941872      0.395831     -0.056031
  O       0.236128      1.325639     -0.101827
  C       1.261346      0.606353      0.196346
  O       2.416393      1.155586      0.341493
  O       1.124118     -0.663543      0.344550
  H      -0.160243     -1.379969     -1.135015
  H      -0.661901     -1.715670      0.573709
  H      -1.553314      0.648417     -0.923583
  H      -1.454447      0.604985      0.885622
10
Coordinates from ORCA-job EC_cation_opt E -341.971461597602
  C      -0.267057     -0.975075     -0.127760
  C      -0.939230      0.394522     -0.056853
  O       0.241837      1.324261     -0.121971
  C       1.261311      0.608441      0.194151
  O       2.411493      1.157104      0.366478
  O       1.127200     -0.662788      0.336536
  H      -0.169623     -1.383501     -1.135731
  H      -0.659976     -1.712696      0.573329
  H      -1.563597      0.641458     -0.916452
  H      -1.442360      0.608275      0.888274
10
Coordinates from ORCA-job EC_cation_opt E -341.971463381786
  C      -0.267150     -0.974985     -0.128039
  C      -0.938853      0.394535     -0.056613
  O       0.242467      1.323004     -0.127178
  C       1.261099      0.607994      0.193895
  O       2.410587      1.157611      0.367611
  O       1.125961     -0.662591      0.340073
  H      -0.167264     -1.381711     -1.136453
  H      -0.661786     -1.713507      0.571084
  H      -1.566176      0.640476     -0.914355
  H      -1.438885      0.609173      0.889976
10
Coordinates from ORCA-job EC_cation_opt E -341.971464278950
  C      -0.267263     -0.975144     -0.128139
  C      -0.938430      0.394828     -0.056640
  O       0.242738      1.322401     -0.128529
  C       1.261223      0.607519      0.193754
  O       2.409903      1.158564      0.368752
  O       1.126057     -0.662804      0.339963
  H      -0.167489     -1.381609     -1.136640
  H      -0.662130     -1.713382      0.571081
  H      -1.566621      0.640389     -0.913863
  H      -1.437988      0.609240      0.890260
