10
Coordinates from ORCA-job EC_cation_opt E -341.971464278950
  C          -0.26726328102578     -0.97514389373911     -0.12813868596139
  C          -0.93843037809260      0.39482757794405     -0.05663959587045
  O           0.24273807732649      1.32240096701883     -0.12852899178509
  C           1.26122329601973      0.60751862530851      0.19375403778819
  O           2.40990294263213      1.15856352832350      0.36875209023377
  O           1.12605726206015     -0.66280375042925      0.33996280651021
  H          -0.16748938258977     -1.38160909341853     -1.13664008604063
  H          -0.66213037974347     -1.71338221834755      0.57108102676463
  H          -1.56662133660565      0.64038871631528     -0.91386300004266
  H          -1.43798781998123      0.60923954102428      0.89026039840342
