17
Coordinates from ORCA-job TMP_cation_cpcm_200_moread E -761.709444794457
  C           2.08300536745887     -1.29153255452406      0.16170501175800
  O           1.35157744055286     -0.04239453731197      0.11230225789349
  P           0.01518146967760      0.20440794299423     -0.74129095262483
  O           0.61193138011121      0.63285270427249     -2.07570095090509
  O          -0.84417079811178     -1.08178670280687     -0.87397057967889
  C          -1.86487660248936     -1.49515992398025      0.11230955376304
  O          -0.82095899450906      1.25170989734042      0.04814173424758
  C          -0.32719777794477      2.60787278982781      0.35927097790835
  H           3.13826121446560     -1.03787613580692      0.05042938031776
  H           1.72645597637047     -1.99331380939131     -0.59460304195074
  H           1.90470755330987     -1.69291241235319      1.17020158948764
  H          -2.15991964477289     -2.49409279049467     -0.20120364246375
  H          -2.70123358826197     -0.79742840656452      0.05773495544854
  H          -1.41932117037617     -1.50801218834604      1.10882865284094
  H           0.43488075214334      2.52847953277846      1.13620486766698
  H          -1.20184559058396      3.14592455164207      0.71781883379679
  H           0.07352300296015      3.06326205272413     -0.54817865750589
