17
 energy: -29.400150987835 gnorm: 0.000946409557 xtb: 6.7.1pre (5071a88)
C            2.23299492790173       -1.15599524291080        0.12080191975206
O            0.88423570885152       -0.90873430530238        0.36892763988838
P            0.00120837094397        0.01809058262459       -0.62740197556303
O            0.68578404459575        0.50041035149676       -1.80445577191151
O           -1.29309339950731       -0.86047842254362       -0.85782016034285
C           -2.12556609505056       -1.40310542836166        0.13492479326154
O           -0.51155336252891        1.14586276548947        0.41531572257592
C           -0.19191798504599        2.49256837238538        0.23485645293496
H            2.84524109454492       -0.67547272300024        0.89887107947373
H            2.53316864861088       -0.80150822476416       -0.86858036040450
H            2.40448365295915       -2.23593007304974        0.23296504850283
H           -2.12149233088842       -2.49654922774309        0.02643528402259
H           -3.15359235728817       -1.07661896540394       -0.07407359536349
H           -1.82497770521447       -1.11275396018173        1.14203021967329
H            0.50350040479787        2.81704592847448        1.02302355988216
H           -1.10985319626619        3.07754049146632        0.38555819714964
H            0.24142956858415        2.67562809132446       -0.75137806353184
