17
 energy: -29.400139157894 gnorm: 0.000910149479 xtb: 6.7.1pre (5071a88)
C            2.24000056446723       -1.15776420728745        0.11506659786135
O            0.89294806120862       -0.90881426502491        0.36921684388687
P            0.00492598807724        0.01477038557614       -0.62589786955644
O            0.68848147067368        0.50044282493856       -1.80232738663837
O           -1.28360037099947       -0.87139244827312       -0.85754273884911
C           -2.13245247262922       -1.39352726494413        0.13178715396227
O           -0.51381820631186        1.13864290922928        0.41613771387678
C           -0.19494946770657        2.48695316634267        0.24295470372118
H            2.85667750766145       -0.67361651201693        0.88751655326679
H            2.53517761814685       -0.80639441158274       -0.87693133737178
H            2.41245529118600       -2.23694397833469        0.23167121603441
H           -2.09927282447263       -2.48926362786371        0.07412613166023
H           -3.15975407831761       -1.10408295072665       -0.12438336344741
H           -1.87224331333212       -1.05160068987394        1.13233182901588
H            0.50848727862901        2.80589876422419        1.02591459476356
H           -1.11185567058514        3.06969177744546        0.40643654709862
H            0.22879261430499        2.67700053817145       -0.74607719928518
