35
Coordinates from ORCA-job TMP_m1_shell2_oxidized_opt_relaxed E -1530.933473887585
  C          -0.96300413250529     -2.09186870732811      1.84261717860355
  O          -0.20000554755866     -0.87679449174004      1.62356633901583
  P          -0.26171228994192      0.00467847335500      0.29170054346816
  O           0.50460103258022     -0.64288498392314     -0.82468355616346
  O          -1.75182180396744      0.22966605268563     -0.13199051476887
  C          -2.68567398188193      1.09462026274252      0.61160475820303
  O           0.28138029509141      1.40145327520742      0.76988481843118
  C           1.55650090031798      1.59049146479002      1.46490788491780
  H          -0.25065458145418     -2.92498318471223      1.84687904285998
  H          -1.73212826447257     -2.22829223770129      1.07906969376094
  H          -1.40401570968362     -2.00532684593846      2.84046270613193
  H          -3.67162458544924      0.84935942962762      0.22132587377359
  H          -2.43211302734927      2.13700091784156      0.41128313364005
  H          -2.62722929804341      0.88038752167297      1.68224095597594
  H           1.54031915417992      1.04282196849192      2.41139281622988
  H           1.63575367069781      2.66249080594681      1.63476571672069
  H           2.37254454912522      1.23458466297929      0.82865473728390
  Li          1.06428880699710     -1.19328164618857     -2.48691503844165
  C           3.32220342402781     -0.24151122983117     -7.28020722284656
  O           3.13041691205913     -0.68860472678322     -5.90038903108300
  P           2.27026613548951     -1.94555546545972     -5.48195421586666
  O           1.78629000100105     -1.76957079903386     -4.07393947775540
  O           1.19885086369907     -2.12270799964847     -6.60466368961375
  C           0.36202056522120     -3.32362419926785     -6.75709692286673
  O           3.19413736308492     -3.24182401311655     -5.62678621338880
  C           4.42930982923077     -3.44195592836983     -4.89058446428230
  H           4.14815963612157      0.46638116727075     -7.24466362416898
  H           2.40204999244370      0.24004333747932     -7.62483060476129
  H           3.55559184661434     -1.09552950762531     -7.92473463047387
  H          -0.26667726531692     -3.12264337714095     -7.62230851536867
  H          -0.24659963297333     -3.45774254307697     -5.85958154962068
  H           1.00234820752578     -4.19061429069037     -6.93416998499998
  H           5.24809695708145     -3.40612042788254     -5.61830276203438
  H           4.37759285122404     -4.45103975974062     -4.47078201124484
  H           4.56327400700510     -2.68829245521648     -4.11155621124069
