35
Coordinates from ORCA-job TMP_m1_shell2_oxidized_opt_relaxed E -1530.903485064066
  C       1.976195     -1.847373     -0.327273
  O       1.528438     -0.498759     -0.026200
  P      -0.008826     -0.127727     -0.144306
  O      -0.599083     -0.401908     -1.499655
  O      -0.689391     -0.919769      1.037145
  C      -2.131657     -0.848871      1.241002
  O      -0.081850      1.385837      0.293889
  C       0.321447      2.448487     -0.613224
  H       3.058808     -1.836852     -0.201607
  H       1.724578     -2.111309     -1.360715
  H       1.526810     -2.557637      0.372312
  H      -2.348923     -1.550758      2.045093
  H      -2.657103     -1.143372      0.328358
  H      -2.411771      0.164501      1.539686
  H       1.401044      2.401552     -0.782852
  H       0.066043      3.379699     -0.108814
  H      -0.226608      2.369087     -1.556355
  Li     -0.558309     -1.115285     -3.133973
  C       3.237963     -0.235437     -3.436379
  O       3.146997     -1.595792     -3.937630
  P       1.957685     -2.010603     -4.901191
  O       0.591690     -1.788405     -4.313694
  O       2.240665     -1.206515     -6.227569
  C       1.334466     -1.310618     -7.365270
  O       2.258215     -3.514423     -5.271006
  C       1.962555     -4.589351     -4.336991
  H       4.092739     -0.223424     -2.760243
  H       2.327507      0.033713     -2.888724
  H       3.407208      0.457992     -4.264672
  H       1.708088     -0.602134     -8.103382
  H       0.317909     -1.043079     -7.064014
  H       1.364691     -2.325990     -7.768633
  H       2.620378     -4.515856     -3.466184
  H       2.165198     -5.513363     -4.877280
  H       0.911395     -4.551483     -4.037576
35
Coordinates from ORCA-job TMP_m1_shell2_oxidized_opt_relaxed E -1530.908395635431
  C       1.932493     -1.909941     -0.104706
  O       1.492396     -0.533496      0.060440
  P      -0.037649     -0.139533     -0.109508
  O      -0.590986     -0.411115     -1.482108
  O      -0.761718     -0.933850      1.050434
  C      -2.199343     -0.814222      1.285601
  O      -0.107585      1.369697      0.337638
  C       0.304199      2.450467     -0.548757
  H       3.013018     -1.898148      0.036402
  H       1.685482     -2.264744     -1.111947
  H       1.461408     -2.548027      0.651469
  H      -2.430527     -1.535992      2.067539
  H      -2.747611     -1.050743      0.367072
  H      -2.433633      0.201975      1.621962
  H       1.387523      2.401416     -0.705306
  H       0.044015      3.372514     -0.030813
  H      -0.232597      2.385995     -1.501453
  Li     -0.537406     -1.116024     -3.126087
  C       3.356118     -0.173626     -3.628516
  O       3.177893     -1.561939     -4.024266
  P       1.960459     -1.999556     -4.947171
  O       0.609607     -1.779691     -4.322564
  O       2.199525     -1.195459     -6.286971
  C       1.318845     -1.344550     -7.444216
  O       2.269980     -3.499517     -5.319662
  C       1.995006     -4.590793     -4.394317
  H       4.218443     -0.159965     -2.962377
  H       2.464222      0.186532     -3.102670
  H       3.552566      0.444103     -4.512175
  H       1.669011     -0.617703     -8.175532
  H       0.284153     -1.131917     -7.154103
  H       1.405019     -2.360798     -7.844219
  H       2.663657     -4.513567     -3.529588
  H       2.203628     -5.505942     -4.946671
  H       0.945579     -4.567066     -4.080778
35
Coordinates from ORCA-job TMP_m1_shell2_oxidized_opt_relaxed E -1530.912833879227
  C       2.081502     -1.618934      0.071596
  O       1.489563     -0.290055      0.117488
  P      -0.071371     -0.042664     -0.085186
  O      -0.573192     -0.393482     -1.460856
  O      -0.725496     -0.907462      1.074965
  C      -2.156033     -0.911390      1.384937
  O      -0.294211      1.448239      0.354778
  C      -0.016328      2.588641     -0.518350
  H       3.151067     -1.476718      0.219250
  H       1.877208     -2.076207     -0.904433
  H       1.662769     -2.240992      0.873048
  H      -2.287779     -1.671685      2.152403
  H      -2.723251     -1.158042      0.478656
  H      -2.450543      0.077717      1.758235
  H       1.065777      2.660872     -0.676642
  H      -0.376215      3.464040      0.019343
  H      -0.547449      2.477293     -1.469937
  Li     -0.494060     -1.113614     -3.110722
  C       3.594961     -0.458446     -3.653855
  O       3.222559     -1.803987     -4.065037
  P       1.957285     -2.096339     -4.988756
  O       0.638143     -1.796089     -4.328820
  O       2.248670     -1.224843     -6.281681
  C       1.418296     -1.248474     -7.488210
  O       2.151442     -3.585139     -5.454980
  C       1.789190     -4.734559     -4.627602
  H       4.456371     -0.572131     -2.997371
  H       2.754723      0.008473     -3.125576
  H       3.860007      0.137954     -4.536539
  H       1.832225     -0.484369     -8.143273
  H       0.379852     -1.019957     -7.218789
  H       1.480489     -2.239204     -7.954893
  H       2.458681     -4.774279     -3.760211
  H       1.938038     -5.609079     -5.258475
  H       0.742300     -4.660315     -4.312431
35
Coordinates from ORCA-job TMP_m1_shell2_oxidized_opt_relaxed E -1530.917189367641
  C       2.037981     -1.548782      0.510834
  O       1.420941     -0.240270      0.360484
  P      -0.121395     -0.014978      0.018704
  O      -0.491720     -0.403125     -1.388168
  O      -0.842656     -0.904777      1.125770
  C      -2.264729     -0.881927      1.457264
  O      -0.410821      1.460772      0.433661
  C      -0.146869      2.639158     -0.404900
  H       3.087339     -1.359200      0.727532
  H       1.911165     -2.115629     -0.420398
  H       1.558514     -2.087734      1.335855
  H      -2.407488     -1.685266      2.176373
  H      -2.845778     -1.044257      0.541267
  H      -2.516090      0.094097      1.887577
  H       0.934996      2.764322     -0.500717
  H      -0.578359      3.478221      0.137269
  H      -0.623370      2.519676     -1.380183
  Li     -0.362034     -1.121903     -3.056200
  C       3.868711     -0.526323     -4.000643
  O       3.341435     -1.852802     -4.280362
  P       1.997507     -2.126089     -5.097713
  O       0.748620     -1.794641     -4.326350
  O       2.204998     -1.231451     -6.394778
  C       1.388560     -1.270857     -7.608205
  O       2.133695     -3.602818     -5.592968
  C       1.781725     -4.790014     -4.804831
  H       4.762236     -0.682265     -3.399658
  H       3.109691      0.056374     -3.463624
  H       4.113332     -0.024793     -4.944172
  H       1.765214     -0.465685     -8.234822
  H       0.338161     -1.116777     -7.335038
  H       1.510596     -2.246069     -8.091433
  H       2.489850     -4.881796     -3.975917
  H       1.886500     -5.629942     -5.488640
  H       0.754735     -4.707675     -4.440796
35
Coordinates from ORCA-job TMP_m1_shell2_oxidized_opt_relaxed E -1530.920431123152
  C       1.983843     -1.438216      0.957502
  O       1.352856     -0.174241      0.618055
  P      -0.158000     -0.005485      0.135563
  O      -0.375189     -0.420821     -1.293818
  O      -0.934906     -0.930818      1.174049
  C      -2.346888     -0.865035      1.525243
  O      -0.544949      1.449694      0.511569
  C      -0.316560      2.653908     -0.306476
  H       3.006961     -1.191018      1.232647
  H       1.943109     -2.107588      0.089883
  H       1.447995     -1.899241      1.794115
  H      -2.521629     -1.715827      2.179812
  H      -2.947266     -0.921166      0.609335
  H      -2.543201      0.085827      2.032800
  H       0.755828      2.856896     -0.333442
  H      -0.842787      3.450037      0.216257
  H      -0.726792      2.502396     -1.306164
  Li     -0.180009     -1.116550     -2.984511
  C       4.157748     -0.637686     -4.375856
  O       3.475523     -1.914295     -4.502596
  P       2.057837     -2.133240     -5.203533
  O       0.900469     -1.768810     -4.315718
  O       2.184058     -1.214918     -6.492633
  C       1.378870     -1.290080     -7.708392
  O       2.098566     -3.597228     -5.729863
  C       1.727127     -4.804015     -4.975925
  H       5.071862     -0.846686     -3.824384
  H       3.507717      0.069244     -3.846487
  H       4.377882     -0.244008     -5.374319
  H       1.697573     -0.445492     -8.314973
  H       0.318539     -1.223360     -7.440475
  H       1.576334     -2.243857     -8.208034
  H       2.473611     -4.970235     -4.195611
  H       1.751914     -5.610089     -5.706431
  H       0.727149     -4.683226     -4.555113
35
Coordinates from ORCA-job TMP_m1_shell2_oxidized_opt_relaxed E -1530.922939324323
  C       1.908771     -1.342103      1.371723
  O       1.286096     -0.131468      0.865843
  P      -0.178976     -0.027792      0.249860
  O      -0.236085     -0.453685     -1.189402
  O      -1.013734     -0.980083      1.210164
  C      -2.418082     -0.848959      1.563511
  O      -0.658211      1.411134      0.568408
  C      -0.448529      2.617772     -0.249834
  H       2.902021     -1.043578      1.700850
  H       1.955212     -2.094539      0.575944
  H       1.315822     -1.734780      2.203839
  H      -2.654502     -1.734650      2.149452
  H      -3.025004     -0.793131      0.652570
  H      -2.554600      0.067610      2.147428
  H       0.606820      2.892087     -0.201600
  H      -1.065851      3.381098      0.219731
  H      -0.774131      2.421953     -1.272872
  Li      0.031714     -1.110554     -2.900651
  C       4.407783     -0.739416     -4.743972
  O       3.605509     -1.949133     -4.712491
  P       2.129411     -2.107630     -5.296014
  O       1.075401     -1.726503     -4.296779
  O       2.166664     -1.172973     -6.572620
  C       1.354863     -1.305663     -7.776746
  O       2.067834     -3.562964     -5.837741
  C       1.672121     -4.766359     -5.092328
  H       5.334660     -0.990311     -4.232178
  H       3.871045      0.073732     -4.241443
  H       4.593090     -0.455169     -5.785133
  H       1.593214     -0.433146     -8.381391
  H       0.294232     -1.328699     -7.505697
  H       1.627371     -2.233203     -8.289347
  H       2.455133     -5.002620     -4.368536
  H       1.597338     -5.548526     -5.845331
  H       0.710773     -4.592975     -4.605145
35
Coordinates from ORCA-job TMP_m1_shell2_oxidized_opt_relaxed E -1530.924749962836
  C       1.791888     -1.325478      1.711999
  O       1.214358     -0.149709      1.085177
  P      -0.193738     -0.078454      0.349301
  O      -0.097253     -0.494060     -1.088824
  O      -1.105823     -1.038099      1.216875
  C      -2.501372     -0.808135      1.555034
  O      -0.723767      1.358890      0.608065
  C      -0.475202      2.552270     -0.211870
  H       2.762944     -1.008944      2.088301
  H       1.894695     -2.131411      0.976374
  H       1.141886     -1.658629      2.526987
  H      -2.834783     -1.713573      2.058843
  H      -3.087795     -0.622166      0.648926
  H      -2.570994      0.059416      2.219419
  H       0.561717      2.864847     -0.072779
  H      -1.159058      3.305049      0.175910
  H      -0.694443      2.323288     -1.256647
  Li      0.244019     -1.097931     -2.816165
  C       4.579141     -0.774981     -5.096337
  O       3.711510     -1.921415     -4.900169
  P       2.194756     -2.049240     -5.371186
  O       1.246232     -1.667746     -4.273627
  O       2.125029     -1.120049     -6.641460
  C       1.290184     -1.344831     -7.816586
  O       2.057674     -3.509559     -5.896375
  C       1.684932     -4.692677     -5.114802
  H       5.518061     -1.031352     -4.608922
  H       4.128453      0.119601     -4.650824
  H       4.722853     -0.608385     -6.168993
  H       1.420418     -0.460984     -8.438354
  H       0.243323     -1.464434     -7.521595
  H       1.638299     -2.242234     -8.335717
  H       2.520470     -4.964206     -4.465293
  H       1.504785     -5.472315     -5.852788
  H       0.781789     -4.477594     -4.539824
35
Coordinates from ORCA-job TMP_m1_shell2_oxidized_opt_relaxed E -1530.925815285288
  C       1.757547     -1.184880      1.942764
  O       1.157716     -0.075348      1.222871
  P      -0.210251     -0.111306      0.413985
  O       0.014400     -0.528938     -1.008639
  O      -1.124722     -1.104354      1.229170
  C      -2.520616     -0.859057      1.570092
  O      -0.839093      1.304098      0.604280
  C      -0.582097      2.484801     -0.223460
  H       2.700332     -0.806314      2.334153
  H       1.925539     -2.029297      1.264262
  H       1.091470     -1.493733      2.755038
  H      -2.882333     -1.784121      2.016372
  H      -3.098558     -0.608038      0.675044
  H      -2.576874     -0.036001      2.289720
  H       0.414941      2.868994      0.005861
  H      -1.345731      3.205482      0.063844
  H      -0.675158      2.216390     -1.278385
  Li      0.420735     -1.093248     -2.739801
  C       4.732902     -0.936433     -5.315446
  O       3.776279     -1.982001     -5.007535
  P       2.236736     -2.009314     -5.415193
  O       1.380998     -1.623724     -4.245675
  O       2.139097     -1.051066     -6.653660
  C       1.283328     -1.278827     -7.818179
  O       1.989062     -3.455219     -5.960776
  C       1.615156     -4.625549     -5.168957
  H       5.660330     -1.231142     -4.827060
  H       4.375807      0.028588     -4.936646
  H       4.863181     -0.872495     -6.401508
  H       1.370037     -0.378053     -8.423607
  H       0.245882     -1.433747     -7.508651
  H       1.650537     -2.148551     -8.368976
  H       2.487834     -4.966751     -4.605027
  H       1.312743     -5.378447     -5.895090
  H       0.788037     -4.367622     -4.503112
35
Coordinates from ORCA-job TMP_m1_shell2_oxidized_opt_relaxed E -1530.905938812024
  C       1.793545     -0.689827      2.383185
  O       1.063250      0.225555      1.481175
  P      -0.232506     -0.119056      0.536158
  O       0.240717     -0.573446     -0.861701
  O      -1.078872     -1.225167      1.289577
  C      -2.485630     -1.111463      1.619732
  O      -1.151920      1.199088      0.596847
  C      -0.967360      2.384651     -0.240745
  H       2.656942     -0.114081      2.799978
  H       2.132439     -1.600777      1.823164
  H       1.126644     -0.985214      3.183347
  H      -2.800528     -2.094866      2.001073
  H      -3.046528     -0.838302      0.729926
  H      -2.610844     -0.355659      2.396373
  H      -0.057580      2.961945      0.126515
  H      -1.914559      2.985288     -0.091793
  H      -0.844389      2.047533     -1.313781
  Li      0.763076     -1.074099     -2.602536
  C       5.101617     -1.449273     -5.656872
  O       3.914273     -2.262610     -5.213194
  P       2.325725     -1.991534     -5.501299
  O       1.649191     -1.550800     -4.192944
  O       2.250236     -0.942465     -6.664349
  C       1.343090     -1.018023     -7.805991
  O       1.778500     -3.364286     -6.142645
  C       1.329847     -4.527927     -5.385840
  H       5.993233     -1.910478     -5.188987
  H       4.968016     -0.356130     -5.348892
  H       5.208457     -1.516787     -6.750857
  H       1.444837     -0.076329     -8.350791
  H       0.329520     -1.141185     -7.457546
  H       1.641799     -1.840780     -8.440797
  H       2.240562     -5.064799     -4.968074
  H       0.792823     -5.177451     -6.140688
  H       0.637571     -4.176472     -4.564655
35
Coordinates from ORCA-job TMP_m1_shell2_oxidized_opt_relaxed E -1530.925595454671
  C       1.752607     -0.768005      2.259545
  O       1.062865      0.167129      1.400814
  P      -0.225488     -0.148549      0.496872
  O       0.220347     -0.579001     -0.881820
  O      -1.066414     -1.235683      1.257844
  C      -2.475401     -1.083689      1.611217
  O      -1.092950      1.178271      0.555688
  C      -0.855364      2.345521     -0.284604
  H       2.624171     -0.231091      2.641779
  H       2.046418     -1.652777      1.694145
  H       1.089355     -1.064258      3.069848
  H      -2.797708     -2.056204      1.986012
  H      -3.046460     -0.794995      0.731401
  H      -2.576186     -0.332058      2.397258
  H       0.038366      2.866135      0.065061
  H      -1.732850      2.968737     -0.155250
  H      -0.738817      2.043152     -1.330745
  Li      0.735713     -1.073168     -2.612069
  C       4.974061     -1.381527     -5.591438
  O       3.863817     -2.192744     -5.149284
  P       2.308053     -1.955530     -5.466614
  O       1.620029     -1.543624     -4.189756
  O       2.242028     -0.924110     -6.633391
  C       1.342877     -1.042863     -7.789272
  O       1.801594     -3.336136     -6.076999
  C       1.389101     -4.484320     -5.287181
  H       5.853590     -1.791257     -5.092005
  H       4.803391     -0.334480     -5.327735
  H       5.073669     -1.461644     -6.674193
  H       1.433088     -0.104414     -8.333393
  H       0.320695     -1.184658     -7.450533
  H       1.669685     -1.868621     -8.417366
  H       2.277450     -4.966771     -4.867893
  H       0.891618     -5.151526     -5.985898
  H       0.708243     -4.170470     -4.487971
35
Coordinates from ORCA-job TMP_m1_shell2_oxidized_opt_relaxed E -1530.908149159298
  C       1.703463     -1.059712      2.049074
  O       1.091062     -0.004389      1.183474
  P      -0.243544     -0.160772      0.391483
  O       0.028806     -0.584351     -0.984095
  O      -1.082599     -1.176241      1.222809
  C      -2.470548     -0.911774      1.675040
  O      -0.943301      1.212077      0.515620
  C      -0.642380      2.374487     -0.311959
  H       2.619990     -0.628327      2.376347
  H       1.874679     -2.009392      1.460759
  H       1.058118     -1.285278      2.953754
  H      -2.785329     -1.872977      2.080333
  H      -3.127365     -0.592979      0.815649
  H      -2.470247     -0.114527      2.471020
  H       0.302570      2.839111      0.039632
  H      -1.496821      3.054309     -0.148462
  H      -0.568904      2.071496     -1.375362
  Li      0.470237     -1.103729     -2.711209
  C       4.781246     -1.084873     -5.452239
  O       3.721911     -2.038952     -4.983727
  P       2.216018     -1.962340     -5.398405
  O       1.409933     -1.592331     -4.231809
  O       2.179841     -0.965336     -6.592510
  C       1.370929     -1.174650     -7.811344
  O       1.894489     -3.369209     -5.970196
  C       1.548564     -4.535536     -5.170816
  H       5.650548     -1.394302     -4.911456
  H       4.497524     -0.004483     -5.215293
  H       4.972219     -1.188981     -6.585421
  H       1.460618     -0.215979     -8.341886
  H       0.300690     -1.392054     -7.543932
  H       1.810294     -2.016200     -8.412314
  H       2.457854     -4.948795     -4.710334
  H       1.128704     -5.245407     -5.886426
  H       0.815923     -4.262827     -4.403727
35
Coordinates from ORCA-job TMP_m1_shell2_oxidized_opt_relaxed E -1530.925654761399
  C       1.700533     -0.942131      2.207326
  O       1.073008      0.063523      1.340925
  P      -0.234021     -0.147469      0.459764
  O       0.151429     -0.572911     -0.924680
  O      -1.115865     -1.186875      1.236837
  C      -2.524260     -0.975595      1.600721
  O      -0.997446      1.213730      0.548888
  C      -0.693020      2.380909     -0.270385
  H       2.598003     -0.477262      2.596833
  H       1.947808     -1.847045      1.621011
  H       1.008855     -1.198418      3.042194
  H      -2.864484     -1.921017      1.995858
  H      -3.104277     -0.690482      0.726444
  H      -2.587335     -0.201095      2.358856
  H       0.224528      2.858354      0.104192
  H      -1.553388      3.044051     -0.141031
  H      -0.578488      2.084960     -1.323895
  Li      0.639946     -1.089676     -2.646216
  C       4.879117     -1.210968     -5.559921
  O       3.825853     -2.093628     -5.114150
  P       2.272031     -1.963367     -5.449077
  O       1.538453     -1.582345     -4.198204
  O       2.172569     -0.956055     -6.642042
  C       1.282738     -1.125152     -7.804568
  O       1.873645     -3.365068     -6.035647
  C       1.544345     -4.530272     -5.230979
  H       5.789191     -1.550212     -5.073509
  H       4.651820     -0.189895     -5.275919
  H       4.962564     -1.286778     -6.659874
  H       1.353620     -0.187118     -8.353325
  H       0.252652     -1.300275     -7.471955
  H       1.645303     -1.958015     -8.412800
  H       2.470490     -4.965549     -4.819942
  H       1.072883     -5.226754     -5.930864
  H       0.856390     -4.249324     -4.418794
35
Coordinates from ORCA-job TMP_m1_shell2_oxidized_opt_relaxed E -1530.910539270388
  C       1.799111     -0.743681      2.057635
  O       1.089334      0.188493      1.323906
  P      -0.229671     -0.125901      0.475484
  O       0.164160     -0.556411     -0.911395
  O      -1.029497     -1.246658      1.242082
  C      -2.433542     -1.126864      1.641969
  O      -1.100131      1.202431      0.602446
  C      -0.928492      2.412013     -0.224393
  H       2.683958     -0.199411      2.441500
  H       2.062645     -1.541816      1.443070
  H       1.180186     -1.109790      2.814909
  H      -2.715656     -2.155808      1.981662
  H      -3.035099     -0.790621      0.756736
  H      -2.523008     -0.388133      2.488882
  H      -0.024397      2.932217      0.061717
  H      -1.787756      3.038860     -0.038082
  H      -0.889101      2.128871     -1.249614
  Li      0.660215     -1.070759     -2.631963
  C       4.992400     -1.394678     -5.496322
  O       3.832533     -2.232768     -5.057983
  P       2.286665     -1.985059     -5.425397
  O       1.558870     -1.555399     -4.185461
  O       2.273931     -0.954575     -6.588448
  C       1.397635     -1.019866     -7.764952
  O       1.797474     -3.373964     -6.057328
  C       1.334220     -4.543575     -5.299821
  H       5.865494     -1.835376     -4.980440
  H       4.808741     -0.292764     -5.236213
  H       5.152483     -1.471125     -6.571223
  H       1.541220     -0.086604     -8.290914
  H       0.379952     -1.123795     -7.441498
  H       1.691616     -1.846925     -8.393511
  H       2.178016     -5.015682     -4.823418
  H       0.886473     -5.223600     -6.006031
  H       0.614210     -4.236502     -4.575516
35
Coordinates from ORCA-job TMP_m1_shell2_oxidized_opt_relaxed E -1530.924130861738
  C       1.802363     -0.772952      2.193480
  O       1.084329      0.180492      1.327249
  P      -0.230964     -0.134826      0.454523
  O       0.166774     -0.581172     -0.927688
  O      -1.047427     -1.216823      1.243947
  C      -2.453396     -1.084066      1.635732
  O      -1.084324      1.201108      0.541819
  C      -0.857405      2.384899     -0.291491
  H       2.685082     -0.227364      2.574388
  H       2.086479     -1.687758      1.614211
  H       1.159934     -1.066502      3.021510
  H      -2.738187     -2.079539      2.007183
  H      -3.049504     -0.788205      0.756870
  H      -2.544306     -0.327917      2.439594
  H       0.049270      2.884636      0.034805
  H      -1.714577      3.026560     -0.137876
  H      -0.780916      2.089785     -1.330686
  Li      0.655964     -1.093262     -2.648908
  C       4.911055     -1.357510     -5.486354
  O       3.816272     -2.204788     -5.077694
  P       2.277878     -1.987247     -5.446202
  O       1.546157     -1.584172     -4.204190
  O       2.246280     -0.942574     -6.603191
  C       1.370928     -1.016993     -7.781894
  O       1.820132     -3.369273     -6.084888
  C       1.398221     -4.549153     -5.328336
  H       5.777171     -1.764382     -4.962410
  H       4.695373     -0.308261     -5.228592
  H       5.055133     -1.413344     -6.556480
  H       1.491935     -0.057684     -8.289082
  H       0.338728     -1.161134     -7.457105
  H       1.701055     -1.836232     -8.429309
  H       2.262704     -5.011635     -4.871808
  H       0.953192     -5.225732     -6.039857
  H       0.683785     -4.262205     -4.579196
35
Coordinates from ORCA-job TMP_m1_shell2_oxidized_opt_relaxed E -1530.915254229481
  C       1.627553     -0.961934      2.190794
  O       1.038417      0.041392      1.370598
  P      -0.247625     -0.147474      0.473034
  O       0.163551     -0.561465     -0.903553
  O      -1.152786     -1.166984      1.244909
  C      -2.566459     -0.959249      1.592061
  O      -0.984628      1.207408      0.540468
  C      -0.604020      2.357342     -0.251355
  H       2.515138     -0.546224      2.563104
  H       1.852568     -1.827847      1.606514
  H       0.899950     -1.226136      3.008820
  H      -2.908988     -1.876815      1.991931
  H      -3.129511     -0.697743      0.729480
  H      -2.637733     -0.191170      2.317394
  H       0.303018      2.811383      0.193720
  H      -1.465786      3.029319     -0.159879
  H      -0.420700      2.063956     -1.321652
  Li      0.671464     -1.079994     -2.616517
  C       4.882344     -1.195889     -5.643288
  O       3.837058     -2.071372     -5.141593
  P       2.269679     -1.957841     -5.436964
  O       1.558728     -1.583136     -4.165771
  O       2.140628     -0.964364     -6.640528
  C       1.233493     -1.140399     -7.792323
  O       1.866232     -3.354393     -6.005645
  C       1.620870     -4.502840     -5.171903
  H       5.791972     -1.493606     -5.162875
  H       4.654281     -0.169313     -5.399353
  H       4.944117     -1.334258     -6.772319
  H       1.289634     -0.203222     -8.338588
  H       0.204060     -1.325713     -7.450929
  H       1.600665     -1.970198     -8.399635
  H       2.612601     -4.926336     -4.842793
  H       1.092229     -5.207242     -5.855322
  H       0.983175     -4.212867     -4.267970
35
Coordinates from ORCA-job TMP_m1_shell2_oxidized_opt_relaxed E -1530.926059405699
  C       1.701520     -0.892245      2.197488
  O       1.051686      0.092081      1.354197
  P      -0.246404     -0.147329      0.455420
  O       0.166732     -0.566029     -0.925290
  O      -1.126504     -1.203694      1.216613
  C      -2.536479     -1.000747      1.594042
  O      -1.033404      1.203281      0.543310
  C      -0.701654      2.387014     -0.243900
  H       2.593515     -0.407560      2.590816
  H       1.962891     -1.780147      1.609374
  H       1.014396     -1.175356      3.010884
  H      -2.873659     -1.985658      1.943184
  H      -3.125321     -0.660619      0.715932
  H      -2.584709     -0.248566      2.406558
  H       0.203191      2.860798      0.170922
  H      -1.566906      3.045882     -0.130377
  H      -0.545980      2.109560     -1.300134
  Li      0.668892     -1.086961     -2.636039
  C       4.892838     -1.260294     -5.584227
  O       3.830019     -2.120861     -5.124919
  P       2.269231     -1.970060     -5.446065
  O       1.551075     -1.590713     -4.185490
  O       2.174014     -0.960930     -6.634018
  C       1.271086     -1.096650     -7.792728
  O       1.850656     -3.366657     -6.039968
  C       1.554368     -4.536932     -5.231486
  H       5.816078     -1.600253     -5.112713
  H       4.681541     -0.233707     -5.305893
  H       4.951200     -1.352318     -6.681015
  H       1.358033     -0.162078     -8.330610
  H       0.249368     -1.248807     -7.455554
  H       1.606348     -1.925950     -8.405146
  H       2.495159     -4.959826     -4.853013
  H       1.073204     -5.233944     -5.915714
  H       0.889170     -4.268951     -4.392366
35
Coordinates from ORCA-job TMP_m1_shell2_oxidized_opt_relaxed E -1530.910905117793
  C       1.826218     -0.681227      2.169205
  O       1.080584      0.243838      1.303213
  P      -0.225404     -0.128419      0.453288
  O       0.175332     -0.582451     -0.909458
  O      -0.992512     -1.215339      1.262135
  C      -2.399076     -1.174703      1.636446
  O      -1.118109      1.193008      0.518597
  C      -0.925446      2.384296     -0.327527
  H       2.702785     -0.096874      2.530898
  H       2.120747     -1.595382      1.599721
  H       1.217926     -0.985516      3.001008
  H      -2.636310     -2.095870      2.083703
  H      -2.955802     -1.023121      0.790752
  H      -2.567477     -0.412954      2.321741
  H      -0.046214      2.903361     -0.017967
  H      -1.781942      3.011705     -0.196756
  H      -0.846511      2.090980     -1.335952
  Li      0.661116     -1.087419     -2.621918
  C       4.936282     -1.454505     -5.469630
  O       3.778117     -2.261574     -5.027605
  P       2.256647     -1.977624     -5.411673
  O       1.533112     -1.579118     -4.177009
  O       2.273562     -0.908607     -6.536404
  C       1.415898     -0.937245     -7.732591
  O       1.759922     -3.341023     -6.088392
  C       1.314760     -4.547391     -5.366191
  H       5.788069     -1.901498     -4.931396
  H       4.765759     -0.342458     -5.241721
  H       5.107373     -1.544974     -6.531195
  H       1.553850      0.053258     -8.195417
  H       0.371264     -1.091968     -7.421661
  H       1.758706     -1.740030     -8.416007
  H       2.166469     -5.054275     -4.932503
  H       0.836339     -5.198036     -6.085761
  H       0.629157     -4.266072     -4.613899
35
Coordinates from ORCA-job TMP_m1_shell2_oxidized_opt_relaxed E -1530.926244276008
  C       1.735866     -0.821773      2.194111
  O       1.067732      0.148780      1.350806
  P      -0.237763     -0.128767      0.461999
  O       0.177590     -0.569600     -0.917772
  O      -1.086032     -1.199436      1.235765
  C      -2.495562     -1.052853      1.616249
  O      -1.064589      1.215839      0.543281
  C      -0.770352      2.406741     -0.255441
  H       2.625644     -0.318773      2.565622
  H       1.985383     -1.711353      1.613004
  H       1.074119     -1.108716      3.015785
  H      -2.797093     -2.029444      1.994056
  H      -3.083961     -0.762884      0.741050
  H      -2.577950     -0.293484      2.400045
  H       0.132644      2.883298      0.132129
  H      -1.629274      3.061406     -0.130336
  H      -0.641760      2.127362     -1.304312
  Li      0.674985     -1.094554     -2.625957
  C       4.896523     -1.318563     -5.549041
  O       3.820054     -2.171520     -5.093995
  P       2.269655     -1.986271     -5.439608
  O       1.548562     -1.604053     -4.178081
  O       2.202011     -0.945019     -6.602893
  C       1.317373     -1.045643     -7.778358
  O       1.831168     -3.372469     -6.072564
  C       1.491815     -4.567330     -5.302084
  H       5.761240     -1.688768     -5.012412
  H       4.663910     -0.263044     -5.332525
  H       5.039185     -1.409891     -6.628093
  H       1.398148     -0.061376     -8.271186
  H       0.278772     -1.242274     -7.447071
  H       1.689222     -1.854399     -8.437040
  H       2.410565     -5.015926     -4.904243
  H       1.015092     -5.250069     -6.008255
  H       0.812269     -4.300396     -4.490564
35
Coordinates from ORCA-job TMP_m1_shell2_oxidized_opt_relaxed E -1530.911883660582
  C       1.698499     -0.790178      2.221509
  O       1.028549      0.157959      1.328235
  P      -0.249961     -0.151225      0.444109
  O       0.186569     -0.570897     -0.917049
  O      -1.079376     -1.229648      1.217137
  C      -2.493206     -1.092976      1.603409
  O      -1.084620      1.163108      0.502976
  C      -0.777943      2.349016     -0.284661
  H       2.569430     -0.279018      2.599091
  H       1.984575     -1.712081      1.668646
  H       1.007187     -1.047602      3.066752
  H      -2.782738     -2.070228      1.969803
  H      -3.095154     -0.800994      0.734334
  H      -2.578456     -0.344298      2.397670
  H       0.095690      2.857922      0.141369
  H      -1.663510      2.978234     -0.199323
  H      -0.592922      2.071678     -1.328476
  Li      0.713472     -1.084735     -2.618198
  C       4.954926     -1.379627     -5.643957
  O       3.839029     -2.185597     -5.126859
  P       2.280449     -1.967203     -5.433814
  O       1.586361     -1.580343     -4.168029
  O       2.235775     -0.963383     -6.615751
  C       1.301347     -0.988234     -7.749745
  O       1.799500     -3.340714     -6.024046
  C       1.479475     -4.492661     -5.212238
  H       5.885096     -1.726593     -5.194611
  H       4.798923     -0.330919     -5.390741
  H       4.977821     -1.538917     -6.768566
  H       1.480439     -0.151550     -8.313005
  H       0.345273     -0.971447     -7.411037
  H       1.468618     -1.815064     -8.316026
  H       2.397984     -4.924947     -4.851838
  H       0.983461     -5.173139     -5.871130
  H       0.834628     -4.218924     -4.373868
35
Coordinates from ORCA-job TMP_m1_shell2_oxidized_opt_relaxed E -1530.926511707254
  C       1.717043     -0.812561      2.179063
  O       1.042666      0.146969      1.327274
  P      -0.252320     -0.141049      0.445019
  O       0.164996     -0.571511     -0.923334
  O      -1.092525     -1.209219      1.222005
  C      -2.502502     -1.052789      1.618263
  O      -1.071687      1.192784      0.518471
  C      -0.754748      2.386265     -0.264050
  H       2.601039     -0.302331      2.570353
  H       1.993806     -1.705935      1.599882
  H       1.041221     -1.097171      2.996225
  H      -2.797601     -2.028326      1.991682
  H      -3.103968     -0.760311      0.752024
  H      -2.574908     -0.295430      2.406197
  H       0.134226      2.871056      0.154179
  H      -1.624251      3.034008     -0.161455
  H      -0.591119      2.114913     -1.308877
  Li      0.673899     -1.094707     -2.624433
  C       4.911763     -1.341431     -5.564323
  O       3.817775     -2.173363     -5.099403
  P       2.260831     -1.977509     -5.427290
  O       1.545871     -1.605357     -4.169206
  O       2.196389     -0.940515     -6.590718
  C       1.299432     -1.025251     -7.759180
  O       1.816799     -3.355043     -6.056028
  C       1.515024     -4.547910     -5.277339
  H       5.852279     -1.699431     -5.118917
  H       4.733581     -0.309422     -5.272774
  H       4.942743     -1.441505     -6.661211
  H       1.405592     -0.069718     -8.265262
  H       0.266823     -1.176927     -7.428284
  H       1.631945     -1.844925     -8.402353
  H       2.451633     -4.990688     -4.915023
  H       1.021954     -5.226751     -5.972344
  H       0.861488     -4.294132     -4.436759
35
Coordinates from ORCA-job TMP_m1_shell2_oxidized_opt_relaxed E -1530.918079396908
  C       1.623314     -0.938678      2.321814
  O       1.034794      0.064703      1.448328
  P      -0.245317     -0.138199      0.468235
  O       0.239271     -0.562440     -0.921040
  O      -1.198016     -1.179928      1.175519
  C      -2.608423     -0.959222      1.498524
  O      -1.018300      1.242464      0.536659
  C      -0.566684      2.423006     -0.186795
  H       2.523410     -0.485242      2.723442
  H       1.857312     -1.828267      1.743253
  H       0.924697     -1.195793      3.115345
  H      -2.993331     -1.930373      1.836689
  H      -3.137899     -0.618630      0.615396
  H      -2.664360     -0.217847      2.287477
  H       0.321590      2.816288      0.315578
  H      -1.392750      3.117160     -0.111475
  H      -0.332724      2.175403     -1.248007
  Li      0.749808     -1.100224     -2.618528
  C       4.833872     -1.193416     -5.714200
  O       3.831800     -2.064894     -5.149233
  P       2.285060     -1.989467     -5.464769
  O       1.592185     -1.633473     -4.176441
  O       2.118457     -0.980286     -6.648045
  C       1.171961     -1.130075     -7.767348
  O       1.904711     -3.409298     -6.042908
  C       1.681985     -4.597312     -5.224747
  H       5.631384     -1.488202     -5.092317
  H       4.527017     -0.110334     -5.641858
  H       5.063279     -1.338668     -6.768040
  H       1.206458     -0.179839     -8.317838
  H       0.168822     -1.308932     -7.382057
  H       1.507202     -1.953849     -8.393198
  H       2.634243     -4.966547     -4.872389
  H       1.222153     -5.315687     -5.880222
  H       1.038209     -4.369126     -4.382732
35
Coordinates from ORCA-job TMP_m1_shell2_oxidized_opt_relaxed E -1530.925341877133
  C       1.710488     -0.770001      2.207978
  O       1.049826      0.182148      1.329830
  P      -0.238683     -0.137630      0.447597
  O       0.198876     -0.577336     -0.913086
  O      -1.059937     -1.219104      1.221191
  C      -2.467019     -1.082169      1.627861
  O      -1.095702      1.190043      0.505291
  C      -0.809764      2.394321     -0.285423
  H       2.594166     -0.254930      2.551522
  H       1.949998     -1.686327      1.658792
  H       1.058693     -1.031352      3.052084
  H      -2.751946     -2.070791      1.988737
  H      -3.068963     -0.779187      0.764748
  H      -2.544707     -0.337908      2.431979
  H       0.068129      2.892495      0.115455
  H      -1.681626      3.033938     -0.187722
  H      -0.655599      2.121489     -1.315219
  Li      0.716127     -1.097516     -2.611251
  C       4.916788     -1.397445     -5.576603
  O       3.825894     -2.208948     -5.098944
  P       2.275175     -1.984442     -5.430502
  O       1.574687     -1.611936     -4.161044
  O       2.219393     -0.929552     -6.574891
  C       1.308518     -0.969994     -7.730605
  O       1.799401     -3.355468     -6.081138
  C       1.498578     -4.564673     -5.318951
  H       5.774785     -1.777210     -5.027372
  H       4.704202     -0.335956     -5.399181
  H       5.056733     -1.516182     -6.645198
  H       1.431362     -0.014736     -8.230474
  H       0.290751     -1.094168     -7.384837
  H       1.603457     -1.781676     -8.386654
  H       2.456835     -5.043823     -4.996563
  H       0.951331     -5.230629     -6.023534
  H       0.874943     -4.298573     -4.441797
35
Coordinates from ORCA-job TMP_m1_shell2_oxidized_opt_relaxed E -1530.916748615987
  C       1.624843     -0.853104      2.285242
  O       0.989897      0.104601      1.414208
  P      -0.268831     -0.157094      0.468630
  O       0.209790     -0.569281     -0.887116
  O      -1.174226     -1.209759      1.197716
  C      -2.591741     -1.008560      1.554612
  O      -1.063727      1.178428      0.513621
  C      -0.648598      2.372107     -0.208142
  H       2.506757     -0.363030      2.717201
  H       1.920574     -1.752424      1.718499
  H       0.895162     -1.114084      3.079183
  H      -2.936254     -1.971775      1.895914
  H      -3.163747     -0.677405      0.684249
  H      -2.649539     -0.269288      2.350555
  H       0.214527      2.840136      0.312466
  H      -1.529868      3.030083     -0.168077
  H      -0.381883      2.114344     -1.254268
  Li      0.756926     -1.088335     -2.576991
  C       4.981228     -1.309366     -5.750418
  O       3.876870     -2.120469     -5.198152
  P       2.275638     -1.952503     -5.433940
  O       1.607502     -1.603147     -4.129590
  O       2.132344     -0.939866     -6.615537
  C       1.194639     -1.083171     -7.751904
  O       1.839579     -3.337461     -6.025379
  C       1.597253     -4.514821     -5.216423
  H       5.968587     -1.606963     -5.340989
  H       4.810546     -0.269602     -5.515492
  H       4.945643     -1.511935     -6.873777
  H       1.231248     -0.114142     -8.253971
  H       0.164581     -1.299117     -7.388328
  H       1.567473     -1.890891     -8.407431
  H       2.516122     -4.888995     -4.867561
  H       1.152437     -5.206931     -5.853949
  H       0.963440     -4.301404     -4.392587
35
Coordinates from ORCA-job TMP_m1_shell2_oxidized_opt_relaxed E -1530.927032812958
  C       1.678450     -0.797438      2.239342
  O       1.010628      0.148867      1.375397
  P      -0.262481     -0.147964      0.443678
  O       0.204794     -0.573189     -0.917840
  O      -1.130014     -1.219337      1.187561
  C      -2.540186     -1.054265      1.572699
  O      -1.089675      1.187613      0.495860
  C      -0.699230      2.388981     -0.234117
  H       2.558917     -0.281306      2.658468
  H       1.976517     -1.687628      1.668079
  H       0.985096     -1.081619      3.029158
  H      -2.854085     -2.034429      1.919893
  H      -3.123324     -0.735135      0.708717
  H      -2.608563     -0.316795      2.375328
  H       0.167052      2.844260      0.261444
  H      -1.563463      3.044695     -0.171795
  H      -0.457498      2.139331     -1.281538
  Li      0.731457     -1.099356     -2.608665
  C       4.894329     -1.340024     -5.646668
  O       3.824318     -2.155831     -5.119500
  P       2.270705     -1.976283     -5.428295
  O       1.579962     -1.619892     -4.158360
  O       2.184364     -0.940750     -6.585286
  C       1.266981     -1.025709     -7.738626
  O       1.824694     -3.358043     -6.046483
  C       1.559508     -4.560053     -5.264203
  H       5.814677     -1.660389     -5.162164
  H       4.697709     -0.285108     -5.445206
  H       4.945383     -1.505509     -6.742311
  H       1.356723     -0.065357     -8.235990
  H       0.245646     -1.186711     -7.389306
  H       1.592885     -1.834901     -8.394702
  H       2.515202     -5.003230     -4.948016
  H       1.032796     -5.241732     -5.940137
  H       0.944914     -4.310994     -4.394342
35
Coordinates from ORCA-job TMP_m1_shell2_oxidized_opt_relaxed E -1530.923564791248
  C       1.603896     -0.864716      2.310776
  O       1.033783      0.126550      1.397147
  P      -0.240006     -0.125705      0.468918
  O       0.236201     -0.564498     -0.893633
  O      -1.126414     -1.188628      1.205738
  C      -2.533886     -1.010022      1.591776
  O      -1.054200      1.226327      0.516399
  C      -0.706629      2.434790     -0.243453
  H       2.495063     -0.419627      2.643901
  H       1.788337     -1.795874      1.777720
  H       0.919715     -1.074580      3.167168
  H      -2.863367     -2.002165      1.923578
  H      -3.111743     -0.663919      0.725294
  H      -2.590107     -0.278886      2.408805
  H       0.169619      2.885859      0.188080
  H      -1.550490      3.099866     -0.157547
  H      -0.536405      2.181064     -1.269212
  Li      0.771635     -1.096991     -2.582231
  C       4.946600     -1.331429     -5.711589
  O       3.865427     -2.149856     -5.181726
  P       2.281289     -1.984762     -5.454011
  O       1.611158     -1.629317     -4.138220
  O       2.138977     -0.946741     -6.618459
  C       1.193732     -1.040129     -7.745049
  O       1.833114     -3.376181     -6.078127
  C       1.627149     -4.584992     -5.292148
  H       5.841665     -1.689514     -5.197620
  H       4.741030     -0.248645     -5.524935
  H       5.048219     -1.471200     -6.772438
  H       1.249299     -0.066562     -8.250792
  H       0.184893     -1.222003     -7.367248
  H       1.521702     -1.844798     -8.402526
  H       2.601711     -4.981309     -4.986672
  H       1.133028     -5.277019     -5.967910
  H       1.011194     -4.369613     -4.407678
35
Coordinates from ORCA-job TMP_m1_shell2_oxidized_opt_relaxed E -1530.922182030871
  C       1.712625     -0.695202      2.182925
  O       1.038508      0.233232      1.304708
  P      -0.240226     -0.133663      0.436516
  O       0.208395     -0.587083     -0.908233
  O      -1.022043     -1.230035      1.219753
  C      -2.423647     -1.129073      1.657565
  O      -1.141017      1.172244      0.476539
  C      -0.859804      2.399789     -0.285701
  H       2.590103     -0.159353      2.503548
  H       1.945674     -1.612440      1.651659
  H       1.077515     -0.956864      3.035142
  H      -2.672788     -2.110767      2.030882
  H      -3.042608     -0.852987      0.811651
  H      -2.512635     -0.387592      2.450282
  H      -0.010489      2.968936      0.213170
  H      -1.820500      3.009266     -0.255703
  H      -0.603007      2.102453     -1.327646
  Li      0.735323     -1.110125     -2.597436
  C       4.919058     -1.476714     -5.561546
  O       3.818825     -2.255683     -5.091033
  P       2.274280     -1.992070     -5.422169
  O       1.582192     -1.628906     -4.147960
  O       2.244436     -0.913254     -6.543639
  C       1.342549     -0.910834     -7.708209
  O       1.778533     -3.344348     -6.099019
  C       1.461153     -4.570580     -5.364557
  H       5.783329     -1.873449     -5.024822
  H       4.731486     -0.420799     -5.382231
  H       5.037210     -1.598881     -6.620774
  H       1.483812      0.060268     -8.174502
  H       0.319072     -1.035706     -7.370247
  H       1.633507     -1.708122     -8.389731
  H       2.381143     -5.034095     -5.020264
  H       0.963133     -5.222175     -6.067472
  H       0.822094     -4.340615     -4.529372
35
Coordinates from ORCA-job TMP_m1_shell2_oxidized_opt_relaxed E -1530.924900483458
  C       1.678497     -0.758055      2.265156
  O       0.995109      0.165653      1.386214
  P      -0.269063     -0.149194      0.442172
  O       0.211416     -0.572606     -0.915139
  O      -1.134159     -1.232568      1.177673
  C      -2.545177     -1.073950      1.569060
  O      -1.098492      1.172254      0.494560
  C      -0.709254      2.373925     -0.229090
  H       2.567688     -0.202362      2.682582
  H       1.979813     -1.667087      1.709270
  H       0.997233     -1.033502      3.061177
  H      -2.854420     -2.053922      1.913643
  H      -3.138569     -0.751804      0.710212
  H      -2.609781     -0.339820      2.373363
  H       0.144296      2.833317      0.282446
  H      -1.575558      3.020808     -0.178356
  H      -0.452176      2.126748     -1.274354
  Li      0.745741     -1.101012     -2.601267
  C       4.895361     -1.372373     -5.669354
  O       3.823478     -2.175523     -5.120374
  P       2.271103     -1.975330     -5.423650
  O       1.586756     -1.619879     -4.155030
  O       2.198304     -0.933562     -6.573068
  C       1.281595     -1.000232     -7.730016
  O       1.806198     -3.345576     -6.049018
  C       1.557137     -4.553623     -5.274608
  H       5.800859     -1.675891     -5.163173
  H       4.686693     -0.322450     -5.524944
  H       4.958797     -1.587093     -6.786163
  H       1.385310     -0.042798     -8.218491
  H       0.254754     -1.152543     -7.386964
  H       1.599886     -1.809023     -8.391825
  H       2.516397     -4.991617     -4.972826
  H       1.030402     -5.229215     -5.951127
  H       0.949020     -4.315322     -4.396618
35
Coordinates from ORCA-job TMP_m1_shell2_oxidized_opt_relaxed E -1530.927185789998
  C       1.637467     -0.772905      2.294011
  O       1.009085      0.176726      1.386463
  P      -0.258635     -0.130482      0.452230
  O       0.226691     -0.573801     -0.903225
  O      -1.115399     -1.211128      1.198373
  C      -2.521656     -1.063683      1.604315
  O      -1.096639      1.196953      0.491865
  C      -0.732044      2.401695     -0.249576
  H       2.527482     -0.285707      2.668755
  H       1.883847     -1.697042      1.757242
  H       0.936033     -1.002359      3.122399
  H      -2.819334     -2.057594      1.944595
  H      -3.119682     -0.737768      0.745648
  H      -2.587053     -0.331815      2.419452
  H       0.117646      2.862259      0.232258
  H      -1.588531      3.047490     -0.195135
  H      -0.501627      2.151205     -1.280690
  Li      0.769035     -1.104060     -2.586600
  C       4.942615     -1.390715     -5.687347
  O       3.846385     -2.185016     -5.159468
  P       2.275800     -1.981995     -5.441472
  O       1.602970     -1.632784     -4.142009
  O       2.174825     -0.932018     -6.592536
  C       1.237671     -0.993684     -7.731367
  O       1.806554     -3.351731     -6.076463
  C       1.579581     -4.568652     -5.308757
  H       5.843390     -1.741255     -5.179162
  H       4.754605     -0.309453     -5.521419
  H       5.028315     -1.564024     -6.768034
  H       1.326137     -0.023942     -8.222183
  H       0.218433     -1.151297     -7.368154
  H       1.549026     -1.800636     -8.395355
  H       2.548024     -4.992454     -5.015827
  H       1.061535     -5.245839     -5.988649
  H       0.972639     -4.347712     -4.422106
35
Coordinates from ORCA-job TMP_m1_shell2_oxidized_opt_relaxed E -1530.927986279177
  C       1.631322     -0.771245      2.289983
  O       1.000557      0.170077      1.392272
  P      -0.253531     -0.147073      0.447202
  O       0.246860     -0.580155     -0.897556
  O      -1.119228     -1.226500      1.177484
  C      -2.525869     -1.058433      1.583087
  O      -1.105863      1.178798      0.474076
  C      -0.728714      2.403432     -0.239831
  H       2.512996     -0.273921      2.680329
  H       1.897361     -1.687852      1.752563
  H       0.930317     -1.015224      3.098633
  H      -2.842126     -2.044615      1.914643
  H      -3.118928     -0.718953      0.731685
  H      -2.578844     -0.334413      2.398520
  H       0.108813      2.891703      0.281648
  H      -1.620887      3.040975     -0.210429
  H      -0.455439      2.161664     -1.266627
  Li      0.796353     -1.107559     -2.576626
  C       4.921282     -1.402133     -5.714791
  O       3.844242     -2.182436     -5.151981
  P       2.281797     -1.979990     -5.432433
  O       1.621267     -1.634879     -4.133886
  O       2.178484     -0.925963     -6.574787
  C       1.238068     -0.982481     -7.710894
  O       1.808935     -3.351284     -6.065191
  C       1.593172     -4.571313     -5.295515
  H       5.827285     -1.731350     -5.209838
  H       4.734711     -0.334699     -5.564568
  H       4.984801     -1.597339     -6.790042
  H       1.317913     -0.006865     -8.192199
  H       0.226193     -1.149287     -7.341764
  H       1.550110     -1.777734     -8.387391
  H       2.563510     -4.999149     -5.021828
  H       1.060579     -5.246907     -5.961881
  H       1.007693     -4.352124     -4.399992
35
Coordinates from ORCA-job TMP_m1_shell2_oxidized_opt_relaxed E -1530.927992393477
  C       1.607710     -0.747988      2.315635
  O       0.975420      0.183505      1.401749
  P      -0.269502     -0.146768      0.447721
  O       0.251692     -0.581225     -0.891380
  O      -1.134510     -1.230872      1.169233
  C      -2.539710     -1.069497      1.578736
  O      -1.125842      1.176300      0.460510
  C      -0.709267      2.393886     -0.229187
  H       2.493720     -0.226440      2.670469
  H       1.847101     -1.685414      1.800604
  H       0.939338     -0.979192      3.145248
  H      -2.854008     -2.060255      1.898995
  H      -3.130910     -0.720387      0.730984
  H      -2.594031     -0.356297      2.405090
  H       0.113369      2.853082      0.327426
  H      -1.584838      3.036961     -0.217244
  H      -0.397048      2.162737     -1.259600
  Li      0.814671     -1.108680     -2.565880
  C       4.928341     -1.417819     -5.751357
  O       3.849427     -2.181444     -5.163804
  P       2.284204     -1.972389     -5.431479
  O       1.635627     -1.632372     -4.126549
  O       2.173012     -0.915712     -6.570479
  C       1.228632     -0.977401     -7.704276
  O       1.802255     -3.341018     -6.065798
  C       1.607527     -4.565226     -5.298313
  H       5.840288     -1.741731     -5.250581
  H       4.749612     -0.346705     -5.620217
  H       4.978465     -1.639574     -6.828400
  H       1.304821     -0.005089     -8.185015
  H       0.216596     -1.147753     -7.334744
  H       1.543249     -1.772141     -8.381673
  H       2.584767     -4.991229     -5.044850
  H       1.065742     -5.238102     -5.959647
  H       1.039272     -4.352976     -4.389854
35
Coordinates from ORCA-job TMP_m1_shell2_oxidized_opt_relaxed E -1530.928156407989
  C       1.580932     -0.761283      2.334228
  O       0.964569      0.173276      1.414756
  P      -0.271624     -0.147053      0.447636
  O       0.261501     -0.578846     -0.886500
  O      -1.147530     -1.230099      1.157830
  C      -2.548855     -1.054043      1.581985
  O      -1.117684      1.178480      0.455883
  C      -0.690640      2.398350     -0.224099
  H       2.461893     -0.256807      2.748574
  H       1.860303     -1.682236      1.807319
  H       0.857789     -0.992363      3.130533
  H      -2.867435     -2.042964      1.894060
  H      -3.145477     -0.689801      0.741791
  H      -2.589661     -0.347185      2.417962
  H       0.124247      2.849286      0.340236
  H      -1.557866      3.046673     -0.222893
  H      -0.371080      2.168663     -1.247133
  Li      0.832161     -1.107182     -2.557380
  C       4.929704     -1.414011     -5.786968
  O       3.855752     -2.169913     -5.176413
  P       2.285860     -1.968935     -5.431376
  O       1.646804     -1.633999     -4.119459
  O       2.159104     -0.913316     -6.570193
  C       1.209564     -0.984786     -7.700102
  O       1.804619     -3.339288     -6.063712
  C       1.637537     -4.568528     -5.298638
  H       5.837034     -1.727493     -5.273523
  H       4.741933     -0.337906     -5.688504
  H       4.989199     -1.660495     -6.859838
  H       1.276053     -0.014387     -8.180329
  H       0.198507     -1.164237     -7.327793
  H       1.529115     -1.778061     -8.377896
  H       2.624507     -4.986024     -5.066432
  H       1.089017     -5.244055     -5.953454
  H       1.085341     -4.364656     -4.378083
35
Coordinates from ORCA-job TMP_m1_shell2_oxidized_opt_relaxed E -1530.928308857920
  C       1.560440     -0.801307      2.348288
  O       0.971603      0.151164      1.426930
  P      -0.262224     -0.144964      0.444453
  O       0.276477     -0.572821     -0.891369
  O      -1.164108     -1.225373      1.134928
  C      -2.564367     -1.031555      1.550258
  O      -1.095599      1.190201      0.462863
  C      -0.662872      2.425256     -0.198950
  H       2.448119     -0.322132      2.749075
  H       1.807460     -1.731461      1.825221
  H       0.838241     -1.016174      3.151701
  H      -2.905680     -2.020980      1.852347
  H      -3.147687     -0.650282      0.708222
  H      -2.596914     -0.330175      2.387912
  H       0.157735      2.875182      0.367172
  H      -1.533165      3.079288     -0.189226
  H      -0.352372      2.206511     -1.216385
  Li      0.848499     -1.106617     -2.559949
  C       4.919346     -1.374710     -5.816563
  O       3.867932     -2.144667     -5.184900
  P       2.295662     -1.977134     -5.432539
  O       1.658687     -1.642375     -4.119505
  O       2.146942     -0.931509     -6.576887
  C       1.186797     -1.013386     -7.695862
  O       1.830169     -3.359543     -6.050915
  C       1.667864     -4.587076     -5.277985
  H       5.840780     -1.663082     -5.319067
  H       4.720143     -0.303124     -5.712510
  H       4.960447     -1.628674     -6.890184
  H       1.232419     -0.036956     -8.177747
  H       0.184059     -1.207841     -7.310051
  H       1.508843     -1.801332     -8.377055
  H       2.657454     -4.993451     -5.045540
  H       1.120462     -5.276371     -5.922819
  H       1.113598     -4.377753     -4.361287
35
Coordinates from ORCA-job TMP_m1_shell2_oxidized_opt_relaxed E -1530.928451067417
  C       1.528817     -0.840525      2.344956
  O       0.957290      0.124873      1.430105
  P      -0.271580     -0.146775      0.436286
  O       0.269644     -0.574627     -0.895001
  O      -1.195744     -1.213614      1.112963
  C      -2.592251     -0.992684      1.531199
  O      -1.083008      1.200937      0.451287
  C      -0.605309      2.434318     -0.178722
  H       2.421058     -0.372134      2.749812
  H       1.763841     -1.772867      1.818382
  H       0.808397     -1.052610      3.142289
  H      -2.953686     -1.975240      1.826147
  H      -3.169944     -0.594963      0.694402
  H      -2.608662     -0.296292      2.371577
  H       0.208688      2.857270      0.422802
  H      -1.466305      3.104398     -0.182100
  H      -0.265186      2.225177     -1.195882
  Li      0.844680     -1.114304     -2.557917
  C       4.900677     -1.348461     -5.838058
  O       3.861824     -2.121036     -5.194802
  P       2.285537     -1.979052     -5.431795
  O       1.652030     -1.655409     -4.115521
  O       2.109568     -0.937715     -6.577975
  C       1.138874     -1.034568     -7.685825
  O       1.844810     -3.369744     -6.042956
  C       1.744499     -4.596630     -5.262740
  H       5.833697     -1.626478     -5.344984
  H       4.691891     -0.276389     -5.741608
  H       4.937101     -1.607725     -6.899075
  H       1.166151     -0.058220     -8.170748
  H       0.144943     -1.240392     -7.287992
  H       1.462820     -1.819458     -8.368015
  H       2.753505     -4.969776     -5.057619
  H       1.206259     -5.297540     -5.895792
  H       1.210265     -4.406971     -4.325007
35
Coordinates from ORCA-job TMP_m1_shell2_oxidized_opt_relaxed E -1530.928654186716
  C       1.490744     -0.852887      2.365152
  O       0.939167      0.117991      1.443916
  P      -0.279371     -0.144107      0.434968
  O       0.277908     -0.576204     -0.888714
  O      -1.215963     -1.207261      1.096057
  C      -2.606850     -0.976676      1.526438
  O      -1.082776      1.209751      0.439140
  C      -0.574226      2.442752     -0.163243
  H       2.385396     -0.391915      2.780212
  H       1.718859     -1.788521      1.842519
  H       0.759167     -1.054184      3.155789
  H      -2.975371     -1.958891      1.808997
  H      -3.182883     -0.560116      0.697920
  H      -2.613123     -0.292476      2.379299
  H       0.227678      2.840060      0.465807
  H      -1.422666      3.124566     -0.179553
  H      -0.209057      2.241252     -1.177723
  Li      0.866763     -1.117042     -2.546325
  C       4.898566     -1.333496     -5.884100
  O       3.875553     -2.101248     -5.206929
  P       2.294083     -1.977598     -5.427061
  O       1.670584     -1.661029     -4.103858
  O       2.094361     -0.937570     -6.571262
  C       1.116815     -1.047173     -7.672229
  O       1.860485     -3.372439     -6.037649
  C       1.781601     -4.609071     -5.265089
  H       5.836995     -1.587781     -5.393145
  H       4.676935     -0.263779     -5.815380
  H       4.926770     -1.623713     -6.943549
  H       1.131074     -0.073494     -8.156952
  H       0.127049     -1.264594     -7.269269
  H       1.445829     -1.829228     -8.356832
  H       2.796480     -4.977423     -5.073334
  H       1.241051     -5.312781     -5.896097
  H       1.257562     -4.428900     -4.325847
35
Coordinates from ORCA-job TMP_m1_shell2_oxidized_opt_relaxed E -1530.928848853266
  C       1.410272     -0.938209      2.394023
  O       0.918013      0.064702      1.471286
  P      -0.283415     -0.137788      0.427968
  O       0.291572     -0.566356     -0.889645
  O      -1.274473     -1.183314      1.042593
  C      -2.656587     -0.912737      1.470533
  O      -1.036834      1.240259      0.440926
  C      -0.462726      2.474047     -0.101797
  H       2.315736     -0.517955      2.835495
  H       1.610649     -1.878454      1.866650
  H       0.652377     -1.113947      3.168123
  H      -3.065531     -1.888613      1.725595
  H      -3.207712     -0.452677      0.648198
  H      -2.642626     -0.250800      2.340887
  H       0.330070      2.819513      0.565517
  H      -1.282300      3.186701     -0.123062
  H      -0.072544      2.291488     -1.107600
  Li      0.892763     -1.112963     -2.539964
  C       4.865629     -1.253327     -5.968948
  O       3.888116     -2.034135     -5.239073
  P       2.298198     -1.977843     -5.427413
  O       1.687916     -1.667096     -4.095944
  O       2.039478     -0.964141     -6.581022
  C       1.044990     -1.123130     -7.661241
  O       1.900956     -3.396720     -6.010230
  C       1.896996     -4.626701     -5.223869
  H       5.819810     -1.453484     -5.486281
  H       4.601346     -0.191466     -5.938836
  H       4.886852     -1.585708     -7.020124
  H       1.015471     -0.156725     -8.155818
  H       0.069389     -1.372645     -7.239077
  H       1.389758     -1.901727     -8.343409
  H       2.932270     -4.946260     -5.066799
  H       1.364639     -5.360177     -5.828376
  H       1.396677     -4.456838     -4.267191
35
Coordinates from ORCA-job TMP_m1_shell2_oxidized_opt_relaxed E -1530.929098530649
  C       1.263705     -1.101285      2.427792
  O       0.879435     -0.041502      1.517015
  P      -0.287477     -0.133689      0.416893
  O       0.312166     -0.566688     -0.889547
  O      -1.371460     -1.126292      0.957263
  C      -2.734201     -0.768941      1.385769
  O      -0.950205      1.288976      0.439426
  C      -0.271079      2.507276     -0.015762
  H       2.180391     -0.764373      2.911830
  H       1.412449     -2.039720      1.882765
  H       0.464739     -1.236045      3.170895
  H      -3.217404     -1.719746      1.596500
  H      -3.243155     -0.233996      0.580178
  H      -2.678595     -0.145393      2.282804
  H       0.504220      2.769141      0.706655
  H      -1.040437      3.274634     -0.046817
  H       0.155681      2.342544     -1.005891
  Li      0.932332     -1.117936     -2.529475
  C       4.796312     -1.110674     -6.101369
  O       3.902179     -1.913693     -5.292606
  P       2.308488     -1.979435     -5.426790
  O       1.719758     -1.683611     -4.082802
  O       1.938842     -1.013762     -6.592710
  C       0.912365     -1.256220     -7.624955
  O       1.994752     -3.434776     -5.965375
  C       2.117365     -4.648519     -5.160488
  H       5.779541     -1.218461     -5.648667
  H       4.461431     -0.068067     -6.116416
  H       4.801086     -1.502178     -7.133347
  H       0.799504     -0.302988     -8.137771
  H      -0.025882     -1.556958     -7.155264
  H       1.275808     -2.026455     -8.304969
  H       3.179793     -4.888811     -5.049398
  H       1.612163     -5.430392     -5.727924
  H       1.650582     -4.497192     -4.185367
35
Coordinates from ORCA-job TMP_m1_shell2_oxidized_opt_relaxed E -1530.929597252464
  C       0.712471     -1.615115      2.419476
  O       0.711054     -0.412767      1.612824
  P      -0.292390     -0.115469      0.394514
  O       0.355704     -0.556004     -0.884360
  O      -1.637389     -0.863610      0.682291
  C      -2.907935     -0.237818      1.079481
  O      -0.609156      1.416657      0.523869
  C       0.400671      2.471207      0.362953
  H       1.618042     -1.574118      3.019189
  H       0.684355     -2.507083      1.784365
  H      -0.176037     -1.604791      3.067602
  H      -3.624480     -1.056677      1.114690
  H      -3.193083      0.509212      0.335491
  H      -2.791212      0.227283      2.062329
  H       1.081452      2.442672      1.218919
  H      -0.158772      3.405143      0.347972
  H       0.941253      2.323268     -0.573452
  Li      1.020879     -1.087568     -2.511339
  C       4.440807     -0.646851     -6.514156
  O       3.845179     -1.492666     -5.499570
  P       2.314443     -1.954062     -5.435984
  O       1.798841     -1.658287     -4.062695
  O       1.608907     -1.246121     -6.629422
  C       0.573381     -1.837870     -7.498871
  O       2.319843     -3.495306     -5.801996
  C       2.837663     -4.545809     -4.926363
  H       5.456262     -0.447352     -6.175285
  H       3.857266      0.271838     -6.631815
  H       4.455435     -1.189375     -7.470345
  H       0.178347     -1.001750     -8.073595
  H      -0.210302     -2.293403     -6.891583
  H       1.042777     -2.574449     -8.150379
  H       3.932161     -4.513204     -4.954577
  H       2.478934     -5.485482     -5.347901
  H       2.469821     -4.399498     -3.910204
35
Coordinates from ORCA-job TMP_m1_shell2_oxidized_opt_relaxed E -1530.928071870127
  C       0.686722     -1.596940      2.417179
  O       0.691857     -0.405775      1.612868
  P      -0.294803     -0.115805      0.395830
  O       0.362761     -0.568496     -0.877177
  O      -1.629845     -0.852350      0.677607
  C      -2.888578     -0.220853      1.097721
  O      -0.612629      1.408621      0.520176
  C       0.385037      2.447410      0.365205
  H       1.583252     -1.554902      3.018588
  H       0.659019     -2.484798      1.782147
  H      -0.194646     -1.581902      3.063377
  H      -3.597532     -1.030938      1.127396
  H      -3.178882      0.529610      0.367550
  H      -2.766016      0.234947      2.086387
  H       1.047447      2.421369      1.218008
  H      -0.171508      3.377140      0.345391
  H       0.931752      2.292604     -0.561778
  Li      1.036006     -1.115949     -2.494627
  C       4.429419     -0.671155     -6.533920
  O       3.839346     -1.495228     -5.510532
  P       2.320910     -1.953418     -5.437252
  O       1.814327     -1.667124     -4.053117
  O       1.609191     -1.247379     -6.619393
  C       0.575273     -1.833080     -7.479090
  O       2.328581     -3.482216     -5.813227
  C       2.843090     -4.523267     -4.949373
  H       5.435964     -0.467289     -6.200999
  H       3.849712      0.238566     -6.656126
  H       4.444697     -1.225040     -7.486657
  H       0.176402     -1.002647     -8.046136
  H      -0.199455     -2.286182     -6.862221
  H       1.041695     -2.562887     -8.140604
  H       3.927598     -4.498400     -4.991884
  H       2.480042     -5.454383     -5.367819
  H       2.486531     -4.368653     -3.923283
35
Coordinates from ORCA-job TMP_m1_shell2_oxidized_opt_relaxed E -1530.929761680443
  C       0.674413     -1.620431      2.411712
  O       0.675324     -0.415424      1.613694
  P      -0.306570     -0.116018      0.389085
  O       0.354990     -0.569129     -0.880525
  O      -1.655474     -0.844895      0.657269
  C      -2.908232     -0.212865      1.100908
  O      -0.607736      1.416372      0.509025
  C       0.406505      2.458189      0.361597
  H       1.580929     -1.585769      3.014071
  H       0.643582     -2.507428      1.769283
  H      -0.208658     -1.615043      3.064233
  H      -3.633913     -1.022764      1.127907
  H      -3.199713      0.557313      0.384659
  H      -2.767614      0.223273      2.093619
  H       1.075264      2.429117      1.226030
  H      -0.142132      3.398254      0.339006
  H       0.962565      2.306676     -0.567131
  Li      1.032042     -1.117550     -2.496654
  C       4.440179     -0.663459     -6.550752
  O       3.843905     -1.468525     -5.507554
  P       2.326398     -1.946408     -5.436302
  O       1.817286     -1.664915     -4.053599
  O       1.601504     -1.247566     -6.618942
  C       0.544781     -1.835844     -7.460311
  O       2.348416     -3.481436     -5.807575
  C       2.874250     -4.526514     -4.940819
  H       5.450691     -0.438103     -6.213656
  H       3.848634      0.242692     -6.712886
  H       4.470721     -1.244386     -7.483848
  H       0.154160     -1.006340     -8.046577
  H      -0.237473     -2.263114     -6.830304
  H       0.990440     -2.591338     -8.108433
  H       3.968250     -4.499022     -4.982704
  H       2.511941     -5.465794     -5.356948
  H       2.523082     -4.378597     -3.916362
35
Coordinates from ORCA-job TMP_m1_shell2_oxidized_opt_relaxed E -1530.930189369371
  C       0.649513     -1.642101      2.398011
  O       0.652520     -0.423469      1.614804
  P      -0.318462     -0.112696      0.379656
  O       0.348660     -0.566446     -0.885834
  O      -1.681140     -0.832274      0.629517
  C      -2.920126     -0.200084      1.110907
  O      -0.605165      1.425494      0.498308
  C       0.424147      2.461573      0.370009
  H       1.559722     -1.618681      2.997705
  H       0.613387     -2.521165      1.744215
  H      -0.233112     -1.643278      3.052327
  H      -3.657177     -1.002337      1.129799
  H      -3.213498      0.593657      0.420335
  H      -2.755890      0.205984      2.112357
  H       1.084654      2.420252      1.242986
  H      -0.115700      3.407342      0.346101
  H       0.990319      2.311652     -0.553758
  Li      1.029679     -1.117008     -2.500305
  C       4.447792     -0.668565     -6.579928
  O       3.848625     -1.436588     -5.507519
  P       2.334674     -1.937285     -5.436623
  O       1.822720     -1.660959     -4.055156
  O       1.598417     -1.248734     -6.621378
  C       0.517287     -1.840503     -7.433278
  O       2.374920     -3.477156     -5.804107
  C       2.915463     -4.517652     -4.935910
  H       5.452046     -0.413207     -6.240970
  H       3.843937      0.220419     -6.793562
  H       4.498078     -1.291649     -7.483850
  H       0.143005     -1.020470     -8.044757
  H      -0.270725     -2.225580     -6.782868
  H       0.936966     -2.630910     -8.056592
  H       4.010635     -4.481877     -4.982907
  H       2.556509     -5.461330     -5.347252
  H       2.570056     -4.371161     -3.910266
35
Coordinates from ORCA-job TMP_m1_shell2_oxidized_opt_relaxed E -1530.930756673871
  C       0.590473     -1.678477      2.362164
  O       0.601901     -0.433734      1.614733
  P      -0.341296     -0.100803      0.357401
  O       0.338094     -0.556198     -0.899319
  O      -1.727784     -0.801733      0.567061
  C      -2.933659     -0.178372      1.135476
  O      -0.603095      1.445401      0.478267
  C       0.453284      2.465158      0.400141
  H       1.504370     -1.679251      2.957546
  H       0.544107     -2.537677      1.683117
  H      -0.291534     -1.690858      3.017361
  H      -3.689184     -0.964522      1.133129
  H      -3.232750      0.664738      0.508312
  H      -2.721649      0.157068      2.154153
  H       1.087468      2.393811      1.291420
  H      -0.069407      3.420504      0.375394
  H       1.043221      2.319312     -0.509542
  Li      1.026034     -1.112615     -2.510434
  C       4.461938     -0.695973     -6.644979
  O       3.854475     -1.371460     -5.513267
  P       2.351185     -1.917309     -5.440347
  O       1.834010     -1.650929     -4.060832
  O       1.596512     -1.253119     -6.631584
  C       0.465308     -1.849031     -7.373744
  O       2.429506     -3.464065     -5.800806
  C       3.001441     -4.488448     -4.930035
  H       5.448096     -0.375099     -6.307231
  H       3.836350      0.144139     -6.967953
  H       4.556742     -1.408395     -7.476460
  H       0.126462     -1.059616     -8.043724
  H      -0.329347     -2.132558     -6.680276
  H       0.826174     -2.712728     -7.933190
  H       4.095679     -4.433434     -4.992174
  H       2.650589     -5.440925     -5.328735
  H       2.669023     -4.339595     -3.900828
35
Coordinates from ORCA-job TMP_m1_shell2_oxidized_opt_relaxed E -1530.931311544301
  C       0.502972     -1.716988      2.304967
  O       0.531086     -0.440875      1.609055
  P      -0.368265     -0.078121      0.323019
  O       0.327090     -0.538498     -0.921409
  O      -1.782209     -0.749941      0.476463
  C      -2.939862     -0.155741      1.162673
  O      -0.596145      1.475327      0.452077
  C       0.493671      2.465485      0.453927
  H       1.418107     -1.752413      2.896882
  H       0.442865     -2.547180      1.592511
  H      -0.378710     -1.740829      2.959809
  H      -3.716043     -0.920172      1.128062
  H      -3.245113      0.748592      0.631517
  H      -2.669518      0.077512      2.196530
  H       1.081919      2.348864      1.370635
  H      -0.002655      3.434334      0.429914
  H       1.120203      2.324631     -0.431456
  Li      1.021473     -1.106047     -2.527993
  C       4.473647     -0.740333     -6.726703
  O       3.852322     -1.287062     -5.532506
  P       2.369454     -1.893444     -5.450362
  O       1.847183     -1.638890     -4.072444
  O       1.592162     -1.269122     -6.651771
  C       0.396945     -1.864418     -7.288906
  O       2.501116     -3.445449     -5.800017
  C       3.117854     -4.439912     -4.925090
  H       5.432829     -0.335914     -6.402771
  H       3.826877      0.019262     -7.178948
  H       4.627286     -1.553222     -7.450886
  H       0.098040     -1.137317     -8.042430
  H      -0.393010     -1.996869     -6.546362
  H       0.674594     -2.816416     -7.742638
  H       4.208303     -4.357547     -5.012935
  H       2.780786     -5.406214     -5.301369
  H       2.805482     -4.281863     -3.890828
35
Coordinates from ORCA-job TMP_m1_shell2_oxidized_opt_relaxed E -1530.931753061065
  C       0.403978     -1.753395      2.250947
  O       0.465610     -0.454665      1.602214
  P      -0.384288     -0.056398      0.293007
  O       0.321970     -0.528043     -0.940329
  O      -1.823214     -0.684576      0.394133
  C      -2.938083     -0.109965      1.162106
  O      -0.566879      1.501457      0.435705
  C       0.556426      2.447335      0.523018
  H       1.314837     -1.831104      2.844112
  H       0.325173     -2.556045      1.510404
  H      -0.478814     -1.775309      2.903701
  H      -3.736232     -0.847825      1.099826
  H      -3.233474      0.837160      0.706598
  H      -2.630680      0.041971      2.201292
  H       1.090747      2.280974      1.462832
  H       0.096830      3.433591      0.502601
  H       1.220443      2.305481     -0.333862
  Li      1.017837     -1.110158     -2.542649
  C       4.448473     -0.747465     -6.794663
  O       3.833535     -1.215494     -5.563810
  P       2.380084     -1.883734     -5.461090
  O       1.856588     -1.638501     -4.082550
  O       1.576182     -1.309281     -6.670074
  C       0.342392     -1.914775     -7.214266
  O       2.570231     -3.434855     -5.797630
  C       3.236192     -4.389491     -4.918202
  H       5.385980     -0.280592     -6.495419
  H       3.779541     -0.054332     -7.313014
  H       4.644700     -1.611640     -7.446038
  H       0.053358     -1.257643     -8.032039
  H      -0.429627     -1.932266     -6.441972
  H       0.567192     -2.920319     -7.572615
  H       4.320181     -4.275917     -5.035630
  H       2.920947     -5.372835     -5.266992
  H       2.944597     -4.218136     -3.879435
35
Coordinates from ORCA-job TMP_m1_shell2_oxidized_opt_relaxed E -1530.932125420752
  C       0.304403     -1.787626      2.205384
  O       0.409129     -0.474637      1.597790
  P      -0.388879     -0.040751      0.271713
  O       0.325088     -0.526519     -0.952134
  O      -1.846911     -0.618090      0.326723
  C      -2.930412     -0.042019      1.137429
  O      -0.522345      1.517738      0.430846
  C       0.627696      2.413538      0.598381
  H       1.206829     -1.912080      2.802421
  H       0.203669     -2.565522      1.442501
  H      -0.578715     -1.798259      2.857646
  H      -3.749241     -0.753360      1.059767
  H      -3.206931      0.928692      0.722893
  H      -2.605991      0.063724      2.177492
  H       1.108793      2.201026      1.555790
  H       0.208591      3.417320      0.585908
  H       1.325672      2.267781     -0.229991
  Li      1.018257     -1.123767     -2.550929
  C       4.392443     -0.718500     -6.850002
  O       3.807218     -1.167399     -5.598138
  P       2.387103     -1.887716     -5.468853
  O       1.864674     -1.649146     -4.087981
  O       1.557443     -1.366038     -6.682078
  C       0.308314     -1.991995     -7.155381
  O       2.632185     -3.432396     -5.791408
  C       3.344840     -4.343298     -4.908337
  H       5.320360     -0.219881     -6.576522
  H       3.700299     -0.053935     -7.372435
  H       4.604844     -1.593311     -7.481679
  H       0.007222     -1.395336     -8.013377
  H      -0.444607     -1.939737     -6.366337
  H       0.511405     -3.024021     -7.446640
  H       4.420870     -4.203203     -5.059096
  H       3.053062     -5.344146     -5.225305
  H       3.076361     -4.153916     -3.865846
35
Coordinates from ORCA-job TMP_m1_shell2_oxidized_opt_relaxed E -1530.932310226343
  C       0.210563     -1.828759      2.170162
  O       0.361711     -0.506282      1.596413
  P      -0.387366     -0.032082      0.259611
  O       0.330274     -0.532793     -0.956809
  O      -1.864115     -0.551912      0.275154
  C      -2.928398      0.043813      1.098059
  O      -0.464049      1.526668      0.435027
  C       0.710922      2.371512      0.665300
  H       1.104595     -2.000645      2.768824
  H       0.085021     -2.584927      1.389696
  H      -0.671719     -1.823755      2.824080
  H      -3.767907     -0.642167      1.012849
  H      -3.178882      1.027213      0.696869
  H      -2.600013      0.128373      2.138742
  H       1.147791      2.120795      1.634844
  H       0.334052      3.392092      0.661506
  H       1.434584      2.216401     -0.139345
  Li      1.018848     -1.142273     -2.553128
  C       4.320859     -0.660192     -6.891247
  O       3.775399     -1.129414     -5.628478
  P       2.388417     -1.897059     -5.473307
  O       1.868731     -1.663584     -4.089638
  O       1.530111     -1.428084     -6.686542
  C       0.283502     -2.088304     -7.112193
  O       2.687777     -3.433837     -5.778576
  C       3.446800     -4.301246     -4.893241
  H       5.246836     -0.147528     -6.637503
  H       3.605150      0.000079     -7.386630
  H       4.532479     -1.524281     -7.537142
  H      -0.041590     -1.535518     -7.990818
  H      -0.457082     -2.010528     -6.313588
  H       0.493775     -3.129180     -7.365202
  H       4.514593     -4.137539     -5.078150
  H       3.178456     -5.318847     -5.176981
  H       3.202612     -4.092999     -3.848404
35
Coordinates from ORCA-job TMP_m1_shell2_oxidized_opt_relaxed E -1530.932472032218
  C       0.058732     -1.894937      2.118160
  O       0.286577     -0.562391      1.595836
  P      -0.381088     -0.020927      0.245485
  O       0.339563     -0.546955     -0.959424
  O      -1.885992     -0.440447      0.199043
  C      -2.926188      0.191458      1.027272
  O      -0.359210      1.535241      0.447531
  C       0.851353      2.293230      0.769507
  H       0.938054     -2.142529      2.713812
  H      -0.108043     -2.614618      1.311696
  H      -0.820604     -1.862877      2.775877
  H      -3.797054     -0.453440      0.929540
  H      -3.130055      1.190426      0.637301
  H      -2.599218      0.249403      2.069960
  H       1.217180      1.987278      1.753467
  H       0.544644      3.337336      0.779713
  H       1.609995      2.114964      0.002028
  Li      1.019577     -1.173807     -2.552456
  C       4.195387     -0.560499     -6.950201
  O       3.716456     -1.068857     -5.674297
  P       2.385834     -1.912445     -5.478427
  O       1.872230     -1.686968     -4.090142
  O       1.481085     -1.529550     -6.687149
  C       0.250087     -2.252233     -7.047132
  O       2.775033     -3.433406     -5.754594
  C       3.610786     -4.226725     -4.870780
  H       5.117344     -0.026385     -6.726122
  H       3.441657      0.092772     -7.397468
  H       4.400690     -1.403940     -7.623686
  H      -0.115813     -1.761556     -7.946956
  H      -0.475654     -2.156163     -6.236812
  H       0.488961     -3.297709     -7.252373
  H       4.661358     -4.026581     -5.114737
  H       3.381140     -5.268304     -5.098552
  H       3.407933     -3.984649     -3.824702
35
Coordinates from ORCA-job TMP_m1_shell2_oxidized_opt_relaxed E -1530.932587505997
  C       0.001822     -1.924952      2.106831
  O       0.261104     -0.591403      1.600085
  P      -0.374064     -0.022158      0.246533
  O       0.347607     -0.557595     -0.954206
  O      -1.889298     -0.400605      0.178027
  C      -2.926968      0.258702      0.988401
  O      -0.312095      1.532296      0.457096
  C       0.911210      2.260240      0.800245
  H       0.878167     -2.204028      2.693941
  H      -0.188623     -2.630310      1.292993
  H      -0.871446     -1.877860      2.771666
  H      -3.807645     -0.373985      0.893473
  H      -3.112069      1.254635      0.580827
  H      -2.606110      0.328031      2.032029
  H       1.261020      1.936678      1.785076
  H       0.628294      3.311172      0.818213
  H       1.674912      2.073940      0.039341
  Li      1.021622     -1.189254     -2.546956
  C       4.135666     -0.503386     -6.959669
  O       3.692973     -1.053383     -5.687095
  P       2.382887     -1.922872     -5.476771
  O       1.872120     -1.700104     -4.086500
  O       1.459093     -1.570175     -6.680496
  C       0.244606     -2.325217     -7.030505
  O       2.804067     -3.437597     -5.740647
  C       3.670562     -4.203302     -4.861638
  H       5.064220      0.023790     -6.745607
  H       3.368882      0.165263     -7.361362
  H       4.316922     -1.323422     -7.667381
  H      -0.143915     -1.842030     -7.925241
  H      -0.476325     -2.253080     -6.213345
  H       0.510104     -3.362952     -7.242331
  H       4.712674     -3.996692     -5.136674
  H       3.448792     -5.252527     -5.062316
  H       3.491967     -3.942645     -3.815823
35
Coordinates from ORCA-job TMP_m1_shell2_oxidized_opt_relaxed E -1530.932757540698
  C      -0.126177     -1.976240      2.077831
  O       0.199543     -0.642119      1.607544
  P      -0.359772     -0.019905      0.244297
  O       0.366480     -0.576213     -0.944658
  O      -1.893580     -0.311698      0.122382
  C      -2.921643      0.381838      0.915892
  O      -0.216407      1.528097      0.473653
  C       1.028586      2.190246      0.870315
  H       0.743862     -2.322801      2.639043
  H      -0.370177     -2.644716      1.247601
  H      -0.982498     -1.898072      2.761015
  H      -3.819233     -0.227017      0.818385
  H      -3.074132      1.377821      0.494118
  H      -2.607643      0.454098      1.961200
  H       1.336970      1.827247      1.855804
  H       0.793458      3.252568      0.905706
  H       1.804886      1.987626      0.126165
  Li      1.026601     -1.218473     -2.537073
  C       4.019860     -0.413190     -6.989621
  O       3.640464     -1.010103     -5.715977
  P       2.378187     -1.938785     -5.474873
  O       1.873441     -1.724405     -4.080574
  O       1.417903     -1.650340     -6.668405
  C       0.229378     -2.461436     -6.982461
  O       2.869333     -3.438227     -5.716158
  C       3.800175     -4.142085     -4.850739
  H       4.953248      0.115011     -6.800912
  H       3.228337      0.263423     -7.327341
  H       4.164798     -1.205282     -7.735389
  H      -0.197406     -2.005877     -7.874499
  H      -0.477648     -2.411297     -6.151477
  H       0.535540     -3.489463     -7.186454
  H       4.820134     -3.926208     -5.194522
  H       3.593574     -5.204736     -4.989847
  H       3.674296     -3.836078     -3.809754
35
Coordinates from ORCA-job TMP_m1_shell2_oxidized_opt_relaxed E -1530.932945207846
  C      -0.421720     -2.051453      2.002602
  O       0.057157     -0.735622      1.612894
  P      -0.327066     -0.018041      0.238084
  O       0.402125     -0.624180     -0.925196
  O      -1.875886     -0.115041      0.004615
  C      -2.869303      0.653612      0.771513
  O      -0.011936      1.496931      0.519915
  C       1.257993      1.999692      1.048013
  H       0.410088     -2.539023      2.516406
  H      -0.761553     -2.628748      1.139149
  H      -1.245082     -1.910533      2.714415
  H      -3.807173      0.112189      0.655695
  H      -2.937669      1.653927      0.337244
  H      -2.574012      0.713070      1.822787
  H       1.446771      1.560588      2.032642
  H       1.134254      3.078785      1.119965
  H       2.066757      1.746970      0.355224
  Li      1.036306     -1.285611     -2.516932
  C       3.746239     -0.259236     -7.064139
  O       3.508566     -0.912924     -5.781796
  P       2.368240     -1.966554     -5.473461
  O       1.877710     -1.773544     -4.069966
  O       1.345102     -1.828013     -6.642528
  C       0.229649     -2.761052     -6.876120
  O       3.017521     -3.413053     -5.676974
  C       4.071777     -3.965404     -4.844940
  H       4.673283      0.297839     -6.942136
  H       2.902111      0.401054     -7.291814
  H       3.833416     -1.015793     -7.852862
  H      -0.273807     -2.382260     -7.764010
  H      -0.445487     -2.748381     -6.017574
  H       0.627017     -3.762025     -7.056259
  H       5.034846     -3.726895     -5.314948
  H       3.928101     -5.047792     -4.857767
  H       4.028404     -3.560267     -3.831527
35
Coordinates from ORCA-job TMP_m1_shell2_oxidized_opt_relaxed E -1530.933017392587
  C      -0.535723     -2.066312      1.972626
  O       0.003859     -0.764966      1.613265
  P      -0.314268     -0.016700      0.238641
  O       0.413154     -0.640923     -0.915909
  O      -1.860605     -0.041170     -0.032175
  C      -2.836436      0.753381      0.729833
  O       0.060149      1.479517      0.546397
  C       1.332359      1.917601      1.123654
  H       0.274798     -2.606531      2.467202
  H      -0.908211     -2.603756      1.097154
  H      -1.345894     -1.901931      2.693720
  H      -3.790063      0.244210      0.599355
  H      -2.867056      1.757928      0.301452
  H      -2.552274      0.797197      1.784963
  H       1.471037      1.452346      2.104015
  H       1.251446      2.999374      1.212142
  H       2.150219      1.642960      0.450346
  Li      1.037751     -1.306462     -2.508418
  C       3.644044     -0.225165     -7.099406
  O       3.449064     -0.871317     -5.806037
  P       2.359896     -1.970480     -5.473472
  O       1.875649     -1.785770     -4.066587
  O       1.319929     -1.889906     -6.633073
  C       0.245304     -2.874898     -6.844464
  O       3.069118     -3.390096     -5.667911
  C       4.162641     -3.880512     -4.848483
  H       4.558455      0.356478     -7.000886
  H       2.779403      0.412484     -7.313647
  H       3.731914     -0.986011     -7.883551
  H      -0.287751     -2.524970     -7.726598
  H      -0.416277     -2.887212     -5.975442
  H       0.686091     -3.857626     -7.023921
  H       5.102671     -3.632488     -5.357663
  H       4.050410     -4.966269     -4.817181
  H       4.137932     -3.438798     -3.849726
35
Coordinates from ORCA-job TMP_m1_shell2_oxidized_opt_relaxed E -1530.933142106037
  C      -0.628486     -2.068166      1.956058
  O      -0.032684     -0.785740      1.618683
  P      -0.302316     -0.012693      0.247733
  O       0.422785     -0.647602     -0.901071
  O      -1.844337      0.014924     -0.046392
  C      -2.801196      0.831503      0.713886
  O       0.108167      1.466437      0.584787
  C       1.380226      1.848115      1.201270
  H       0.161084     -2.656150      2.428087
  H      -1.034045     -2.566172      1.071970
  H      -1.422828     -1.879077      2.687457
  H      -3.769420      0.359019      0.560289
  H      -2.790463      1.842988      0.302465
  H      -2.535622      0.850222      1.774848
  H       1.475680      1.359071      2.173610
  H       1.333205      2.929876      1.308154
  H       2.201765      1.556822      0.540295
  Li      1.034960     -1.310786     -2.497553
  C       3.572477     -0.229930     -7.142681
  O       3.385333     -0.823452     -5.824684
  P       2.340232     -1.961926     -5.473664
  O       1.863530     -1.783190     -4.064053
  O       1.290815     -1.926263     -6.626149
  C       0.277162     -2.973426     -6.844316
  O       3.096945     -3.355323     -5.669159
  C       4.219154     -3.792248     -4.858448
  H       4.461576      0.391393     -7.058418
  H       2.688644      0.363989     -7.396070
  H       3.703464     -1.020027     -7.891414
  H      -0.292902     -2.636643     -7.707459
  H      -0.364140     -3.047015     -5.963327
  H       0.777549     -3.920799     -7.054060
  H       5.139380     -3.534474     -5.395685
  H       4.135108     -4.878743     -4.792129
  H       4.201933     -3.321302     -3.872642
35
Coordinates from ORCA-job TMP_m1_shell2_oxidized_opt_relaxed E -1530.933184668698
  C      -0.701943     -2.072945      1.935218
  O      -0.068914     -0.802104      1.621229
  P      -0.293053     -0.011108      0.252558
  O       0.431465     -0.657920     -0.889511
  O      -1.828779      0.062501     -0.066446
  C      -2.773137      0.896395      0.689999
  O       0.152140      1.452954      0.609847
  C       1.422698      1.790609      1.256802
  H       0.071683     -2.695353      2.390111
  H      -1.128126     -2.539690      1.044022
  H      -1.484937     -1.873447      2.676176
  H      -3.751703      0.451025      0.520536
  H      -2.731627      1.911467      0.288813
  H      -2.520570      0.899047      1.754339
  H       1.484596      1.286379      2.224234
  H       1.403811      2.871827      1.377407
  H       2.248655      1.485147      0.607742
  Li      1.033415     -1.320535     -2.488857
  C       3.509024     -0.222364     -7.167505
  O       3.332921     -0.789771     -5.836439
  P       2.327259     -1.960225     -5.472849
  O       1.855874     -1.787698     -4.061034
  O       1.269281     -1.963934     -6.618077
  C       0.296120     -3.050735     -6.830221
  O       3.124360     -3.330650     -5.667687
  C       4.269330     -3.723893     -4.865228
  H       4.382068      0.423015     -7.096034
  H       2.611790      0.344671     -7.435865
  H       3.661727     -1.024872     -7.898773
  H      -0.297825     -2.732942     -7.684551
  H      -0.330675     -3.155245     -5.941892
  H       0.832696     -3.975469     -7.051098
  H       5.174219     -3.464753     -5.427377
  H       4.207630     -4.809692     -4.766846
  H       4.261265     -3.226482     -3.892527
35
Coordinates from ORCA-job TMP_m1_shell2_oxidized_opt_relaxed E -1530.933253140564
  C      -0.863441     -2.079884      1.886287
  O      -0.152435     -0.838268      1.625257
  P      -0.272245     -0.013624      0.263870
  O       0.449926     -0.689684     -0.862501
  O      -1.787283      0.163824     -0.110181
  C      -2.701865      1.045635      0.627968
  O       0.251607      1.412847      0.663434
  C       1.513762      1.654575      1.370974
  H      -0.128333     -2.774075      2.301757
  H      -1.329775     -2.475451      0.981197
  H      -1.620906     -1.864024      2.649014
  H      -3.700820      0.661342      0.427940
  H      -2.589898      2.060441      0.238520
  H      -2.478771      1.025323      1.698605
  H       1.503635      1.124579      2.327009
  H       1.556937      2.731731      1.519760
  H       2.346261      1.314388      0.747848
  Li      1.030141     -1.349673     -2.468402
  C       3.356388     -0.195265     -7.210307
  O       3.211663     -0.723660     -5.858804
  P       2.300338     -1.961731     -5.469392
  O       1.839934     -1.804090     -4.052604
  O       1.226242     -2.056183     -6.596061
  C       0.346431     -3.223110     -6.792972
  O       3.187078     -3.275494     -5.663323
  C       4.375314     -3.571348     -4.879973
  H       4.195674      0.496240     -7.166399
  H       2.431310      0.318668     -7.492847
  H       3.546363     -1.012137     -7.916142
  H      -0.296918     -2.952804     -7.628040
  H      -0.244049     -3.390479     -5.889421
  H       0.956805     -4.094592     -7.037419
  H       5.247529     -3.314366     -5.492811
  H       4.364438     -4.650910     -4.711834
  H       4.381700     -3.015532     -3.939790
35
Coordinates from ORCA-job TMP_m1_shell2_oxidized_opt_relaxed E -1530.933290400741
  C      -1.176696     -2.063520      1.784904
  O      -0.321154     -0.898417      1.623002
  P      -0.235978     -0.032870      0.285698
  O       0.469929     -0.771186     -0.812046
  O      -1.685920      0.349021     -0.183794
  C      -2.524298      1.333771      0.513612
  O       0.436798      1.303367      0.765182
  C       1.666845      1.362084      1.565641
  H      -0.531304     -2.880279      2.122928
  H      -1.698637     -2.316249      0.859581
  H      -1.888915     -1.825412      2.583479
  H      -3.551870      1.075530      0.260579
  H      -2.270403      2.328550      0.137998
  H      -2.358875      1.285683      1.593573
  H       1.527593      0.800436      2.493698
  H       1.826928      2.419417      1.768285
  H       2.495782      0.949521      0.982600
  Li      1.017565     -1.423226     -2.428546
  C       3.035125     -0.148515     -7.271459
  O       2.962928     -0.627266     -5.894585
  P       2.250975     -1.975330     -5.458454
  O       1.809008     -1.847621     -4.032874
  O       1.168149     -2.251164     -6.547371
  C       0.486502     -3.547653     -6.716913
  O       3.304499     -3.158807     -5.651897
  C       4.551505     -3.257486     -4.909107
  H       3.804546      0.621724     -7.276554
  H       2.060609      0.267157     -7.551907
  H       3.285843     -0.971772     -7.949401
  H      -0.236694     -3.384341     -7.513976
  H      -0.018673     -3.819909     -5.787404
  H       1.221220     -4.301774     -7.005661
  H       5.364234     -3.008082     -5.601675
  H       4.648938     -4.306620     -4.616044
  H       4.556633     -2.595554     -4.040877
35
Coordinates from ORCA-job TMP_m1_shell2_oxidized_opt_relaxed E -1530.933324664488
  C      -1.045751     -2.082680      1.828070
  O      -0.251958     -0.881216      1.627932
  P      -0.252632     -0.025080      0.281073
  O       0.463740     -0.735656     -0.828496
  O      -1.733652      0.271485     -0.149779
  C      -2.604421      1.224235      0.553228
  O       0.359224      1.350669      0.729386
  C       1.610767      1.486563      1.483375
  H      -0.359715     -2.851068      2.196251
  H      -1.547627     -2.393936      0.909205
  H      -1.776380     -1.856804      2.613391
  H      -3.622445      0.917842      0.317273
  H      -2.400175      2.225807      0.166662
  H      -2.421317      1.190814      1.630923
  H       1.533226      0.934772      2.424094
  H       1.722337      2.554039      1.663790
  H       2.439053      1.106583      0.877929
  Li      1.023798     -1.388496     -2.442504
  C       3.165343     -0.159348     -7.244687
  O       3.066918     -0.662298     -5.878541
  P       2.271167     -1.968386     -5.460980
  O       1.821004     -1.827347     -4.038959
  O       1.186534     -2.169661     -6.564146
  C       0.425213     -3.418171     -6.749512
  O       3.257684     -3.208443     -5.654386
  C       4.483215     -3.392766     -4.893979
  H       3.965713      0.578359     -7.230167
  H       2.209933      0.298990     -7.522730
  H       3.388130     -0.979784     -7.935960
  H      -0.268735     -3.207513     -7.561080
  H      -0.116169     -3.656214     -5.831054
  H       1.113866     -4.219596     -7.024221
  H       5.320686     -3.142940     -5.556011
  H       4.531612     -4.457266     -4.649709
  H       4.494552     -2.772278     -3.995466
35
Coordinates from ORCA-job TMP_m1_shell2_oxidized_opt_relaxed E -1530.933345314140
  C      -1.041160     -2.090783      1.826289
  O      -0.253488     -0.885497      1.630325
  P      -0.255287     -0.025052      0.285621
  O       0.463237     -0.733936     -0.824219
  O      -1.736421      0.270519     -0.144441
  C      -2.606052      1.231887      0.549025
  O       0.355386      1.349798      0.737300
  C       1.611967      1.486634      1.481103
  H      -0.351831     -2.857331      2.191954
  H      -1.541251     -2.401230      0.906065
  H      -1.773235     -1.871873      2.612107
  H      -3.623798      0.932350      0.304222
  H      -2.390042      2.230653      0.162216
  H      -2.432676      1.198196      1.628301
  H       1.542574      0.934083      2.421829
  H       1.723356      2.554055      1.661771
  H       2.435979      1.108177      0.869088
  Li      1.023374     -1.383463     -2.440456
  C       3.163359     -0.157862     -7.243417
  O       3.064886     -0.661703     -5.877533
  P       2.269950     -1.967307     -5.458743
  O       1.818983     -1.824847     -4.036860
  O       1.184023     -2.170030     -6.560628
  C       0.426312     -3.419537     -6.748859
  O       3.256795     -3.207087     -5.651928
  C       4.482109     -3.393230     -4.892618
  H       3.963179      0.580348     -7.227930
  H       2.207679      0.299531     -7.521183
  H       3.387542     -0.978023     -7.934490
  H      -0.265694     -3.209874     -7.562210
  H      -0.117178     -3.659522     -5.832106
  H       1.116974     -4.219791     -7.022190
  H       5.319555     -3.148784     -5.556399
  H       4.526944     -4.456944     -4.644358
  H       4.496691     -2.769314     -3.996431
35
Coordinates from ORCA-job TMP_m1_shell2_oxidized_opt_relaxed E -1530.933375657371
  C      -1.059029     -2.105177      1.808148
  O      -0.272898     -0.897456      1.633670
  P      -0.256937     -0.023805      0.295915
  O       0.464839     -0.734580     -0.811630
  O      -1.731435      0.288887     -0.142456
  C      -2.594371      1.268907      0.534836
  O       0.363472      1.339786      0.764787
  C       1.626436      1.459993      1.498313
  H      -0.369453     -2.878796      2.158361
  H      -1.560865     -2.398550      0.883233
  H      -1.789608     -1.902297      2.599542
  H      -3.611199      0.998883      0.255995
  H      -2.337959      2.264219      0.165151
  H      -2.454563      1.217488      1.618275
  H       1.559138      0.903415      2.436595
  H       1.749647      2.525158      1.684061
  H       2.441697      1.076422      0.878110
  Li      1.021947     -1.375371     -2.435017
  C       3.137588     -0.158573     -7.253948
  O       3.035298     -0.649438     -5.883127
  P       2.262241     -1.963817     -5.455255
  O       1.811750     -1.821017     -4.032901
  O       1.174017     -2.188569     -6.551374
  C       0.434705     -3.448600     -6.732372
  O       3.265908     -3.190441     -5.647310
  C       4.496496     -3.360430     -4.894768
  H       3.925279      0.592417     -7.238628
  H       2.177170      0.279880     -7.543876
  H       3.382429     -0.982676     -7.933063
  H      -0.250076     -3.258024     -7.556294
  H      -0.116580     -3.683395     -5.818864
  H       1.136973     -4.245067     -6.987042
  H       5.327889     -3.131147     -5.571011
  H       4.543457     -4.418403     -4.623042
  H       4.519335     -2.716614     -4.012799
35
Coordinates from ORCA-job TMP_m1_shell2_oxidized_opt_relaxed E -1530.933387542723
  C      -1.060478     -2.111340      1.801626
  O      -0.276400     -0.901816      1.634808
  P      -0.257087     -0.022457      0.299959
  O       0.467089     -0.731672     -0.807163
  O      -1.730331      0.292042     -0.139922
  C      -2.592613      1.276773      0.531896
  O       0.361902      1.338442      0.776225
  C       1.628075      1.455649      1.504728
  H      -0.368868     -2.887563      2.142361
  H      -1.566236     -2.397245      0.876539
  H      -1.787669     -1.916014      2.598119
  H      -3.607443      1.020037      0.234260
  H      -2.318778      2.272352      0.175917
  H      -2.471085      1.212852      1.616885
  H       1.563008      0.898786      2.443003
  H       1.754152      2.520402      1.690780
  H       2.440260      1.070700      0.881432
  Li      1.022965     -1.367253     -2.434800
  C       3.134370     -0.162085     -7.260040
  O       3.028392     -0.646345     -5.886821
  P       2.259912     -1.961413     -5.454995
  O       1.809360     -1.817390     -4.032781
  O       1.171383     -2.192237     -6.549815
  C       0.434432     -3.453879     -6.726369
  O       3.266637     -3.185904     -5.645295
  C       4.498984     -3.351797     -4.895323
  H       3.918333      0.592672     -7.244627
  H       2.173139      0.270050     -7.556253
  H       3.386813     -0.988587     -7.933409
  H      -0.242405     -3.271412     -7.558643
  H      -0.125574     -3.679688     -5.815902
  H       1.138766     -4.253169     -6.966341
  H       5.328512     -3.133858     -5.577554
  H       4.543053     -4.406707     -4.611174
  H       4.528169     -2.697716     -4.021094
35
Coordinates from ORCA-job TMP_m1_shell2_oxidized_opt_relaxed E -1530.933404985564
  C      -1.053913     -2.119215      1.795110
  O      -0.273876     -0.906499      1.635797
  P      -0.256066     -0.019764      0.304441
  O       0.472968     -0.723463     -0.802705
  O      -1.730084      0.288997     -0.135209
  C      -2.595323      1.274644      0.531683
  O       0.353307      1.341013      0.789907
  C       1.624306      1.460580      1.511235
  H      -0.357088     -2.899064      2.117414
  H      -1.571112     -2.393863      0.873033
  H      -1.770930     -1.935026      2.603594
  H      -3.605256      1.036628      0.203436
  H      -2.298979      2.273225      0.203404
  H      -2.503393      1.186801      1.617977
  H       1.563750      0.905856      2.451173
  H       1.750692      2.525765      1.694526
  H       2.433577      1.074773      0.884797
  Li      1.027243     -1.349911     -2.437664
  C       3.140888     -0.170392     -7.269217
  O       3.028959     -0.646099     -5.892874
  P       2.258780     -1.957625     -5.456343
  O       1.807603     -1.810457     -4.034834
  O       1.170759     -2.191027     -6.551388
  C       0.427972     -3.450253     -6.720015
  O       3.263154     -3.185022     -5.641911
  C       4.497568     -3.348743     -4.895232
  H       3.923596      0.585584     -7.254107
  H       2.180425      0.258209     -7.572801
  H       3.398409     -1.000784     -7.935783
  H      -0.232071     -3.277819     -7.567827
  H      -0.150375     -3.654629     -5.815973
  H       1.129926     -4.259561     -6.932085
  H       5.325121     -3.154550     -5.587102
  H       4.532180     -4.398051     -4.589206
  H       4.540019     -2.677048     -4.035035
35
Coordinates from ORCA-job TMP_m1_shell2_oxidized_opt_relaxed E -1530.933414680553
  C      -1.041368     -2.121812      1.795755
  O      -0.265214     -0.906518      1.635638
  P      -0.254878     -0.017991      0.304804
  O       0.477721     -0.716095     -0.802992
  O      -1.731893      0.279681     -0.132549
  C      -2.602498      1.259710      0.535194
  O       0.343408      1.346774      0.791806
  C       1.616813      1.474424      1.509368
  H      -0.339526     -2.902693      2.105083
  H      -1.569247     -2.391430      0.878323
  H      -1.748480     -1.943395      2.614288
  H      -3.609033      1.028284      0.191838
  H      -2.300157      2.262193      0.224765
  H      -2.524697      1.156835      1.621350
  H       1.560162      0.923203      2.451689
  H       1.739118      2.540862      1.688196
  H       2.426097      1.089619      0.882395
  Li      1.031582     -1.337125     -2.442040
  C       3.155297     -0.176284     -7.271901
  O       3.040712     -0.650832     -5.895041
  P       2.260793     -1.956210     -5.458411
  O       1.808462     -1.806324     -4.037725
  O       1.173989     -2.183783     -6.555877
  C       0.418686     -3.436560     -6.719872
  O       3.256958     -3.191220     -5.639663
  C       4.491553     -3.357993     -4.893716
  H       3.942539      0.575026     -7.257095
  H       2.197364      0.257998     -7.575656
  H       3.407537     -1.008395     -7.938272
  H      -0.229889     -3.265635     -7.576852
  H      -0.172020     -3.623937     -5.820161
  H       1.113539     -4.256113     -6.915279
  H       5.319064     -3.181269     -5.590454
  H       4.516703     -4.403753     -4.574496
  H       4.543540     -2.676031     -4.042224
35
Coordinates from ORCA-job TMP_m1_shell2_oxidized_opt_relaxed E -1530.933421660493
  C      -1.031525     -2.121458      1.797993
  O      -0.257485     -0.904844      1.634771
  P      -0.253560     -0.016933      0.303413
  O       0.481674     -0.710811     -0.804813
  O      -1.733204      0.271338     -0.132711
  C      -2.608740      1.244137      0.538484
  O       0.336631      1.351997      0.789160
  C       1.610593      1.486650      1.505943
  H      -0.325915     -2.904177      2.094317
  H      -1.571142     -2.386000      0.885974
  H      -1.727434     -1.947067      2.626894
  H      -3.613194      1.015381      0.187074
  H      -2.306171      2.250414      0.240751
  H      -2.537951      1.130414      1.624108
  H       1.555302      0.938900      2.450396
  H       1.729082      2.554236      1.680582
  H       2.420920      1.102297      0.880094
  Li      1.035120     -1.327862     -2.446503
  C       3.167745     -0.179867     -7.271681
  O       3.053082     -0.656590     -5.895395
  P       2.263353     -1.956624     -5.460530
  O       1.809563     -1.804770     -4.040567
  O       1.178219     -2.177751     -6.560828
  C       0.410739     -3.424117     -6.721009
  O       3.251646     -3.198934     -5.637603
  C       4.486527     -3.367091     -4.892008
  H       3.961268      0.564923     -7.257703
  H       2.212652      0.263321     -7.571789
  H       3.410590     -1.012408     -7.940900
  H      -0.231350     -3.251878     -7.582633
  H      -0.186807     -3.599232     -5.823368
  H       1.098371     -4.251740     -6.907524
  H       5.313799     -3.205265     -5.592718
  H       4.504438     -4.409404     -4.560968
  H       4.545901     -2.675974     -4.048486
35
Coordinates from ORCA-job TMP_m1_shell2_oxidized_opt_relaxed E -1530.933426665401
  C      -1.023085     -2.120554      1.800885
  O      -0.251767     -0.902505      1.634075
  P      -0.253307     -0.016158      0.301923
  O       0.483990     -0.706964     -0.806719
  O      -1.734964      0.264947     -0.133481
  C      -2.614444      1.231386      0.541389
  O       0.331818      1.356286      0.785203
  C       1.605838      1.496432      1.501223
  H      -0.313876     -2.904534      2.085271
  H      -1.573212     -2.380945      0.893987
  H      -1.708711     -1.950320      2.639036
  H      -3.617681      1.002582      0.186525
  H      -2.314259      2.240477      0.250889
  H      -2.546172      1.111198      1.626516
  H       1.551918      0.951242      2.447210
  H       1.721148      2.564872      1.672769
  H       2.416919      1.112587      0.876082
  Li      1.037097     -1.320807     -2.450020
  C       3.178565     -0.182024     -7.269631
  O       3.063140     -0.661550     -5.894332
  P       2.265243     -1.957535     -5.462070
  O       1.809780     -1.804213     -4.042678
  O       1.181527     -2.172864     -6.564749
  C       0.404709     -3.413979     -6.722909
  O       3.247065     -3.205751     -5.636124
  C       4.481893     -3.375159     -4.890467
  H       3.977715      0.556785     -7.255652
  H       2.226324      0.269433     -7.566508
  H       3.413386     -1.014477     -7.941743
  H      -0.235749     -3.238301     -7.585051
  H      -0.194438     -3.583098     -5.825210
  H       1.086514     -4.246663     -6.908145
  H       5.309123     -3.224410     -5.593665
  H       4.494288     -4.414806     -4.550776
  H       4.546402     -2.677399     -4.052834
35
Coordinates from ORCA-job TMP_m1_shell2_oxidized_opt_relaxed E -1530.933432315121
  C      -1.010574     -2.119896      1.805002
  O      -0.245017     -0.898856      1.633472
  P      -0.254160     -0.014717      0.300376
  O       0.486179     -0.701413     -0.808972
  O      -1.738150      0.257363     -0.134071
  C      -2.623104      1.215269      0.545880
  O       0.325104      1.362083      0.780221
  C       1.599353      1.509379      1.493961
  H      -0.295424     -2.904768      2.071742
  H      -1.575313     -2.374894      0.905595
  H      -1.681675     -1.957167      2.656086
  H      -3.624631      0.985144      0.187182
  H      -2.326896      2.227766      0.263472
  H      -2.557173      1.087335      1.630277
  H       1.548704      0.966923      2.441667
  H       1.710455      2.578803      1.662098
  H       2.410981      1.126704      0.868818
  Li      1.038940     -1.310335     -2.454302
  C       3.194760     -0.185558     -7.266716
  O       3.075043     -0.667254     -5.892488
  P       2.267007     -1.958151     -5.463854
  O       1.808938     -1.802794     -4.045234
  O       1.184861     -2.166008     -6.569328
  C       0.396774     -3.400351     -6.725591
  O       3.240542     -3.213729     -5.634704
  C       4.474819     -3.386130     -4.888722
  H       4.000276      0.546306     -7.251222
  H       2.246646      0.275109     -7.562462
  H       3.422411     -1.018364     -7.940789
  H      -0.244010     -3.218904     -7.586271
  H      -0.201759     -3.564519     -5.826590
  H       1.071154     -4.238584     -6.912931
  H       5.302247     -3.249088     -5.594395
  H       4.479483     -4.422575     -4.539107
  H       4.545945     -2.680919     -4.057884
35
Coordinates from ORCA-job TMP_m1_shell2_oxidized_opt_relaxed E -1530.933438241531
  C      -1.000407     -2.119073      1.808247
  O      -0.240501     -0.895176      1.632821
  P      -0.255466     -0.012796      0.299276
  O       0.488273     -0.695605     -0.810652
  O      -1.740712      0.252683     -0.135174
  C      -2.631135      1.201853      0.550556
  O       0.319725      1.367176      0.776806
  C       1.593722      1.519685      1.488780
  H      -0.279318     -2.906215      2.051718
  H      -1.583551     -2.365655      0.918291
  H      -1.653069     -1.965982      2.675060
  H      -3.630718      0.970801      0.187215
  H      -2.338284      2.217628      0.276907
  H      -2.567947      1.064957      1.633986
  H       1.545889      0.979011      2.437652
  H       1.701857      2.589753      1.654697
  H       2.405847      1.137858      0.863690
  Li      1.040456     -1.298074     -2.458359
  C       3.210180     -0.190234     -7.265483
  O       3.083237     -0.671122     -5.891485
  P       2.267651     -1.957982     -5.465663
  O       1.806651     -1.800644     -4.047878
  O       1.186847     -2.160669     -6.573310
  C       0.390157     -3.389639     -6.727519
  O       3.234728     -3.219333     -5.633616
  C       4.468711     -3.393957     -4.887736
  H       4.020229      0.536545     -7.247584
  H       2.266028      0.276625     -7.563845
  H       3.434963     -1.024405     -7.938767
  H      -0.253720     -3.202698     -7.584681
  H      -0.204798     -3.551947     -5.825808
  H       1.058508     -4.231555     -6.919982
  H       5.295848     -3.271308     -5.596294
  H       4.465767     -4.426683     -4.527149
  H       4.547088     -2.680616     -4.064499
35
Coordinates from ORCA-job TMP_m1_shell2_oxidized_opt_relaxed E -1530.933445246019
  C      -0.988943     -2.117582      1.812117
  O      -0.235416     -0.890581      1.631887
  P      -0.257158     -0.009828      0.298172
  O       0.491020     -0.687532     -0.812527
  O      -1.743276      0.248499     -0.136200
  C      -2.641154      1.185795      0.557472
  O       0.313177      1.373397      0.774055
  C       1.586389      1.531882      1.484434
  H      -0.261298     -2.908335      2.022954
  H      -1.597635     -2.352019      0.936079
  H      -1.615535     -1.977004      2.699735
  H      -3.638082      0.952652      0.188351
  H      -2.353201      2.205767      0.294966
  H      -2.580776      1.036958      1.639403
  H       1.542099      0.992388      2.434220
  H       1.691016      2.602551      1.648694
  H       2.399570      1.151664      0.859547
  Li      1.042783     -1.280976     -2.463233
  C       3.229992     -0.197747     -7.266299
  O       3.091274     -0.674355     -5.891666
  P       2.267843     -1.956408     -5.468055
  O       1.803157     -1.796510     -4.051462
  O       1.188302     -2.153997     -6.577886
  C       0.382798     -3.377219     -6.729908
  O       3.227708     -3.224012     -5.632918
  C       4.461138     -3.402833     -4.887352
  H       4.043758      0.524722     -7.244577
  H       2.290450      0.273442     -7.571870
  H       3.455512     -1.034840     -7.935635
  H      -0.265920     -3.183872     -7.581960
  H      -0.206611     -3.538942     -5.824423
  H       1.044635     -4.222654     -6.929550
  H       5.287842     -3.297222     -5.599077
  H       4.448292     -4.431227     -4.514628
  H       4.548988     -2.680810     -4.072645
35
Coordinates from ORCA-job TMP_m1_shell2_oxidized_opt_relaxed E -1530.933452614432
  C      -0.983072     -2.114176      1.815445
  O      -0.231605     -0.886609      1.630393
  P      -0.257831     -0.006390      0.297156
  O       0.495047     -0.678895     -0.814030
  O      -1.743582      0.247444     -0.138022
  C      -2.649487      1.171195      0.565035
  O       0.308735      1.378788      0.773626
  C       1.580040      1.541221      1.484881
  H      -0.252316     -2.912402      1.984357
  H      -1.624494     -2.330024      0.958156
  H      -1.575434     -1.986709      2.727851
  H      -3.643457      0.936520      0.189000
  H      -2.366361      2.195754      0.316098
  H      -2.592314      1.007759      1.644914
  H       1.537288      1.001566      2.434776
  H       1.682154      2.612156      1.649002
  H       2.395173      1.162586      0.861302
  Li      1.046461     -1.261420     -2.468151
  C       3.247681     -0.207030     -7.270724
  O       3.095715     -0.675585     -5.894266
  P       2.267252     -1.953683     -5.470923
  O       1.798840     -1.791202     -4.055761
  O       1.188747     -2.149178     -6.582372
  C       0.377766     -3.368763     -6.732004
  O       3.221862     -3.225884     -5.632394
  C       4.455579     -3.407773     -4.888354
  H       4.063192      0.513310     -7.245469
  H       2.312120      0.264914     -7.586743
  H       3.477425     -1.048469     -7.933056
  H      -0.276928     -3.170651     -7.578364
  H      -0.204925     -3.531858     -5.822348
  H       1.035237     -4.215880     -6.939057
  H       5.280715     -3.320689     -5.604369
  H       4.433115     -4.430893     -4.501580
  H       4.554397     -2.675836     -4.083789
35
Coordinates from ORCA-job TMP_m1_shell2_oxidized_opt_relaxed E -1530.933459488344
  C      -0.979257     -2.109463      1.819590
  O      -0.226246     -0.883509      1.628636
  P      -0.257526     -0.003091      0.295999
  O       0.499701     -0.670007     -0.815702
  O      -1.742974      0.245890     -0.139115
  C      -2.657202      1.155231      0.573306
  O       0.304230      1.384043      0.773981
  C       1.573635      1.551142      1.486536
  H      -0.249286     -2.916547      1.945621
  H      -1.654172     -2.304884      0.983326
  H      -1.535188     -1.993183      2.755797
  H      -3.648331      0.918235      0.191215
  H      -2.380065      2.184464      0.337803
  H      -2.602151      0.977570      1.650948
  H       1.532461      1.010596      2.436145
  H       1.672222      2.622351      1.651096
  H       2.391201      1.175308      0.864172
  Li      1.051629     -1.242105     -2.472843
  C       3.264440     -0.216568     -7.276341
  O       3.100822     -0.676815     -5.897909
  P       2.267181     -1.950485     -5.473860
  O       1.795462     -1.785285     -4.060283
  O       1.189548     -2.143925     -6.586923
  C       0.373771     -3.360274     -6.734995
  O       3.216233     -3.227289     -5.631884
  C       4.450354     -3.413430     -4.889888
  H       4.081212      0.502211     -7.248453
  H       2.332250      0.255165     -7.602204
  H       3.498069     -1.062403     -7.931601
  H      -0.283920     -3.158843     -7.578253
  H      -0.205433     -3.523123     -5.822981
  H       1.027626     -4.209401     -6.945456
  H       5.273665     -3.343185     -5.609882
  H       4.418705     -4.431810     -4.491171
  H       4.560069     -2.673367     -4.094212
35
Coordinates from ORCA-job TMP_m1_shell2_oxidized_opt_relaxed E -1530.933465287072
  C      -0.967951     -2.103978      1.827340
  O      -0.214638     -0.879355      1.626841
  P      -0.257255      0.000645      0.294181
  O       0.505301     -0.658069     -0.818525
  O      -1.744152      0.237984     -0.138370
  C      -2.669496      1.128321      0.584691
  O       0.294210      1.392457      0.772378
  C       1.562791      1.570438      1.483224
  H      -0.239968     -2.918927      1.907589
  H      -1.678549     -2.279270      1.016498
  H      -1.482722     -1.999249      2.787852
  H      -3.657193      0.886228      0.196864
  H      -2.402488      2.163434      0.364267
  H      -2.615295      0.935267      1.659659
  H       1.527397      1.029527      2.432991
  H       1.653189      2.642477      1.647114
  H       2.382952      1.200706      0.860400
  Li      1.059439     -1.219631     -2.478442
  C       3.290174     -0.228196     -7.280398
  O       3.114022     -0.681284     -5.900624
  P       2.268849     -1.946769     -5.477169
  O       1.793476     -1.777637     -4.065588
  O       1.192445     -2.132699     -6.593211
  C       0.365805     -3.341615     -6.740614
  O       3.206574     -3.232379     -5.631200
  C       4.440076     -3.428296     -4.891061
  H       4.110571      0.486306     -7.249416
  H       2.362836      0.246577     -7.615327
  H       3.524480     -1.078425     -7.929644
  H      -0.288974     -3.135567     -7.585034
  H      -0.215999     -3.497920     -5.829032
  H       1.012252     -4.197120     -6.948309
  H       5.261952     -3.376372     -5.614316
  H       4.395862     -4.442312     -4.482329
  H       4.562766     -2.682085     -4.103065
35
Coordinates from ORCA-job TMP_m1_shell2_oxidized_opt_relaxed E -1530.933468456610
  C      -0.970192     -2.097871      1.831440
  O      -0.210017     -0.878179      1.625007
  P      -0.255916      0.002919      0.292969
  O       0.510600     -0.650993     -0.819535
  O      -1.742248      0.237047     -0.140284
  C      -2.674313      1.113872      0.591171
  O       0.291900      1.396036      0.773626
  C       1.559542      1.577292      1.485106
  H      -0.250696     -2.923766      1.866874
  H      -1.713821     -2.248210      1.045592
  H      -1.444676     -2.004657      2.813353
  H      -3.659623      0.872374      0.196870
  H      -2.411639      2.152988      0.385255
  H      -2.623159      0.906622      1.663593
  H       1.525494      1.034665      2.434016
  H       1.646499      2.649421      1.650359
  H       2.381225      1.210860      0.862200
  Li      1.066350     -1.203504     -2.481912
  C       3.301125     -0.235629     -7.284886
  O       3.118327     -0.682871     -5.903638
  P       2.269141     -1.944944     -5.479653
  O       1.790919     -1.773283     -4.069550
  O       1.193967     -2.130172     -6.597467
  C       0.363680     -3.336703     -6.743098
  O       3.202503     -3.234204     -5.629422
  C       4.438054     -3.430515     -4.893077
  H       4.123285      0.476835     -7.253377
  H       2.376371      0.240204     -7.625262
  H       3.535807     -1.089005     -7.929746
  H      -0.287993     -3.131419     -7.590119
  H      -0.221309     -3.487878     -5.832627
  H       1.007843     -4.195194     -6.945661
  H       5.256302     -3.395580     -5.621490
  H       4.387923     -4.438610     -4.470368
  H       4.571482     -2.674736     -4.116041
35
Coordinates from ORCA-job TMP_m1_shell2_oxidized_opt_relaxed E -1530.933470310953
  C      -0.958726     -2.096417      1.837302
  O      -0.201208     -0.876134      1.624856
  P      -0.257119      0.004214      0.292207
  O       0.511622     -0.644875     -0.821344
  O      -1.745816      0.228422     -0.137272
  C      -2.682590      1.096604      0.598390
  O       0.282902      1.401299      0.771192
  C       1.552712      1.591725      1.476406
  H      -0.239466     -2.923090      1.858705
  H      -1.713373     -2.242837      1.061262
  H      -1.418639     -2.007086      2.826386
  H      -3.666605      0.852164      0.202698
  H      -2.425604      2.138218      0.398142
  H      -2.630822      0.884043      1.669758
  H       1.526683      1.049290      2.425675
  H       1.632759      2.664528      1.640719
  H       2.373818      1.230682      0.849636
  Li      1.069632     -1.194696     -2.484299
  C       3.317463     -0.240442     -7.282785
  O       3.129876     -0.687696     -5.902139
  P       2.271039     -1.944034     -5.480629
  O       1.790959     -1.769921     -4.071494
  O       1.196979     -2.121453     -6.600945
  C       0.357705     -3.321505     -6.747969
  O       3.195495     -3.239860     -5.628666
  C       4.429942     -3.443575     -4.892636
  H       4.143095      0.467915     -7.249341
  H       2.395774      0.240042     -7.624819
  H       3.549354     -1.094607     -7.927631
  H      -0.285083     -3.114587     -7.601358
  H      -0.236217     -3.463058     -5.841755
  H       0.995917     -4.186564     -6.941274
  H       5.248208     -3.414645     -5.621295
  H       4.373614     -4.450974     -4.469067
  H       4.568462     -2.687881     -4.116401
35
Coordinates from ORCA-job TMP_m1_shell2_oxidized_opt_relaxed E -1530.933471698638
  C      -0.977659     -2.096093      1.832689
  O      -0.209732     -0.881797      1.624487
  P      -0.257640      0.002116      0.293253
  O       0.506222     -0.651571     -0.820700
  O      -1.744852      0.238519     -0.136273
  C      -2.673150      1.116363      0.597722
  O       0.292526      1.394293      0.775049
  C       1.564841      1.574178      1.479087
  H      -0.264230     -2.927459      1.864575
  H      -1.724435     -2.239825      1.048583
  H      -1.447588     -2.001449      2.816609
  H      -3.660260      0.877853      0.206144
  H      -2.409490      2.155319      0.391976
  H      -2.619856      0.909422      1.670164
  H       1.536766      1.027868      2.425965
  H       1.650772      2.645802      1.648029
  H       2.382457      1.211517      0.848878
  Li      1.063224     -1.206017     -2.482615
  C       3.297071     -0.233509     -7.282887
  O       3.118221     -0.683708     -5.902355
  P       2.269492     -1.947061     -5.479526
  O       1.790042     -1.774583     -4.069898
  O       1.195884     -2.133493     -6.598755
  C       0.368245     -3.341468     -6.747102
  O       3.204092     -3.235356     -5.627275
  C       4.441107     -3.427495     -4.892289
  H       4.118561      0.479819     -7.252529
  H       2.371146      0.242178     -7.620311
  H       3.530907     -1.085236     -7.930283
  H      -0.268643     -3.144167     -7.607170
  H      -0.232642     -3.483005     -5.845539
  H       1.015079     -4.202177     -6.930860
  H       5.258903     -3.386914     -5.620880
  H       4.396501     -4.436859     -4.472163
  H       4.570854     -2.672796     -4.113584
35
Coordinates from ORCA-job TMP_m1_shell2_oxidized_opt_relaxed E -1530.933472649220
  C      -0.973732     -2.094888      1.834954
  O      -0.207552     -0.880059      1.624137
  P      -0.258664      0.002919      0.292623
  O       0.506046     -0.649349     -0.821799
  O      -1.746489      0.236612     -0.135876
  C      -2.676478      1.110673      0.600889
  O       0.290039      1.396248      0.773314
  C       1.562647      1.578245      1.475734
  H      -0.260203     -2.926490      1.859386
  H      -1.726442     -2.236866      1.056229
  H      -1.436042     -2.002815      2.822692
  H      -3.663239      0.870054      0.209756
  H      -2.415895      2.150624      0.396486
  H      -2.621637      0.901820      1.672842
  H       1.537016      1.031759      2.422613
  H       1.647076      2.649973      1.644783
  H       2.380127      1.216960      0.844500
  Li      1.063703     -1.202551     -2.483782
  C       3.303514     -0.235400     -7.282063
  O       3.121420     -0.685067     -5.901789
  P       2.269770     -1.946817     -5.480198
  O       1.789131     -1.773501     -4.070935
  O       1.196706     -2.130880     -6.600285
  C       0.366353     -3.336850     -6.749165
  O       3.201651     -3.237180     -5.627252
  C       4.438174     -3.431271     -4.891923
  H       4.126283      0.476376     -7.250318
  H       2.379116      0.242069     -7.621078
  H       3.537056     -1.087611     -7.928925
  H      -0.269596     -3.138086     -7.609587
  H      -0.235308     -3.476974     -5.847895
  H       1.011196     -4.199130     -6.932613
  H       5.256174     -3.392612     -5.620380
  H       4.391514     -4.440308     -4.471273
  H       4.569303     -2.676415     -4.113587
35
Coordinates from ORCA-job TMP_m1_shell2_oxidized_opt_relaxed E -1530.933473565398
  C      -0.957730     -2.092853      1.843099
  O      -0.198168     -0.875687      1.623862
  P      -0.261937      0.004887      0.291531
  O       0.504982     -0.642090     -0.824844
  O      -1.752670      0.227051     -0.131733
  C      -2.687544      1.091315      0.611296
  O       0.279056      1.402810      0.768619
  C       1.554052      1.594412      1.463080
  H      -0.242523     -2.923456      1.851344
  H      -1.724043     -2.233551      1.077498
  H      -1.402201     -2.005896      2.839395
  H      -3.673205      0.844320      0.221423
  H      -2.435509      2.133875      0.409984
  H      -2.628590      0.878156      1.682118
  H       1.538924      1.047789      2.410177
  H       1.631768      2.666704      1.631774
  H       2.370417      1.238993      0.826981
  Li      1.064948     -1.192675     -2.486944
  C       3.325680     -0.241749     -7.278851
  O       3.133562     -0.689920     -5.899477
  P       2.270923     -1.945444     -5.481803
  O       1.787153     -1.769258     -4.073702
  O       1.199372     -2.120013     -6.604744
  C       0.359707     -3.318928     -6.757145
  O       3.192519     -3.243305     -5.627241
  C       4.426672     -3.446454     -4.890254
  H       4.152477      0.465118     -7.242740
  H       2.406053      0.241157     -7.622939
  H       3.558105     -1.095467     -7.924137
  H      -0.269432     -3.115939     -7.621563
  H      -0.248297     -3.452397     -5.859125
  H       0.997920     -4.187188     -6.935609
  H       5.246157     -3.411166     -5.617198
  H       4.372880     -4.455960     -4.471738
  H       4.561259     -2.693981     -4.110177
35
Coordinates from ORCA-job TMP_m1_shell2_oxidized_opt_relaxed E -1530.933473887585
  C      -0.963004     -2.091869      1.842617
  O      -0.200006     -0.876794      1.623566
  P      -0.261712      0.004678      0.291701
  O       0.504601     -0.642885     -0.824684
  O      -1.751822      0.229666     -0.131991
  C      -2.685674      1.094620      0.611605
  O       0.281380      1.401453      0.769885
  C       1.556501      1.590491      1.464908
  H      -0.250655     -2.924983      1.846879
  H      -1.732128     -2.228292      1.079070
  H      -1.404016     -2.005327      2.840463
  H      -3.671625      0.849359      0.221326
  H      -2.432113      2.137001      0.411283
  H      -2.627229      0.880388      1.682241
  H       1.540319      1.042822      2.411393
  H       1.635754      2.662491      1.634766
  H       2.372545      1.234585      0.828655
  Li      1.064289     -1.193282     -2.486915
  C       3.322203     -0.241511     -7.280207
  O       3.130417     -0.688605     -5.900389
  P       2.270266     -1.945555     -5.481954
  O       1.786290     -1.769571     -4.073939
  O       1.198851     -2.122708     -6.604664
  C       0.362021     -3.323624     -6.757097
  O       3.194137     -3.241824     -5.626786
  C       4.429310     -3.441956     -4.890584
  H       4.148160      0.466381     -7.244664
  H       2.402050      0.240043     -7.624831
  H       3.555592     -1.095530     -7.924735
  H      -0.266677     -3.122643     -7.622309
  H      -0.246600     -3.457743     -5.859582
  H       1.002348     -4.190614     -6.934170
  H       5.248097     -3.406120     -5.618303
  H       4.377593     -4.451040     -4.470782
  H       4.563274     -2.688292     -4.111556
