35
Coordinates from ORCA-job TMP_m1_shell2_reduced_opt_relaxed E -1531.466433210026
  C       1.976195     -1.847373     -0.327273
  O       1.528438     -0.498759     -0.026200
  P      -0.008826     -0.127727     -0.144306
  O      -0.599083     -0.401908     -1.499655
  O      -0.689391     -0.919769      1.037145
  C      -2.131657     -0.848871      1.241002
  O      -0.081850      1.385837      0.293889
  C       0.321447      2.448487     -0.613224
  H       3.058808     -1.836852     -0.201607
  H       1.724578     -2.111309     -1.360715
  H       1.526810     -2.557637      0.372312
  H      -2.348923     -1.550758      2.045093
  H      -2.657103     -1.143372      0.328358
  H      -2.411771      0.164501      1.539686
  H       1.401044      2.401552     -0.782852
  H       0.066043      3.379699     -0.108814
  H      -0.226608      2.369087     -1.556355
  Li     -0.558309     -1.115285     -3.133973
  C       3.237963     -0.235437     -3.436379
  O       3.146997     -1.595792     -3.937630
  P       1.957685     -2.010603     -4.901191
  O       0.591690     -1.788405     -4.313694
  O       2.240665     -1.206515     -6.227569
  C       1.334466     -1.310618     -7.365270
  O       2.258215     -3.514423     -5.271006
  C       1.962555     -4.589351     -4.336991
  H       4.092739     -0.223424     -2.760243
  H       2.327507      0.033713     -2.888724
  H       3.407208      0.457992     -4.264672
  H       1.708088     -0.602134     -8.103382
  H       0.317909     -1.043079     -7.064014
  H       1.364691     -2.325990     -7.768633
  H       2.620378     -4.515856     -3.466184
  H       2.165198     -5.513363     -4.877280
  H       0.911395     -4.551483     -4.037576
35
Coordinates from ORCA-job TMP_m1_shell2_reduced_opt_relaxed E -1531.468699653623
  C       1.959607     -1.896480     -0.313201
  O       1.539434     -0.546532      0.008264
  P       0.009486     -0.140495     -0.140855
  O      -0.580644     -0.395637     -1.496394
  O      -0.700716     -0.906060      1.045221
  C      -2.148482     -0.858830      1.173659
  O      -0.026369      1.375967      0.305259
  C       0.369773      2.422059     -0.618490
  H       3.042035     -1.911647     -0.175806
  H       1.708728     -2.135111     -1.354040
  H       1.484666     -2.609845      0.366390
  H      -2.392857     -1.538370      1.990194
  H      -2.616899     -1.195014      0.242494
  H      -2.463660      0.158887      1.420445
  H       1.445285      2.359652     -0.810256
  H       0.133901      3.362099     -0.118364
  H      -0.196414      2.333119     -1.551818
  Li     -0.557187     -1.107917     -3.136451
  C       3.239178     -0.181911     -3.467856
  O       3.177542     -1.545844     -3.955961
  P       1.972985     -1.996734     -4.890789
  O       0.608080     -1.786030     -4.304934
  O       2.241998     -1.227321     -6.244465
  C       1.279673     -1.312515     -7.331363
  O       2.301177     -3.505114     -5.233129
  C       1.981569     -4.558563     -4.288147
  H       4.100349     -0.144008     -2.798811
  H       2.323758      0.068951     -2.917596
  H       3.381332      0.508594     -4.303940
  H       1.644754     -0.631583     -8.100292
  H       0.291121     -0.998370     -6.979743
  H       1.246905     -2.335802     -7.715786
  H       2.618174     -4.468495     -3.402706
  H       2.193853     -5.494152     -4.806772
  H       0.923056     -4.506174     -4.011884
35
Coordinates from ORCA-job TMP_m1_shell2_reduced_opt_relaxed E -1531.469840141308
  C       2.096178     -1.703835     -0.446790
  O       1.605931     -0.394196     -0.072479
  P       0.044214     -0.083574     -0.194718
  O      -0.587791     -0.370943     -1.517969
  O      -0.576639     -0.870467      1.035934
  C      -2.020377     -0.971248      1.142963
  O      -0.053019      1.435056      0.262234
  C       0.205794      2.484089     -0.702077
  H       3.181309     -1.656901     -0.337504
  H       1.826773     -1.927737     -1.487445
  H       1.680828     -2.466889      0.218826
  H      -2.207612     -1.640048      1.983850
  H      -2.432073     -1.389849      0.216853
  H      -2.448372      0.016417      1.341282
  H       1.268143      2.492670     -0.968389
  H      -0.062282      3.416980     -0.203616
  H      -0.409045      2.331260     -1.596855
  Li     -0.613512     -1.098584     -3.163001
  C       3.258990     -0.364928     -3.286473
  O       3.174829     -1.694946     -3.851703
  P       1.961725     -2.052560     -4.827015
  O       0.587880     -1.801479     -4.295759
  O       2.329243     -1.269438     -6.157490
  C       1.351743     -1.213593     -7.228679
  O       2.247147     -3.568375     -5.208077
  C       1.793786     -4.620169     -4.321703
  H       4.103926     -0.388663     -2.595762
  H       2.333323     -0.119053     -2.748830
  H       3.436232      0.369080     -4.078416
  H       1.776897     -0.547950     -7.980768
  H       0.406025     -0.811484     -6.846102
  H       1.201931     -2.213400     -7.648024
  H       2.368830     -4.597109     -3.389777
  H       1.979593     -5.555090     -4.852691
  H       0.724640     -4.498273     -4.111757
35
Coordinates from ORCA-job TMP_m1_shell2_reduced_opt_relaxed E -1531.470944844996
  C       1.918125     -2.016654     -0.316723
  O       1.559978     -0.658455      0.030853
  P       0.038025     -0.193612     -0.170055
  O      -0.582217     -0.402012     -1.507123
  O      -0.698392     -0.911475      1.048578
  C      -2.147956     -0.873533      1.075739
  O       0.086708      1.329573      0.307864
  C       0.474996      2.339906     -0.653461
  H       2.996804     -2.086859     -0.166627
  H       1.661006     -2.225490     -1.363545
  H       1.396503     -2.724679      0.335864
  H      -2.445427     -1.511056      1.909335
  H      -2.546402     -1.260015      0.129509
  H      -2.493752      0.152254      1.242269
  H       1.538729      2.238583     -0.897953
  H       0.294147      3.299004     -0.165726
  H      -0.127403      2.244396     -1.564872
  Li     -0.650687     -1.094513     -3.180102
  C       3.213566     -0.056340     -3.511349
  O       3.205632     -1.431680     -3.960904
  P       1.971488     -1.940983     -4.850180
  O       0.599247     -1.762199     -4.301801
  O       2.252496     -1.235441     -6.251974
  C       1.221372     -1.319973     -7.268479
  O       2.373236     -3.458998     -5.141295
  C       2.010326     -4.465475     -4.166132
  H       4.080076      0.036567     -2.854461
  H       2.289532      0.175574     -2.964581
  H       3.310358      0.619009     -4.367606
  H       1.565343     -0.692110     -8.091487
  H       0.272054     -0.946918     -6.864629
  H       1.109494     -2.356286     -7.604565
  H       2.597207     -4.331921     -3.249861
  H       2.250842     -5.425076     -4.626273
  H       0.940135     -4.398339     -3.936176
35
Coordinates from ORCA-job TMP_m1_shell2_reduced_opt_relaxed E -1531.471541179092
  C       1.928798     -2.003018     -0.345400
  O       1.570132     -0.644488      0.008463
  P       0.048395     -0.179623     -0.172040
  O      -0.575616     -0.393939     -1.509476
  O      -0.682936     -0.904076      1.043447
  C      -2.135903     -0.890120      1.075642
  O       0.094492      1.344307      0.297033
  C       0.463416      2.361874     -0.667271
  H       3.010046     -2.068974     -0.214977
  H       1.657540     -2.213411     -1.387752
  H       1.423956     -2.712628      0.317882
  H      -2.419486     -1.530397      1.911481
  H      -2.535752     -1.284963      0.134736
  H      -2.496832      0.129588      1.243351
  H       1.525531      2.272704     -0.920828
  H       0.278534      3.317797     -0.175564
  H      -0.148247      2.267626     -1.571687
  Li     -0.649569     -1.092028     -3.180403
  C       3.200949     -0.070816     -3.481834
  O       3.197754     -1.445857     -3.938742
  P       1.977270     -1.954425     -4.842308
  O       0.602040     -1.768064     -4.296403
  O       2.260013     -1.242788     -6.238669
  C       1.229203     -1.303436     -7.261606
  O       2.369862     -3.473736     -5.128818
  C       1.993861     -4.487712     -4.163409
  H       4.054999      0.017459     -2.808623
  H       2.269982      0.160902     -2.948361
  H       3.317265      0.608211     -4.332335
  H       1.584059     -0.671599     -8.076372
  H       0.282141     -0.922855     -6.862376
  H       1.107594     -2.334014     -7.609893
  H       2.577147     -4.367003     -3.243851
  H       2.231664     -5.444448     -4.630108
  H       0.922888     -4.421275     -3.940857
35
Coordinates from ORCA-job TMP_m1_shell2_reduced_opt_relaxed E -1531.472263598265
  C       1.951614     -1.982102     -0.425957
  O       1.597867     -0.626139     -0.052110
  P       0.074226     -0.162317     -0.195177
  O      -0.571455     -0.381229     -1.523996
  O      -0.637431     -0.892565      1.027392
  C      -2.092377     -0.924855      1.062668
  O       0.127002      1.362659      0.266348
  C       0.450222      2.385638     -0.710165
  H       3.036988     -2.043261     -0.334898
  H       1.648051     -2.188246     -1.459711
  H       1.475800     -2.697169      0.252257
  H      -2.352780     -1.566972      1.904336
  H      -2.485595     -1.338761      0.128336
  H      -2.484540      0.083663      1.225101
  H       1.506021      2.315645     -0.992829
  H       0.264075      3.338808     -0.214012
  H      -0.186604      2.284844     -1.595398
  Li     -0.687063     -1.087714     -3.197000
  C       3.160489     -0.092376     -3.406402
  O       3.175812     -1.464000     -3.877592
  P       1.978800     -1.970409     -4.809078
  O       0.593853     -1.776092     -4.284734
  O       2.281622     -1.254685     -6.198136
  C       1.250924     -1.270810     -7.226197
  O       2.368795     -3.491591     -5.084217
  C       1.953582     -4.510933     -4.139227
  H       3.990046     -0.008766     -2.702949
  H       2.213083      0.131711     -2.900506
  H       3.306286      0.594990     -4.245224
  H       1.626035     -0.636017     -8.029205
  H       0.311948     -0.872152     -6.828205
  H       1.104548     -2.291515     -7.592342
  H       2.515919     -4.409356     -3.204950
  H       2.191003     -5.465736     -4.609660
  H       0.878424     -4.437413     -3.944486
35
Coordinates from ORCA-job TMP_m1_shell2_reduced_opt_relaxed E -1531.472884889796
  C       1.965600     -1.977257     -0.510617
  O       1.623133     -0.619553     -0.129907
  P       0.097531     -0.158302     -0.230579
  O      -0.577831     -0.382546     -1.545322
  O      -0.586333     -0.891867      1.004654
  C      -2.040851     -0.941826      1.066268
  O       0.159954      1.367510      0.223110
  C       0.448313      2.391170     -0.763681
  H       3.053786     -2.036183     -0.462081
  H       1.624837     -2.188539     -1.530868
  H       1.518784     -2.688616      0.190599
  H      -2.276751     -1.587286      1.912510
  H      -2.447850     -1.359127      0.139942
  H      -2.441721      0.061673      1.237444
  H       1.497655      2.331818     -1.071240
  H       0.265561      3.343642     -0.265004
  H      -0.210186      2.284795     -1.631665
  Li     -0.757100     -1.092314     -3.224235
  C       3.101568     -0.102489     -3.323505
  O       3.138432     -1.471088     -3.804333
  P       1.970251     -1.973568     -4.770154
  O       0.572937     -1.778832     -4.275269
  O       2.299536     -1.247171     -6.146526
  C       1.286740     -1.244489     -7.193648
  O       2.365822     -3.493233     -5.039765
  C       1.923214     -4.519541     -4.115015
  H       3.904063     -0.021129     -2.589142
  H       2.136874      0.113773     -2.849324
  H       3.276843      0.590566     -4.151741
  H       1.679969     -0.600107     -7.980112
  H       0.341593     -0.848514     -6.809149
  H       1.144216     -2.259219     -7.577146
  H       2.465489     -4.431292     -3.167750
  H       2.166813     -5.470857     -4.589279
  H       0.844299     -4.445227     -3.945396
35
Coordinates from ORCA-job TMP_m1_shell2_reduced_opt_relaxed E -1531.473423202248
  C       1.955837     -2.014831     -0.556405
  O       1.637074     -0.649843     -0.180569
  P       0.115236     -0.175045     -0.260767
  O      -0.581925     -0.399141     -1.563910
  O      -0.558026     -0.897195      0.986555
  C      -2.011742     -0.936032      1.066002
  O       0.200411      1.351952      0.184007
  C       0.479339      2.367576     -0.812890
  H       3.044191     -2.085528     -0.534736
  H       1.588179     -2.230590     -1.565891
  H       1.518700     -2.713597      0.163330
  H      -2.241354     -1.577687      1.916876
  H      -2.432779     -1.351675      0.145129
  H      -2.402927      0.070961      1.239672
  H       1.524082      2.301382     -1.134839
  H       0.308809      3.324229     -0.317781
  H      -0.192600      2.259351     -1.670366
  Li     -0.832170     -1.104128     -3.251574
  C       3.046394     -0.074589     -3.277490
  O       3.110309     -1.442529     -3.757722
  P       1.961824     -1.956242     -4.739814
  O       0.555823     -1.772730     -4.266120
  O       2.302214     -1.227372     -6.111769
  C       1.301312     -1.232171     -7.169842
  O       2.376206     -3.472044     -5.000634
  C       1.927239     -4.500930     -4.082874
  H       3.832415      0.017072     -2.526713
  H       2.070061      0.127123     -2.822089
  H       3.229651      0.620173     -4.102619
  H       1.697378     -0.581995     -7.950115
  H       0.347952     -0.847242     -6.794248
  H       1.173247     -2.247447     -7.557222
  H       2.457308     -4.411029     -3.128720
  H       2.181775     -5.450818     -4.554409
  H       0.845748     -4.432614     -3.927369
35
Coordinates from ORCA-job TMP_m1_shell2_reduced_opt_relaxed E -1531.474087959032
  C       1.916104     -2.106132     -0.564796
  O       1.638276     -0.729943     -0.198463
  P       0.128495     -0.219767     -0.282237
  O      -0.578020     -0.434688     -1.580147
  O      -0.558155     -0.917017      0.971388
  C      -2.010898     -0.913511      1.055910
  O       0.252635      1.306660      0.154718
  C       0.552507      2.308336     -0.848410
  H       3.002442     -2.205456     -0.559019
  H       1.526976     -2.318669     -1.566625
  H       1.470331     -2.784890      0.168801
  H      -2.255750     -1.547290      1.908522
  H      -2.444753     -1.317305      0.135242
  H      -2.372171      0.104959      1.229045
  H       1.596959      2.220413     -1.167070
  H       0.398743      3.272182     -0.361626
  H      -0.119705      2.204248     -1.706686
  Li     -0.922429     -1.115097     -3.285201
  C       3.001821      0.009591     -3.287590
  O       3.094273     -1.365021     -3.742354
  P       1.955344     -1.911875     -4.717159
  O       0.545512     -1.746271     -4.253074
  O       2.287544     -1.198019     -6.098531
  C       1.290904     -1.241741     -7.157969
  O       2.398545     -3.422843     -4.955381
  C       1.965128     -4.443998     -4.023554
  H       3.776303      0.128054     -2.528582
  H       2.016545      0.199033     -2.847991
  H       3.183275      0.691560     -4.123954
  H       1.673156     -0.592652     -7.946106
  H       0.327851     -0.875650     -6.787045
  H       1.188177     -2.265364     -7.531285
  H       2.497199     -4.335126     -3.072140
  H       2.228941     -5.397436     -4.482919
  H       0.883086     -4.384499     -3.865638
35
Coordinates from ORCA-job TMP_m1_shell2_reduced_opt_relaxed E -1531.474453550880
  C       1.902774     -2.146967     -0.532384
  O       1.639666     -0.760515     -0.195155
  P       0.133972     -0.241520     -0.293418
  O      -0.568676     -0.475287     -1.588098
  O      -0.558753     -0.912394      0.970291
  C      -2.010519     -0.890806      1.056594
  O       0.265479      1.290199      0.121441
  C       0.572116      2.277278     -0.892930
  H       2.988593     -2.249148     -0.559143
  H       1.478771     -2.382815     -1.514837
  H       1.478238     -2.803536      0.233357
  H      -2.262632     -1.515300      1.913965
  H      -2.448684     -1.296109      0.138337
  H      -2.359115      0.133445      1.222064
  H       1.622782      2.194664     -1.191907
  H       0.400374      3.247985     -0.426054
  H      -0.084289      2.149963     -1.760622
  Li     -0.984185     -1.155860     -3.296208
  C       3.001139      0.039600     -3.291529
  O       3.092505     -1.340089     -3.731217
  P       1.953165     -1.893051     -4.702074
  O       0.545552     -1.741248     -4.232465
  O       2.276024     -1.171868     -6.081228
  C       1.278944     -1.222443     -7.138910
  O       2.408459     -3.398300     -4.950544
  C       1.982918     -4.429970     -4.027555
  H       3.752742      0.156286     -2.509441
  H       2.003860      0.242148     -2.885971
  H       3.215896      0.711101     -4.128477
  H       1.648609     -0.560443     -7.922370
  H       0.311266     -0.875024     -6.761366
  H       1.191571     -2.244512     -7.520493
  H       2.528611     -4.336656     -3.082238
  H       2.234815     -5.378587     -4.503377
  H       0.903204     -4.365444     -3.853967
35
Coordinates from ORCA-job TMP_m1_shell2_reduced_opt_relaxed E -1531.474654338840
  C       1.924382     -2.119766     -0.519698
  O       1.643623     -0.738222     -0.175139
  P       0.133175     -0.234378     -0.285545
  O      -0.551889     -0.475810     -1.586433
  O      -0.561187     -0.914095      0.972172
  C      -2.013294     -0.910463      1.048156
  O       0.241828      1.297230      0.136303
  C       0.531474      2.297009     -0.870225
  H       3.010966     -2.201395     -0.572423
  H       1.479490     -2.364117     -1.491380
  H       1.530279     -2.783692      0.255767
  H      -2.265287     -1.545778      1.897608
  H      -2.439591     -1.312832      0.122850
  H      -2.374910      0.108203      1.220092
  H       1.589125      2.250442     -1.151494
  H       0.318937      3.260150     -0.404413
  H      -0.105512      2.149440     -1.749343
  Li     -0.990633     -1.147194     -3.299659
  C       3.055505      0.025879     -3.319824
  O       3.113643     -1.361232     -3.740874
  P       1.958549     -1.902233     -4.700629
  O       0.559181     -1.731950     -4.217786
  O       2.282506     -1.188444     -6.083349
  C       1.278597     -1.224692     -7.134529
  O       2.392417     -3.413160     -4.951912
  C       1.947564     -4.443199     -4.036033
  H       3.783967      0.126112     -2.513944
  H       2.052043      0.268600     -2.952334
  H       3.321454      0.678591     -4.156853
  H       1.647674     -0.561287     -7.917134
  H       0.316381     -0.871190     -6.748381
  H       1.180180     -2.243926     -7.520931
  H       2.505141     -4.375055     -3.095570
  H       2.167509     -5.393124     -4.524919
  H       0.871904     -4.349650     -3.850123
35
Coordinates from ORCA-job TMP_m1_shell2_reduced_opt_relaxed E -1531.474792713364
  C       1.941370     -2.099504     -0.465068
  O       1.645997     -0.715370     -0.142555
  P       0.133267     -0.223495     -0.275375
  O      -0.531894     -0.503900     -1.577669
  O      -0.566646     -0.877643      0.992489
  C      -2.018899     -0.876809      1.063537
  O       0.225918      1.318000      0.110248
  C       0.502256      2.300704     -0.916888
  H       3.027479     -2.164804     -0.542717
  H       1.476790     -2.374230     -1.419382
  H       1.577673     -2.751785      0.334674
  H      -2.273181     -1.503661      1.918606
  H      -2.442048     -1.290615      0.141866
  H      -2.383060      0.142831      1.223462
  H       1.564696      2.275181     -1.182112
  H       0.256507      3.268833     -0.478564
  H      -0.117667      2.114765     -1.800781
  Li     -0.985643     -1.209375     -3.275559
  C       3.070111     -0.016389     -3.286429
  O       3.132997     -1.389463     -3.750955
  P       1.968530     -1.914247     -4.708661
  O       0.578627     -1.756145     -4.198100
  O       2.274397     -1.169016     -6.078790
  C       1.263678     -1.188357     -7.123759
  O       2.401182     -3.418201     -4.998085
  C       1.955298     -4.475093     -4.112965
  H       3.780504      0.055239     -2.461673
  H       2.059272      0.221877     -2.934177
  H       3.357912      0.660702     -4.096171
  H       1.616040     -0.495472     -7.888331
  H       0.298581     -0.861664     -6.721630
  H       1.178678     -2.196708     -7.540532
  H       2.526622     -4.446423     -3.178842
  H       2.156132     -5.409509     -4.638465
  H       0.883715     -4.375480     -3.908575
35
Coordinates from ORCA-job TMP_m1_shell2_reduced_opt_relaxed E -1531.474898654465
  C       1.964590     -2.064499     -0.498969
  O       1.645528     -0.701338     -0.115415
  P       0.130726     -0.216757     -0.256765
  O      -0.510007     -0.484328     -1.573240
  O      -0.579603     -0.894468      0.993077
  C      -2.032272     -0.900119      1.051172
  O       0.208102      1.319204      0.152006
  C       0.476633      2.321355     -0.858636
  H       3.051700     -2.108347     -0.577727
  H       1.506219     -2.307646     -1.464993
  H       1.612139     -2.756858      0.271554
  H      -2.292538     -1.550356      1.886783
  H      -2.447278     -1.291219      0.115909
  H      -2.400975      0.113815      1.235100
  H       1.542563      2.319364     -1.110686
  H       0.205522      3.278358     -0.410980
  H      -0.128136      2.136034     -1.752962
  Li     -0.963361     -1.165848     -3.278457
  C       3.104425     -0.024709     -3.308067
  O       3.158210     -1.396440     -3.776299
  P       1.978048     -1.920076     -4.715874
  O       0.598975     -1.733648     -4.187535
  O       2.281533     -1.197763     -6.099153
  C       1.267410     -1.226896     -7.140312
  O       2.386329     -3.433935     -4.986967
  C       1.919315     -4.475515     -4.093854
  H       3.803305      0.037511     -2.472757
  H       2.091952      0.227272     -2.969762
  H       3.412569      0.650690     -4.111829
  H       1.614368     -0.537888     -7.910822
  H       0.302035     -0.900404     -6.738557
  H       1.184702     -2.238291     -7.550067
  H       2.496988     -4.455611     -3.163478
  H       2.093455     -5.416895     -4.616369
  H       0.852019     -4.348972     -3.882995
35
Coordinates from ORCA-job TMP_m1_shell2_reduced_opt_relaxed E -1531.474966842753
  C       1.967077     -2.063178     -0.489100
  O       1.640755     -0.705939     -0.092544
  P       0.127768     -0.219235     -0.247101
  O      -0.499306     -0.487075     -1.570448
  O      -0.595085     -0.895497      0.996481
  C      -2.047962     -0.886050      1.047721
  O       0.203983      1.316906      0.160287
  C       0.487056      2.316109     -0.849608
  H       3.055289     -2.105188     -0.553384
  H       1.523468     -2.295841     -1.464210
  H       1.605890     -2.765852      0.268110
  H      -2.318998     -1.540625      1.876480
  H      -2.463505     -1.265015      0.107662
  H      -2.406626      0.130164      1.238841
  H       1.555433      2.308350     -1.090750
  H       0.215402      3.275052     -0.406584
  H      -0.109314      2.132345     -1.749767
  Li     -0.949244     -1.168693     -3.271893
  C       3.100842     -0.026652     -3.304762
  O       3.170082     -1.388120     -3.798880
  P       1.982682     -1.915494     -4.727298
  O       0.609437     -1.729806     -4.182947
  O       2.270835     -1.192956     -6.113830
  C       1.253780     -1.240808     -7.151383
  O       2.390997     -3.428776     -5.000514
  C       1.932200     -4.470519     -4.103260
  H       3.810177      0.033033     -2.477979
  H       2.089958      0.203561     -2.947625
  H       3.387320      0.668128     -4.100137
  H       1.585428     -0.545674     -7.923089
  H       0.283637     -0.931647     -6.747217
  H       1.188530     -2.253662     -7.560724
  H       2.516542     -4.448317     -3.177145
  H       2.104478     -5.411829     -4.626447
  H       0.866184     -4.346424     -3.884884
35
Coordinates from ORCA-job TMP_m1_shell2_reduced_opt_relaxed E -1531.475068321171
  C       1.976086     -2.058738     -0.477865
  O       1.635381     -0.711414     -0.063977
  P       0.124112     -0.225608     -0.239810
  O      -0.483262     -0.492157     -1.573151
  O      -0.616165     -0.902980      0.993189
  C      -2.069309     -0.874559      1.030720
  O       0.194923      1.310600      0.168547
  C       0.505393      2.304603     -0.838729
  H       3.065990     -2.098324     -0.511640
  H       1.562056     -2.273444     -1.469602
  H       1.596368     -2.777973      0.254566
  H      -2.356795     -1.535570      1.848744
  H      -2.481589     -1.236844      0.082511
  H      -2.416131      0.143996      1.231147
  H       1.576894      2.282086     -1.064741
  H       0.239835      3.267588     -0.400978
  H      -0.080522      2.127571     -1.747033
  Li     -0.938569     -1.168451     -3.267713
  C       3.101424     -0.028092     -3.298758
  O       3.186343     -1.374733     -3.828127
  P       1.985483     -1.904721     -4.738080
  O       0.621047     -1.716620     -4.171598
  O       2.251961     -1.185028     -6.130555
  C       1.228248     -1.261126     -7.159917
  O       2.390340     -3.418392     -5.014346
  C       1.944869     -4.456550     -4.106479
  H       3.831162      0.028435     -2.489413
  H       2.096501      0.172016     -2.909487
  H       3.352728      0.692572     -4.083211
  H       1.537848     -0.561918     -7.937041
  H       0.253975     -0.971972     -6.750377
  H       1.183710     -2.277123     -7.564312
  H       2.537045     -4.424881     -3.185603
  H       2.117797     -5.400264     -4.625068
  H       0.880014     -4.337210     -3.879738
35
Coordinates from ORCA-job TMP_m1_shell2_reduced_opt_relaxed E -1531.475161503172
  C       1.992337     -2.042065     -0.456783
  O       1.632895     -0.700918     -0.041942
  P       0.120597     -0.226308     -0.238982
  O      -0.467974     -0.497875     -1.580127
  O      -0.631024     -0.906661      0.985565
  C      -2.084788     -0.875713      1.006813
  O       0.175965      1.311485      0.167150
  C       0.511571      2.298872     -0.838853
  H       3.083089     -2.076175     -0.459973
  H       1.607308     -2.250361     -1.461430
  H       1.597184     -2.770771      0.258075
  H      -2.382409     -1.539124      1.819262
  H      -2.487085     -1.234368      0.052813
  H      -2.431774      0.142826      1.206900
  H       1.585121      2.261316     -1.053234
  H       0.254498      3.266334     -0.405995
  H      -0.067041      2.127520     -1.752919
  Li     -0.932749     -1.172688     -3.264176
  C       3.117435     -0.043943     -3.289970
  O       3.202103     -1.377389     -3.850863
  P       1.985053     -1.898765     -4.744513
  O       0.629898     -1.704762     -4.157225
  O       2.233961     -1.177399     -6.139313
  C       1.199506     -1.265006     -7.157340
  O       2.378445     -3.413561     -5.031942
  C       1.947576     -4.448941     -4.114027
  H       3.871230      0.004558     -2.502272
  H       2.122782      0.134781     -2.866283
  H       3.336792      0.697646     -4.064646
  H       1.494834     -0.565387     -7.939653
  H       0.227429     -0.981942     -6.738079
  H       1.159184     -2.282562     -7.558208
  H       2.547737     -4.408730     -3.198581
  H       2.121466     -5.394665     -4.628651
  H       0.884041     -4.334485     -3.878525
35
Coordinates from ORCA-job TMP_m1_shell2_reduced_opt_relaxed E -1531.475253843006
  C       2.021873     -1.998223     -0.429755
  O       1.633039     -0.664839     -0.018417
  P       0.116480     -0.215751     -0.239985
  O      -0.447620     -0.497791     -1.589509
  O      -0.642541     -0.905778      0.974377
  C      -2.097384     -0.898960      0.969663
  O       0.140625      1.324127      0.163601
  C       0.497021      2.307167     -0.839990
  H       3.112382     -2.020301     -0.394523
  H       1.673247     -2.201689     -1.448845
  H       1.610972     -2.738501      0.264098
  H      -2.398122     -1.562731      1.780692
  H      -2.475987     -1.270015      0.010623
  H      -2.464263      0.114879      1.157345
  H       1.571690      2.257197     -1.046525
  H       0.248656      3.277685     -0.408863
  H      -0.077031      2.141754     -1.758007
  Li     -0.920421     -1.173941     -3.258831
  C       3.160265     -0.086035     -3.280628
  O       3.225129     -1.405896     -3.875019
  P       1.984226     -1.902864     -4.749701
  O       0.642364     -1.691955     -4.138058
  O       2.218991     -1.178612     -6.145260
  C       1.164577     -1.253264     -7.144441
  O       2.349539     -3.421602     -5.054632
  C       1.932308     -4.451573     -4.124313
  H       3.950121     -0.052097     -2.528271
  H       2.185050      0.075848     -2.808050
  H       3.340642      0.675620     -4.045906
  H       1.456223     -0.560112     -7.933919
  H       0.205055     -0.953679     -6.707906
  H       1.101583     -2.271194     -7.541245
  H       2.541575     -4.403383     -3.215184
  H       2.104058     -5.400548     -4.633703
  H       0.870867     -4.338170     -3.878839
35
Coordinates from ORCA-job TMP_m1_shell2_reduced_opt_relaxed E -1531.475302567663
  C       2.036600     -1.968977     -0.414417
  O       1.634362     -0.636262     -0.011782
  P       0.114294     -0.204694     -0.241150
  O      -0.438439     -0.494140     -1.593500
  O      -0.643421     -0.903004      0.968668
  C      -2.098405     -0.921715      0.952943
  O       0.117849      1.335656      0.161489
  C       0.474894      2.320742     -0.840170
  H       3.126438     -1.984326     -0.362900
  H       1.702886     -2.175514     -1.437993
  H       1.619473     -2.710288      0.274498
  H      -2.393425     -1.583727      1.767499
  H      -2.462253     -1.307356     -0.005989
  H      -2.484126      0.087166      1.128880
  H       1.549015      2.269871     -1.049288
  H       0.229617      3.290456     -0.405436
  H      -0.101677      2.158339     -1.757066
  Li     -0.914656     -1.173663     -3.256109
  C       3.195417     -0.115120     -3.285392
  O       3.235570     -1.435897     -3.880826
  P       1.983379     -1.912685     -4.749830
  O       0.648519     -1.688443     -4.128338
  O       2.217647     -1.184833     -6.143192
  C       1.153334     -1.235767     -7.133769
  O       2.327247     -3.434230     -5.065183
  C       1.914981     -4.461305     -4.129241
  H       4.004661     -0.088428     -2.553813
  H       2.233061      0.052625     -2.788913
  H       3.361887      0.645512     -4.054694
  H       1.454151     -0.549305     -7.925668
  H       0.204821     -0.914912     -6.688598
  H       1.063958     -2.252006     -7.529694
  H       2.527930     -4.410218     -3.222731
  H       2.085071     -5.411869     -4.636217
  H       0.854534     -4.346912     -3.880006
35
Coordinates from ORCA-job TMP_m1_shell2_reduced_opt_relaxed E -1531.475352138867
  C       2.039303     -1.954282     -0.400576
  O       1.637488     -0.614700     -0.014840
  P       0.114701     -0.193497     -0.243002
  O      -0.434346     -0.488104     -1.594840
  O      -0.638070     -0.897426      0.965870
  C      -2.092331     -0.946636      0.944691
  O       0.106488      1.346532      0.160156
  C       0.447606      2.337440     -0.841409
  H       3.128789     -1.968612     -0.346739
  H       1.705724     -2.172427     -1.421855
  H       1.619254     -2.685677      0.296869
  H      -2.376758     -1.602410      1.767983
  H      -2.442967     -1.353188     -0.010392
  H      -2.499744      0.056472      1.103722
  H       1.518902      2.291778     -1.065385
  H       0.205457      3.304163     -0.398282
  H      -0.140723      2.176850     -1.751004
  Li     -0.915139     -1.174520     -3.255206
  C       3.230849     -0.131964     -3.307275
  O       3.239744     -1.466676     -3.874223
  P       1.983401     -1.926853     -4.744943
  O       0.652139     -1.691826     -4.121738
  O       2.224945     -1.195858     -6.135040
  C       1.153902     -1.209484     -7.119716
  O       2.311016     -3.450712     -5.065724
  C       1.896759     -4.475714     -4.128032
  H       4.050887     -0.105863     -2.588168
  H       2.277565      0.062260     -2.802309
  H       3.398787      0.608489     -4.095433
  H       1.473628     -0.532642     -7.912468
  H       0.219542     -0.858560     -6.667776
  H       1.027400     -2.221487     -7.516301
  H       2.506555     -4.422381     -3.219565
  H       2.068937     -5.427376     -4.632173
  H       0.835502     -4.360335     -3.882801
35
Coordinates from ORCA-job TMP_m1_shell2_reduced_opt_relaxed E -1531.475368815321
  C       2.044932     -1.944112     -0.396357
  O       1.639989     -0.605641     -0.008771
  P       0.116300     -0.188433     -0.240402
  O      -0.427485     -0.485890     -1.593350
  O      -0.637368     -0.893068      0.967597
  C      -2.090845     -0.954787      0.940230
  O       0.103772      1.351694      0.162053
  C       0.433079      2.344391     -0.841682
  H       3.134349     -1.956026     -0.340572
  H       1.713327     -2.161323     -1.418424
  H       1.624838     -2.677061      0.299414
  H      -2.373394     -1.608690      1.765643
  H      -2.433963     -1.368836     -0.014400
  H      -2.507853      0.045501      1.092172
  H       1.502916      2.303888     -1.073442
  H       0.189304      3.309796     -0.396617
  H      -0.160409      2.180965     -1.747363
  Li     -0.910275     -1.176362     -3.252533
  C       3.244873     -0.142776     -3.312114
  O       3.246898     -1.478929     -3.876000
  P       1.986987     -1.933324     -4.744743
  O       0.659140     -1.692814     -4.117341
  O       2.229158     -1.202404     -6.134942
  C       1.153450     -1.200399     -7.114428
  O       2.308131     -3.458459     -5.066252
  C       1.885391     -4.482169     -4.130684
  H       4.070312     -0.116811     -2.599279
  H       2.295622      0.054729     -2.800705
  H       3.407988      0.595477     -4.103369
  H       1.477468     -0.525143     -7.906758
  H       0.225152     -0.840450     -6.657095
  H       1.012702     -2.209568     -7.513547
  H       2.489588     -4.430184     -3.218433
  H       2.058062     -5.434311     -4.633698
  H       0.823053     -4.363693     -3.891735
35
Coordinates from ORCA-job TMP_m1_shell2_reduced_opt_relaxed E -1531.475390740697
  C       2.046586     -1.938915     -0.390495
  O       1.641136     -0.601105     -0.000147
  P       0.117231     -0.184843     -0.234917
  O      -0.420358     -0.482065     -1.590418
  O      -0.639286     -0.891662      0.970077
  C      -2.092166     -0.955535      0.940667
  O       0.103239      1.354394      0.169163
  C       0.420498      2.350941     -0.834531
  H       3.135904     -1.950813     -0.332066
  H       1.717950     -2.153940     -1.413766
  H       1.624734     -2.672904      0.303130
  H      -2.374806     -1.610188      1.765445
  H      -2.434136     -1.369066     -0.014626
  H      -2.511572      0.043842      1.092457
  H       1.488938      2.316525     -1.073525
  H       0.174069      3.313909     -0.385772
  H      -0.177185      2.186303     -1.737114
  Li     -0.903799     -1.179303     -3.249599
  C       3.254989     -0.148810     -3.322644
  O       3.254730     -1.487584     -3.880449
  P       1.992701     -1.939638     -4.747498
  O       0.668280     -1.695249     -4.114552
  O       2.233059     -1.207863     -6.137612
  C       1.155831     -1.197703     -7.114856
  O       2.310605     -3.465350     -5.068296
  C       1.878396     -4.488429     -4.136016
  H       4.088248     -0.116772     -2.619269
  H       2.311286      0.048602     -2.801276
  H       3.406520      0.586375     -4.119145
  H       1.480650     -0.519588     -7.904374
  H       0.228790     -0.838296     -6.654575
  H       1.010893     -2.204291     -7.519162
  H       2.473630     -4.436004     -3.217951
  H       2.055603     -5.440678     -4.637170
  H       0.814003     -4.369522     -3.907045
35
Coordinates from ORCA-job TMP_m1_shell2_reduced_opt_relaxed E -1531.475408928480
  C       2.046882     -1.938132     -0.384524
  O       1.641570     -0.601053      0.008162
  P       0.118246     -0.183129     -0.231053
  O      -0.414652     -0.477160     -1.589330
  O      -0.642600     -0.891891      0.970358
  C      -2.095193     -0.951889      0.937766
  O       0.105245      1.355160      0.175860
  C       0.417665      2.354132     -0.826837
  H       3.135946     -1.951853     -0.320806
  H       1.723668     -2.149767     -1.410148
  H       1.620934     -2.673754      0.304926
  H      -2.381366     -1.608119      1.760069
  H      -2.436951     -1.361482     -0.019380
  H      -2.512875      0.047993      1.091530
  H       1.485559      2.322391     -1.068631
  H       0.169795      3.315684     -0.375908
  H      -0.181063      2.189665     -1.728725
  Li     -0.898924     -1.182438     -3.247677
  C       3.256932     -0.150455     -3.328273
  O       3.261611     -1.488835     -3.886965
  P       1.997489     -1.942577     -4.750865
  O       0.675307     -1.697713     -4.113087
  O       2.233257     -1.210493     -6.141709
  C       1.153969     -1.200458     -7.116178
  O       2.316287     -3.468163     -5.070946
  C       1.878298     -4.491008     -4.140876
  H       4.100145     -0.110151     -2.637240
  H       2.319473      0.037455     -2.792499
  H       3.389174      0.587219     -4.126001
  H       1.474333     -0.517931     -7.903699
  H       0.226094     -0.847065     -6.652781
  H       1.011758     -2.205863     -7.524533
  H       2.465737     -4.436412     -3.217929
  H       2.061439     -5.443342     -4.639699
  H       0.812002     -4.373792     -3.920296
35
Coordinates from ORCA-job TMP_m1_shell2_reduced_opt_relaxed E -1531.475434311834
  C       2.043739     -1.942619     -0.379562
  O       1.640893     -0.605800      0.015428
  P       0.119172     -0.182650     -0.228206
  O      -0.409453     -0.467421     -1.590537
  O      -0.647824     -0.896381      0.966655
  C      -2.100506     -0.944668      0.931468
  O       0.109623      1.353514      0.185974
  C       0.422895      2.356616     -0.812229
  H       3.132375     -1.960975     -0.308826
  H       1.727407     -2.149379     -1.408322
  H       1.611090     -2.679716      0.304174
  H      -2.393368     -1.605002      1.748121
  H      -2.444627     -1.343986     -0.029267
  H      -2.510982      0.057146      1.092466
  H       1.491075      2.325903     -1.052936
  H       0.173940      3.316247     -0.357873
  H      -0.174006      2.195587     -1.715906
  Li     -0.897201     -1.185064     -3.247212
  C       3.253552     -0.146002     -3.335676
  O       3.267338     -1.484220     -3.894721
  P       2.001595     -1.943564     -4.754409
  O       0.680957     -1.700574     -4.111894
  O       2.230224     -1.211658     -6.146524
  C       1.149880     -1.210332     -7.119384
  O       2.324359     -3.468490     -5.072936
  C       1.884608     -4.491163     -4.143260
  H       4.110374     -0.092208     -2.662446
  H       2.325026      0.027141     -2.780004
  H       3.357524      0.594637     -4.134920
  H       1.460987     -0.520893     -7.904600
  H       0.218066     -0.869972     -6.653957
  H       1.019068     -2.215682     -7.531777
  H       2.465194     -4.431763     -3.216267
  H       2.075730     -5.443695     -4.638674
  H       0.816464     -4.378138     -3.929886
35
Coordinates from ORCA-job TMP_m1_shell2_reduced_opt_relaxed E -1531.475467934260
  C       2.037739     -1.949478     -0.372510
  O       1.638250     -0.612951      0.024972
  P       0.119730     -0.181104     -0.225736
  O      -0.402685     -0.449549     -1.594157
  O      -0.657312     -0.902926      0.958107
  C      -2.110232     -0.936285      0.915666
  O       0.114837      1.351677      0.200892
  C       0.437118      2.360474     -0.788660
  H       3.125538     -1.974737     -0.290907
  H       1.731473     -2.149312     -1.405793
  H       1.594616     -2.688569      0.302355
  H      -2.413917     -1.602172      1.723830
  H      -2.453963     -1.322458     -0.050675
  H      -2.511573      0.067839      1.085354
  H       1.506748      2.328271     -1.022702
  H       0.187655      3.317836     -0.329838
  H      -0.154019      2.206698     -1.697334
  Li     -0.895788     -1.188018     -3.245581
  C       3.248181     -0.138131     -3.346265
  O       3.272935     -1.475750     -3.906695
  P       2.004412     -1.944103     -4.758779
  O       0.685591     -1.706267     -4.109745
  O       2.221502     -1.213006     -6.153120
  C       1.138000     -1.225746     -7.122141
  O       2.333495     -3.467818     -5.076371
  C       1.899757     -4.490566     -4.143747
  H       4.122767     -0.067367     -2.697828
  H       2.332566      0.015609     -2.764278
  H       3.314567      0.606106     -4.146223
  H       1.435012     -0.529000     -7.906400
  H       0.202391     -0.901124     -6.652907
  H       1.022124     -2.231875     -7.537073
  H       2.478486     -4.424238     -3.216036
  H       2.098480     -5.443281     -4.635784
  H       0.830712     -4.383905     -3.931817
35
Coordinates from ORCA-job TMP_m1_shell2_reduced_opt_relaxed E -1531.475517941172
  C       2.026445     -1.961905     -0.365285
  O       1.632588     -0.625920      0.037245
  P       0.120261     -0.178929     -0.223769
  O      -0.391659     -0.420206     -1.601474
  O      -0.673537     -0.912844      0.941666
  C      -2.126782     -0.926031      0.885933
  O       0.122575      1.348186      0.223412
  C       0.466049      2.365631     -0.750112
  H       3.112936     -1.997145     -0.270530
  H       1.731790     -2.151456     -1.404105
  H       1.569377     -2.703661      0.297277
  H      -2.446843     -1.599822      1.681146
  H      -2.466628     -1.294169     -0.088892
  H      -2.515838      0.080851      1.067342
  H       1.539009      2.329256     -0.967681
  H       0.215251      3.319665     -0.285109
  H      -0.112043      2.224843     -1.669143
  Li     -0.896457     -1.191115     -3.241846
  C       3.238537     -0.121904     -3.363776
  O       3.276003     -1.459908     -3.923225
  P       2.004521     -1.943620     -4.763339
  O       0.688035     -1.716243     -4.105179
  O       2.203878     -1.215102     -6.161551
  C       1.115412     -1.250311     -7.124626
  O       2.344277     -3.465304     -5.079295
  C       1.928772     -4.488288     -4.138577
  H       4.131358     -0.030769     -2.743313
  H       2.337763      0.011689     -2.754408
  H       3.263698      0.623584     -4.164947
  H       1.392571     -0.546764     -7.910148
  H       0.175914     -0.944635     -6.650336
  H       1.019640     -2.258623     -7.539173
  H       2.515234     -4.412860     -3.216407
  H       2.132282     -5.441149     -4.628358
  H       0.860802     -4.390247     -3.917344
35
Coordinates from ORCA-job TMP_m1_shell2_reduced_opt_relaxed E -1531.475597676462
  C       2.011100     -1.976752     -0.354131
  O       1.622054     -0.643396      0.058990
  P       0.120638     -0.174355     -0.221032
  O      -0.369359     -0.375247     -1.613265
  O      -0.701818     -0.924836      0.913654
  C      -2.154840     -0.915104      0.831229
  O       0.130167      1.343797      0.257348
  C       0.513930      2.373262     -0.688276
  H       3.095278     -2.024097     -0.240167
  H       1.733430     -2.149751     -1.400819
  H       1.535017     -2.724028      0.288569
  H      -2.499268     -1.599346      1.607117
  H      -2.481098     -1.261188     -0.156359
  H      -2.531298      0.094045      1.025464
  H       1.592716      2.328614     -0.872815
  H       0.259213      3.322519     -0.215607
  H      -0.038062      2.253440     -1.626026
  Li     -0.895159     -1.192663     -3.232303
  C       3.226684     -0.098240     -3.392343
  O       3.276343     -1.436906     -3.950011
  P       2.000210     -1.943365     -4.769632
  O       0.688680     -1.733373     -4.095745
  O       2.171010     -1.220420     -6.174366
  C       1.072377     -1.286467     -7.125034
  O       2.355299     -3.461983     -5.083922
  C       1.977655     -4.484760     -4.127387
  H       4.134424      0.011688     -2.797132
  H       2.339194      0.018105     -2.760305
  H       3.215814      0.646592     -4.194478
  H       1.322689     -0.579613     -7.916669
  H       0.131797     -0.999315     -6.641385
  H       0.997940     -2.298888     -7.533456
  H       2.589028     -4.398203     -3.222520
  H       2.178307     -5.437965     -4.617689
  H       0.915098     -4.397027     -3.877424
35
Coordinates from ORCA-job TMP_m1_shell2_reduced_opt_relaxed E -1531.475717584074
  C       1.988787     -1.997225     -0.346632
  O       1.604930     -0.669130      0.085716
  P       0.120868     -0.168575     -0.220715
  O      -0.333964     -0.316242     -1.631492
  O      -0.743227     -0.936474      0.870048
  C      -2.194648     -0.900264      0.748185
  O       0.139108      1.336590      0.299643
  C       0.587127      2.379713     -0.601941
  H       3.069679     -2.058971     -0.211173
  H       1.730026     -2.146038     -1.402169
  H       1.490674     -2.752621      0.269274
  H      -2.570642     -1.595951      1.498839
  H      -2.497590     -1.221387     -0.255321
  H      -2.557979      0.110882      0.955357
  H       1.672700      2.318323     -0.734028
  H       0.327789      3.323075     -0.119884
  H       0.077256      2.292222     -1.566662
  Li     -0.892096     -1.191252     -3.216126
  C       3.206362     -0.063356     -3.429865
  O       3.268342     -1.403140     -3.984162
  P       1.988891     -1.943082     -4.774825
  O       0.685044     -1.761641     -4.078510
  O       2.118258     -1.229430     -6.188554
  C       1.004128     -1.335295     -7.118987
  O       2.368533     -3.456383     -5.087174
  C       2.055704     -4.478076     -4.107222
  H       4.115409      0.056422     -2.838713
  H       2.318392      0.045466     -2.796916
  H       3.186247      0.678658     -4.234413
  H       1.222257     -0.632497     -7.923745
  H       0.066507     -1.062151     -6.621806
  H       0.949379     -2.354706     -7.512183
  H       2.713907     -4.377680     -3.237347
  H       2.242686     -5.432006     -4.601578
  H       1.006348     -4.403002     -3.802848
35
Coordinates from ORCA-job TMP_m1_shell2_reduced_opt_relaxed E -1531.475858182010
  C       1.957645     -2.029132     -0.390146
  O       1.590352     -0.706051      0.071439
  P       0.122377     -0.168323     -0.237892
  O      -0.315476     -0.269495     -1.658183
  O      -0.770823     -0.940698      0.824724
  C      -2.221173     -0.878464      0.685758
  O       0.163557      1.324238      0.319223
  C       0.670732      2.373828     -0.542573
  H       3.037590     -2.106788     -0.256226
  H       1.695038     -2.152181     -1.448170
  H       1.448702     -2.790393      0.209335
  H      -2.616289     -1.578578      1.422301
  H      -2.515590     -1.182306     -0.325873
  H      -2.568521      0.135930      0.903104
  H       1.758041      2.284423     -0.639031
  H       0.422665      3.313448     -0.047239
  H       0.189131      2.323970     -1.524395
  Li     -0.898794     -1.192756     -3.206397
  C       3.155789     -0.021605     -3.432519
  O       3.241164     -1.359382     -3.988360
  P       1.972899     -1.939410     -4.764094
  O       0.670073     -1.796165     -4.058070
  O       2.070882     -1.235052     -6.184934
  C       0.948454     -1.376757     -7.102277
  O       2.391053     -3.443950     -5.071317
  C       2.143923     -4.464638     -4.072970
  H       4.038624      0.094686     -2.802388
  H       2.240227      0.086357     -2.839464
  H       3.171687      0.720338     -4.237099
  H       1.148395     -0.687098     -7.922979
  H       0.013002     -1.105514     -6.600227
  H       0.905642     -2.404730     -7.473568
  H       2.844017     -4.347965     -3.238635
  H       2.320943     -5.418944     -4.570413
  H       1.109256     -4.406068     -3.718370
35
Coordinates from ORCA-job TMP_m1_shell2_reduced_opt_relaxed E -1531.475984179284
  C       1.936975     -2.047160     -0.381499
  O       1.578347     -0.724941      0.092233
  P       0.127660     -0.159178     -0.244373
  O      -0.270300     -0.230123     -1.678757
  O      -0.806287     -0.927420      0.784695
  C      -2.251945     -0.850803      0.609394
  O       0.180259      1.324187      0.337454
  C       0.730768      2.377028     -0.492490
  H       3.012932     -2.139922     -0.226640
  H       1.693076     -2.152897     -1.445548
  H       1.404971     -2.808031      0.198041
  H      -2.671107     -1.545005      1.338117
  H      -2.523905     -1.154423     -0.408918
  H      -2.594400      0.167741      0.814980
  H       1.817489      2.263580     -0.568187
  H       0.494845      3.312735      0.016035
  H       0.269037      2.358591     -1.484835
  Li     -0.877847     -1.215059     -3.178158
  C       3.122526     -0.007487     -3.440664
  O       3.231085     -1.337829     -4.010387
  P       1.966681     -1.949253     -4.764538
  O       0.675567     -1.846859     -4.030904
  O       2.017617     -1.241029     -6.186109
  C       0.874280     -1.394673     -7.075628
  O       2.421127     -3.441277     -5.083025
  C       2.232474     -4.467017     -4.077784
  H       3.997003      0.112864     -2.799787
  H       2.199368      0.083369     -2.856434
  H       3.136934      0.740751     -4.239326
  H       1.054170     -0.712526     -7.907066
  H      -0.049835     -1.122100     -6.553710
  H       0.824204     -2.426142     -7.436414
  H       2.956477     -4.332016     -3.266976
  H       2.416397     -5.417202     -4.580653
  H       1.208549     -4.435697     -3.690068
35
Coordinates from ORCA-job TMP_m1_shell2_reduced_opt_relaxed E -1531.476035263961
  C       1.896772     -2.102091     -0.490594
  O       1.584232     -0.777162      0.013702
  P       0.139263     -0.173101     -0.282720
  O      -0.283908     -0.225825     -1.711661
  O      -0.792742     -0.919548      0.762421
  C      -2.239166     -0.810333      0.632051
  O       0.245976      1.302293      0.310947
  C       0.789566      2.353922     -0.523453
  H       2.974384     -2.220322     -0.367777
  H       1.619979     -2.187382     -1.547698
  H       1.363206     -2.855842      0.096601
  H      -2.650249     -1.491939      1.376993
  H      -2.550969     -1.108891     -0.376861
  H      -2.553702      0.216525      0.842511
  H       1.867552      2.210272     -0.654284
  H       0.606089      3.285787      0.012864
  H       0.283274      2.369895     -1.493781
  Li     -0.896934     -1.242965     -3.181231
  C       3.024435      0.032057     -3.376956
  O       3.187328     -1.291911     -3.949207
  P       1.961013     -1.942210     -4.729770
  O       0.656936     -1.885695     -4.014245
  O       2.010610     -1.229527     -6.149213
  C       0.883980     -1.400363     -7.055149
  O       2.475264     -3.416612     -5.039744
  C       2.294311     -4.449902     -4.041113
  H       3.852984      0.159375     -2.678823
  H       2.065751      0.108790     -2.851043
  H       3.079904      0.783292     -4.170848
  H       1.076020     -0.727836     -7.891439
  H      -0.051193     -1.131470     -6.551226
  H       0.841850     -2.436095     -7.405802
  H       2.988398     -4.290533     -3.208892
  H       2.525675     -5.392160     -4.539311
  H       1.259303     -4.457717     -3.683175
35
Coordinates from ORCA-job TMP_m1_shell2_reduced_opt_relaxed E -1531.476112488736
  C       1.924957     -2.072650     -0.365317
  O       1.576081     -0.749376      0.118958
  P       0.141360     -0.158795     -0.252382
  O      -0.205438     -0.211846     -1.702466
  O      -0.835786     -0.914686      0.743554
  C      -2.274269     -0.808834      0.548148
  O       0.206334      1.317007      0.345577
  C       0.773489      2.374561     -0.464997
  H       2.993807     -2.185448     -0.177294
  H       1.714196     -2.159572     -1.437282
  H       1.361484     -2.829794      0.188765
  H      -2.717572     -1.491090      1.273751
  H      -2.540429     -1.107906     -0.473849
  H      -2.601464      0.217232      0.743435
  H       1.856461      2.238177     -0.557707
  H       0.564183      3.303557      0.066675
  H       0.304343      2.389685     -1.453717
  Li     -0.852735     -1.248882     -3.148269
  C       3.080469      0.004955     -3.436686
  O       3.224696     -1.315728     -4.022373
  P       1.967708     -1.957704     -4.762100
  O       0.691649     -1.898414     -3.996854
  O       1.967153     -1.236887     -6.178110
  C       0.812376     -1.404371     -7.047195
  O       2.465568     -3.432161     -5.097144
  C       2.305296     -4.469395     -4.098435
  H       3.949934      0.142229     -2.792101
  H       2.156557      0.067524     -2.850549
  H       3.075378      0.760223     -4.228805
  H       0.973486     -0.723597     -7.883321
  H      -0.107503     -1.145492     -6.510623
  H       0.762305     -2.437030     -7.406179
  H       3.008104     -4.307289     -3.274032
  H       2.537592     -5.408301     -4.602378
  H       1.275422     -4.485130     -3.726627
35
Coordinates from ORCA-job TMP_m1_shell2_reduced_opt_relaxed E -1531.476133220411
  C       1.917481     -2.081007     -0.381855
  O       1.576065     -0.757023      0.103752
  P       0.138261     -0.164262     -0.254405
  O      -0.226915     -0.218660     -1.699913
  O      -0.828018     -0.919096      0.753201
  C      -2.268062     -0.803661      0.576021
  O       0.211499      1.312481      0.340235
  C       0.771312      2.367376     -0.479052
  H       2.986733     -2.198793     -0.199297
  H       1.701672     -2.166044     -1.453240
  H       1.354255     -2.837267      0.173739
  H      -2.707490     -1.486062      1.303897
  H      -2.548626     -1.097176     -0.443695
  H      -2.586503      0.223549      0.779502
  H       1.853024      2.229154     -0.583314
  H       0.569163      3.297996      0.052536
  H       0.291631      2.380227     -1.462874
  Li     -0.860197     -1.246638     -3.156982
  C       3.075263      0.013081     -3.431406
  O       3.222650     -1.309952     -4.010564
  P       1.969023     -1.952506     -4.757770
  O       0.685765     -1.892887     -4.004110
  O       1.978553     -1.231431     -6.173526
  C       0.833137     -1.406983     -7.052910
  O       2.469056     -3.426941     -5.090209
  C       2.298951     -4.464765     -4.093434
  H       3.945468      0.156184     -2.789039
  H       2.152139      0.075125     -2.843915
  H       3.066971      0.765753     -4.226013
  H       0.994928     -0.723181     -7.886495
  H      -0.093539     -1.156398     -6.524072
  H       0.795606     -2.439371     -7.414116
  H       2.990597     -4.300959     -3.259921
  H       2.540706     -5.402864     -4.594408
  H       1.264632     -4.482227     -3.734278
35
Coordinates from ORCA-job TMP_m1_shell2_reduced_opt_relaxed E -1531.476146835189
  C       1.903024     -2.101252     -0.387162
  O       1.572086     -0.776149      0.101883
  P       0.140168     -0.169469     -0.259201
  O      -0.221491     -0.216009     -1.706167
  O      -0.834385     -0.918930      0.744085
  C      -2.272703     -0.782295      0.570496
  O       0.224971      1.305226      0.338866
  C       0.792788      2.357551     -0.477960
  H       2.969940     -2.230931     -0.198971
  H       1.693104     -2.179256     -1.460369
  H       1.329327     -2.854850      0.161301
  H      -2.720980     -1.461020      1.296430
  H      -2.559659     -1.068322     -0.449702
  H      -2.576289      0.248574      0.778306
  H       1.872994      2.209912     -0.585239
  H       0.600257      3.288308      0.056911
  H       0.311574      2.377575     -1.460955
  Li     -0.860802     -1.255280     -3.153284
  C       3.054041      0.029509     -3.428747
  O       3.215933     -1.292190     -4.007002
  P       1.967790     -1.948876     -4.752427
  O       0.684521     -1.907456     -3.996999
  O       1.964812     -1.224321     -6.166219
  C       0.822770     -1.417367     -7.045676
  O       2.485517     -3.416296     -5.089268
  C       2.327296     -4.458087     -4.094380
  H       3.921713      0.181756     -2.784970
  H       2.129467      0.082488     -2.842551
  H       3.039983      0.782178     -4.223273
  H       0.972901     -0.730159     -7.878667
  H      -0.107965     -1.182305     -6.516680
  H       0.801959     -2.449826     -7.408117
  H       3.013852     -4.285992     -3.258274
  H       2.584205     -5.391743     -4.596053
  H       1.292472     -4.489921     -3.737891
35
Coordinates from ORCA-job TMP_m1_shell2_reduced_opt_relaxed E -1531.476153103184
  C       1.896185     -2.112557     -0.380749
  O       1.568928     -0.786650      0.108435
  P       0.141975     -0.172311     -0.260508
  O      -0.211257     -0.216338     -1.709790
  O      -0.841088     -0.917133      0.737509
  C      -2.277743     -0.767469      0.561661
  O       0.231085      1.302134      0.337155
  C       0.804334      2.352308     -0.478556
  H       2.960718     -2.248969     -0.183914
  H       1.694962     -2.187063     -1.455860
  H       1.313814     -2.864450      0.160909
  H      -2.733640     -1.441911      1.286853
  H      -2.565655     -1.051739     -0.458851
  H      -2.572412      0.266151      0.768677
  H       1.883985      2.200019     -0.585044
  H       0.615416      3.283631      0.056596
  H       0.324267      2.374616     -1.462016
  Li     -0.858539     -1.264616     -3.147656
  C       3.044244      0.037387     -3.429020
  O       3.213390     -1.283524     -4.007142
  P       1.967271     -1.948115     -4.749611
  O       0.686476     -1.920666     -3.989137
  O       1.952301     -1.218283     -6.160406
  C       0.810527     -1.420433     -7.037892
  O       2.495622     -3.410185     -5.093018
  C       2.346829     -4.456520     -4.101140
  H       3.911887      0.194840     -2.786387
  H       2.120057      0.085227     -2.841812
  H       3.025254      0.789885     -4.223596
  H       0.950891     -0.728622     -7.868797
  H      -0.121538     -1.197051     -6.506063
  H       0.800093     -2.451724     -7.404098
  H       3.031181     -4.280610     -3.263990
  H       2.613083     -5.386022     -4.605568
  H       1.312287     -4.498461     -3.745102
35
Coordinates from ORCA-job TMP_m1_shell2_reduced_opt_relaxed E -1531.476159016404
  C       1.894375     -2.117215     -0.367997
  O       1.566207     -0.790987      0.119606
  P       0.143188     -0.173450     -0.259455
  O      -0.200373     -0.219381     -1.711057
  O      -0.847309     -0.913676      0.734318
  C      -2.282587     -0.756573      0.553229
  O       0.232256      1.302320      0.334521
  C       0.808045      2.350280     -0.482288
  H       2.956384     -2.257114     -0.160266
  H       1.703947     -2.189927     -1.445168
  H       1.304375     -2.868406      0.166404
  H      -2.744728     -1.425886      1.279239
  H      -2.568618     -1.043604     -0.467088
  H      -2.572170      0.279386      0.755579
  H       1.887753      2.196767     -0.586441
  H       0.619008      3.282798      0.050723
  H       0.329874      2.370765     -1.466653
  Li     -0.853269     -1.274251     -3.141551
  C       3.042167      0.038789     -3.429509
  O       3.214177     -1.281299     -4.008816
  P       1.967911     -1.949565     -4.748112
  O       0.690676     -1.933847     -3.981313
  O       1.942019     -1.212687     -6.154955
  C       0.798389     -1.417877     -7.029273
  O       2.502604     -3.407239     -5.100058
  C       2.359859     -4.459371     -4.113135
  H       3.911762      0.199093     -2.790196
  H       2.119858      0.083113     -2.839086
  H       3.017730      0.791529     -4.223724
  H       0.930230     -0.720039     -7.856544
  H      -0.133247     -1.204005     -6.492717
  H       0.794199     -2.446983     -7.401616
  H       3.042390     -4.283164     -3.274558
  H       2.632680     -5.384514     -4.621981
  H       1.325428     -4.509007     -3.757987
35
Coordinates from ORCA-job TMP_m1_shell2_reduced_opt_relaxed E -1531.476168947411
  C       1.893980     -2.120881     -0.343466
  O       1.561807     -0.794022      0.139566
  P       0.144457     -0.174523     -0.256607
  O      -0.184368     -0.228781     -1.711331
  O      -0.856512     -0.905502      0.733153
  C      -2.289861     -0.739486      0.542827
  O       0.231454      1.305250      0.326978
  C       0.808853      2.348452     -0.494922
  H       2.951684     -2.264288     -0.117108
  H       1.721747     -2.192534     -1.423709
  H       1.292549     -2.871020      0.179682
  H      -2.760695     -1.398636      1.272569
  H      -2.572180     -1.035100     -0.476088
  H      -2.572799      0.300371      0.733981
  H       1.889249      2.196022     -0.593316
  H       0.616042      3.284203      0.031018
  H       0.334680      2.360915     -1.481274
  Li     -0.842935     -1.291860     -3.132381
  C       3.042252      0.036565     -3.427583
  O       3.217084     -1.281839     -4.010065
  P       1.970184     -1.953597     -4.745306
  O       0.699224     -1.957844     -3.968066
  O       1.927312     -1.202325     -6.143990
  C       0.779775     -1.408178     -7.013184
  O       2.513775     -3.403698     -5.114072
  C       2.377928     -4.468105     -4.138974
  H       3.915570      0.200148     -2.794226
  H       2.123456      0.075509     -2.831326
  H       3.008885      0.790180     -4.220673
  H       0.897970     -0.697698     -7.831743
  H      -0.150374     -1.210851     -6.467638
  H       0.784524     -2.432139     -7.399274
  H       3.056908     -4.295283     -3.296841
  H       2.660305     -5.384808     -4.657718
  H       1.343260     -4.529842     -3.786821
35
Coordinates from ORCA-job TMP_m1_shell2_reduced_opt_relaxed E -1531.476179804846
  C       1.895703     -2.119979     -0.321657
  O       1.558428     -0.792346      0.155752
  P       0.144403     -0.174690     -0.253366
  O      -0.175025     -0.240364     -1.709641
  O      -0.862608     -0.897166      0.736457
  C      -2.294858     -0.727119      0.539059
  O       0.227908      1.309791      0.318238
  C       0.804786      2.348156     -0.510264
  H       2.950020     -2.264075     -0.080614
  H       1.737564     -2.192667     -1.403916
  H       1.286565     -2.869246      0.193870
  H      -2.770767     -1.377146      1.273688
  H      -2.574187     -1.032268     -0.477814
  H      -2.574097      0.315693      0.718956
  H       1.886418      2.199915     -0.600981
  H       0.604657      3.287652      0.006182
  H       0.335883      2.349219     -1.499165
  Li     -0.834129     -1.305315     -3.127915
  C       3.045721      0.031314     -3.424275
  O       3.220768     -1.286082     -4.009086
  P       1.973108     -1.958216     -4.742382
  O       0.707133     -1.978561     -3.957326
  O       1.918253     -1.193161     -6.133194
  C       0.767454     -1.396212     -6.999031
  O       2.522279     -3.402030     -5.126808
  C       2.388530     -4.478717     -4.164782
  H       3.922552      0.196738     -2.796323
  H       2.130252      0.067048     -2.822713
  H       3.005229      0.785361     -4.216662
  H       0.875180     -0.673035     -7.807863
  H      -0.161273     -1.213780     -6.445813
  H       0.778980     -2.414524     -7.399499
  H       3.063715     -4.312310     -3.318374
  H       2.677557     -5.387512     -4.693654
  H       1.353091     -4.549591     -3.817014
35
Coordinates from ORCA-job TMP_m1_shell2_reduced_opt_relaxed E -1531.476197129490
  C       1.897695     -2.115668     -0.293386
  O       1.553147     -0.786809      0.175749
  P       0.142610     -0.173634     -0.248611
  O      -0.167239     -0.256462     -1.705938
  O      -0.870903     -0.884634      0.743227
  C      -2.301890     -0.712150      0.535799
  O       0.220726      1.317336      0.306589
  C       0.799399      2.348486     -0.529694
  H       2.947961     -2.259045     -0.035191
  H       1.755805     -2.190790     -1.377636
  H       1.280376     -2.863671      0.214265
  H      -2.783352     -1.350783      1.276767
  H      -2.576349     -1.029758     -0.478446
  H      -2.578180      0.333895      0.700559
  H       1.883363      2.208199     -0.603387
  H       0.584452      3.293613     -0.029693
  H       0.343452      2.331302     -1.524508
  Li     -0.821838     -1.317340     -3.127555
  C       3.052021      0.022850     -3.419780
  O       3.226322     -1.293290     -4.007654
  P       1.977562     -1.965437     -4.738084
  O       0.718450     -2.007115     -3.942737
  O       1.907056     -1.182140     -6.118277
  C       0.751392     -1.380720     -6.979152
  O       2.533688     -3.400519     -5.144324
  C       2.402518     -4.494576     -4.201797
  H       3.933485      0.190316     -2.799001
  H       2.141281      0.054798     -2.810829
  H       3.002032      0.777387     -4.211179
  H       0.844848     -0.640077     -7.773818
  H      -0.174958     -1.219368     -6.415267
  H       0.771645     -2.390698     -7.399773
  H       3.074526     -4.339504     -3.350822
  H       2.697475     -5.392382     -4.745990
  H       1.366614     -4.576836     -3.858354
35
Coordinates from ORCA-job TMP_m1_shell2_reduced_opt_relaxed E -1531.476215635325
  C       1.897720     -2.111488     -0.286912
  O       1.550851     -0.781795      0.179000
  P       0.139883     -0.172493     -0.246665
  O      -0.171959     -0.264873     -1.702811
  O      -0.873038     -0.878663      0.749879
  C      -2.304078     -0.708589      0.539697
  O       0.215726      1.321419      0.301423
  C       0.797363      2.348857     -0.537231
  H       2.947751     -2.252856     -0.026920
  H       1.756881     -2.188611     -1.371079
  H       1.280425     -2.858755      0.221806
  H      -2.785401     -1.344057      1.283433
  H      -2.576777     -1.030261     -0.473572
  H      -2.581508      0.337982      0.699134
  H       1.883041      2.215031     -0.596060
  H       0.570087      3.297153     -0.048743
  H       0.353510      2.320247     -1.537339
  Li     -0.818402     -1.308832     -3.139470
  C       3.055297      0.019140     -3.417225
  O       3.228193     -1.297376     -4.004514
  P       1.979637     -1.969083     -4.734548
  O       0.722586     -2.018811     -3.936046
  O       1.904811     -1.178868     -6.110958
  C       0.747993     -1.375329     -6.971100
  O       2.538452     -3.400673     -5.149413
  C       2.406966     -4.502784     -4.216857
  H       3.938072      0.187323     -2.798574
  H       2.146186      0.051238     -2.805775
  H       3.002522      0.772846     -4.209197
  H       0.836199     -0.626704     -7.758821
  H      -0.178058     -1.224280     -6.403622
  H       0.772802     -2.381334     -7.400982
  H       3.079587     -4.355658     -3.365040
  H       2.700602     -5.396094     -4.769185
  H       1.371269     -4.588194     -3.873639
35
Coordinates from ORCA-job TMP_m1_shell2_reduced_opt_relaxed E -1531.476238514765
  C       1.891209     -2.110761     -0.293420
  O       1.546925     -0.781065      0.175816
  P       0.136216     -0.170056     -0.246319
  O      -0.178564     -0.260272     -1.701843
  O      -0.878232     -0.877074      0.748976
  C      -2.308595     -0.708535      0.534509
  O       0.213310      1.322063      0.307630
  C       0.807282      2.349231     -0.522232
  H       2.942354     -2.252736     -0.038494
  H       1.745141     -2.185560     -1.377059
  H       1.275692     -2.857711      0.217759
  H      -2.791320     -1.348440      1.273452
  H      -2.577514     -1.023398     -0.481758
  H      -2.588638      0.336758      0.698155
  H       1.893938      2.216460     -0.562613
  H       0.570721      3.298206     -0.039419
  H       0.380154      2.319846     -1.529779
  Li     -0.813553     -1.276079     -3.162745
  C       3.055119      0.022206     -3.422566
  O       3.228250     -1.295065     -4.007765
  P       1.979679     -1.971505     -4.732345
  O       0.725346     -2.025387     -3.928972
  O       1.897780     -1.183691     -6.110185
  C       0.738815     -1.385087     -6.966271
  O       2.542537     -3.401268     -5.148802
  C       2.419576     -4.504288     -4.217122
  H       3.938514      0.192653     -2.805420
  H       2.147594      0.054348     -2.808656
  H       2.999268      0.774339     -4.215723
  H       0.822424     -0.637209     -7.755152
  H      -0.186188     -1.237250     -6.395855
  H       0.765502     -2.391705     -7.394872
  H       3.100842     -4.359090     -3.371894
  H       2.706230     -5.397504     -4.773401
  H       1.387378     -4.590597     -3.863541
35
Coordinates from ORCA-job TMP_m1_shell2_reduced_opt_relaxed E -1531.476255986670
  C       1.882633     -2.114405     -0.310537
  O       1.545353     -0.785167      0.166175
  P       0.134482     -0.168606     -0.248291
  O      -0.183686     -0.247585     -1.703679
  O      -0.880771     -0.881973      0.741935
  C      -2.310543     -0.713673      0.527247
  O       0.215921      1.318305      0.319292
  C       0.819555      2.348766     -0.499118
  H       2.936125     -2.258927     -0.066938
  H       1.725667     -2.185085     -1.392976
  H       1.271093     -2.861369      0.205222
  H      -2.793781     -1.363814      1.256835
  H      -2.577871     -1.014441     -0.493692
  H      -2.593385      0.328888      0.703581
  H       1.905543      2.209763     -0.536348
  H       0.586468      3.295402     -0.010056
  H       0.396726      2.330684     -1.508860
  Li     -0.813044     -1.238660     -3.184322
  C       3.053015      0.029547     -3.431085
  O       3.226722     -1.289171     -4.012636
  P       1.977574     -1.970503     -4.731730
  O       0.724385     -2.020164     -3.925441
  O       1.892502     -1.192351     -6.114825
  C       0.733319     -1.401243     -6.968391
  O       2.541559     -3.402023     -5.141219
  C       2.428593     -4.497612     -4.200154
  H       3.936413      0.202308     -2.814505
  H       2.146242      0.063013     -2.816141
  H       2.996237      0.779640     -4.226020
  H       0.818965     -0.663350     -7.766378
  H      -0.191616     -1.244901     -6.399810
  H       0.756993     -2.413104     -7.384912
  H       3.118625     -4.346298     -3.363080
  H       2.708984     -5.395484     -4.752158
  H       1.400194     -4.581630     -3.834913
35
Coordinates from ORCA-job TMP_m1_shell2_reduced_opt_relaxed E -1531.476272963623
  C       1.869549     -2.122144     -0.327600
  O       1.541265     -0.794382      0.160048
  P       0.133377     -0.166649     -0.250957
  O      -0.181275     -0.227011     -1.707978
  O      -0.888252     -0.888251      0.726470
  C      -2.316196     -0.715795      0.507779
  O       0.221191      1.312381      0.335741
  C       0.837555      2.347369     -0.467273
  H       2.924478     -2.272368     -0.093613
  H       1.704009     -2.185386     -1.409305
  H       1.259582     -2.869764      0.188984
  H      -2.804266     -1.379126      1.222143
  H      -2.579319     -0.996875     -0.519917
  H      -2.600251      0.323371      0.701701
  H       1.921698      2.195486     -0.507855
  H       0.616309      3.289597      0.035539
  H       0.414328      2.349375     -1.477046
  Li     -0.806928     -1.198300     -3.204039
  C       3.051728      0.039294     -3.444208
  O       3.227292     -1.279758     -4.024237
  P       1.975408     -1.969411     -4.731697
  O       0.727454     -2.017165     -3.916298
  O       1.878662     -1.202906     -6.120031
  C       0.716169     -1.422869     -6.965698
  O       2.541876     -3.401991     -5.134882
  C       2.447735     -4.487177     -4.180048
  H       3.937432      0.216017     -2.831939
  H       2.147987      0.071216     -2.824758
  H       2.989181      0.788208     -4.239782
  H       0.801865     -0.700218     -7.777516
  H      -0.206388     -1.252444     -6.396944
  H       0.733719     -2.442260     -7.363928
  H       3.148563     -4.323407     -3.354244
  H       2.724669     -5.390210     -4.725310
  H       1.424985     -4.571670     -3.799232
35
Coordinates from ORCA-job TMP_m1_shell2_reduced_opt_relaxed E -1531.476283054568
  C       1.865928     -2.124048     -0.347710
  O       1.542845     -0.798439      0.149010
  P       0.133736     -0.165913     -0.253470
  O      -0.184335     -0.212839     -1.710091
  O      -0.885611     -0.897358      0.718520
  C      -2.313963     -0.726066      0.504085
  O       0.224785      1.307328      0.346130
  C       0.840285      2.347972     -0.450711
  H       2.923805     -2.274760     -0.127391
  H       1.687484     -2.183827     -1.427546
  H       1.263174     -2.874078      0.173844
  H      -2.799986     -1.402858      1.207191
  H      -2.577739     -0.991343     -0.527628
  H      -2.601302      0.308735      0.715581
  H       1.922521      2.187871     -0.507086
  H       0.632918      3.284999      0.067392
  H       0.404821      2.366192     -1.455005
  Li     -0.808599     -1.166087     -3.218871
  C       3.054216      0.042644     -3.449682
  O       3.228212     -1.276892     -4.028925
  P       1.973430     -1.966685     -4.732452
  O       0.726029     -2.002766     -3.915301
  O       1.879358     -1.211293     -6.126297
  C       0.717860     -1.435139     -6.972193
  O       2.534308     -3.404628     -5.124428
  C       2.443716     -4.478237     -4.156010
  H       3.941969      0.219984     -2.840506
  H       2.152214      0.075374     -2.827798
  H       2.989674      0.791174     -4.245483
  H       0.812958     -0.727574     -7.796198
  H      -0.204898     -1.245425     -6.409698
  H       0.726665     -2.461341     -7.352771
  H       3.146697     -4.304099     -3.334094
  H       2.720025     -5.387597     -4.690889
  H       1.421988     -4.558207     -3.771449
35
Coordinates from ORCA-job TMP_m1_shell2_reduced_opt_relaxed E -1531.476289103850
  C       1.862019     -2.124404     -0.350233
  O       1.539031     -0.801142      0.152215
  P       0.132741     -0.163637     -0.253306
  O      -0.178883     -0.200802     -1.711512
  O      -0.891356     -0.900282      0.709389
  C      -2.318794     -0.725837      0.490900
  O       0.223369      1.305884      0.354611
  C       0.840338      2.350741     -0.436210
  H       2.919923     -2.276223     -0.130631
  H       1.683299     -2.180368     -1.430204
  H       1.259469     -2.876715      0.168373
  H      -2.808281     -1.409979      1.184480
  H      -2.578534     -0.980887     -0.544359
  H      -2.606132      0.306751      0.712509
  H       1.921521      2.186082     -0.499076
  H       0.639855      3.283758      0.091670
  H       0.400115      2.379244     -1.438087
  Li     -0.797282     -1.147014     -3.226751
  C       3.063510      0.041679     -3.458109
  O       3.234804     -1.277399     -4.039217
  P       1.975030     -1.968931     -4.732767
  O       0.734578     -2.005813     -3.904982
  O       1.870431     -1.215883     -6.126522
  C       0.703771     -1.441849     -6.965057
  O       2.533724     -3.407452     -5.126102
  C       2.452354     -4.477891     -4.153091
  H       3.956646      0.220540     -2.857326
  H       2.166728      0.072799     -2.828659
  H       2.990453      0.790339     -4.253136
  H       0.797679     -0.741068     -7.795010
  H      -0.215118     -1.242743     -6.399378
  H       0.706510     -2.470999     -7.337479
  H       3.158204     -4.297360     -3.335033
  H       2.730814     -5.387778     -4.685907
  H       1.432655     -4.560587     -3.763932
35
Coordinates from ORCA-job TMP_m1_shell2_reduced_opt_relaxed E -1531.476293242044
  C       1.867113     -2.119889     -0.357357
  O       1.542605     -0.797719      0.146356
  P       0.133866     -0.162553     -0.254016
  O      -0.182529     -0.197044     -1.711153
  O      -0.884769     -0.904293      0.710477
  C      -2.313701     -0.733147      0.497436
  O       0.222447      1.306064      0.355761
  C       0.828157      2.355691     -0.438057
  H       2.927084     -2.267646     -0.145007
  H       1.680855     -2.178094     -1.435901
  H       1.270982     -2.873987      0.166135
  H      -2.798571     -1.422464      1.189153
  H      -2.575776     -0.984542     -0.538036
  H      -2.603007      0.297387      0.725525
  H       1.908694      2.192951     -0.515059
  H       0.633064      3.285474      0.097451
  H       0.375205      2.387840     -1.434015
  Li     -0.798467     -1.138905     -3.229646
  C       3.069689      0.035681     -3.455343
  O       3.237287     -1.283319     -4.037801
  P       1.975561     -1.969437     -4.733291
  O       0.734153     -1.998734     -3.906909
  O       1.878441     -1.217844     -6.128010
  C       0.713028     -1.439299     -6.970057
  O       2.527167     -3.411700     -5.122850
  C       2.438339     -4.479572     -4.147391
  H       3.964562      0.212516     -2.856646
  H       2.173975      0.067963     -2.824471
  H       2.996029      0.785049     -4.249721
  H       0.815027     -0.742390     -7.802325
  H      -0.206177     -1.230935     -6.408277
  H       0.710167     -2.469905     -7.338238
  H       3.139358     -4.297596     -3.325541
  H       2.719310     -5.390936     -4.676331
  H       1.416023     -4.559891     -3.764772
35
Coordinates from ORCA-job TMP_m1_shell2_reduced_opt_relaxed E -1531.476295879735
  C       1.872191     -2.113660     -0.356415
  O       1.544173     -0.791971      0.146114
  P       0.134003     -0.160428     -0.253503
  O      -0.183120     -0.194462     -1.710479
  O      -0.881991     -0.905860      0.711197
  C      -2.311661     -0.737011      0.499722
  O       0.218087      1.308112      0.357011
  C       0.813898      2.362188     -0.438641
  H       2.933334     -2.257047     -0.147065
  H       1.682608     -2.174674     -1.434225
  H       1.280312     -2.868887      0.170278
  H      -2.794192     -1.428790      1.190601
  H      -2.573932     -0.986800     -0.536036
  H      -2.602388      0.292508      0.730450
  H       1.894627      2.204490     -0.522947
  H       0.618270      3.289716      0.100577
  H       0.354154      2.394296     -1.431425
  Li     -0.794823     -1.134050     -3.231619
  C       3.080864      0.027695     -3.455477
  O       3.242795     -1.291686     -4.038791
  P       1.977769     -1.972368     -4.733252
  O       0.737947     -1.998446     -3.904460
  O       1.882264     -1.218567     -6.126839
  C       0.715430     -1.434874     -6.968708
  O       2.523119     -3.416384     -5.125212
  C       2.429344     -4.485745     -4.151818
  H       3.978318      0.202040     -2.860003
  H       2.187383      0.062249     -2.821596
  H       3.005962      0.777339     -4.249498
  H       0.819909     -0.737241     -7.800036
  H      -0.202576     -1.223838     -6.405970
  H       0.708878     -2.465046     -7.337988
  H       3.128159     -4.306403     -3.327539
  H       2.710384     -5.396593     -4.681633
  H       1.405691     -4.565027     -3.772699
35
Coordinates from ORCA-job TMP_m1_shell2_reduced_opt_relaxed E -1531.476298457877
  C       1.877808     -2.107057     -0.358650
  O       1.547249     -0.785251      0.141893
  P       0.134922     -0.157733     -0.254612
  O      -0.185278     -0.190663     -1.710995
  O      -0.876891     -0.907539      0.711611
  C      -2.307471     -0.740662      0.503849
  O       0.214951      1.310484      0.357515
  C       0.797074      2.370148     -0.440861
  H       2.940904     -2.245182     -0.155891
  H       1.681323     -2.172376     -1.435004
  H       1.292383     -2.862821      0.174396
  H      -2.786871     -1.434552      1.194759
  H      -2.571642     -0.988589     -0.531837
  H      -2.599077      0.287995      0.737358
  H       1.877881      2.219182     -0.535776
  H       0.601181      3.294955      0.102933
  H       0.327829      2.402126     -1.429152
  Li     -0.792483     -1.130468     -3.233174
  C       3.091246      0.017925     -3.451513
  O       3.247892     -1.301040     -4.037189
  P       1.980035     -1.975541     -4.732019
  O       0.740949     -1.998504     -3.902029
  O       1.887417     -1.218627     -6.124234
  C       0.720039     -1.429867     -6.966965
  O       2.519160     -3.421047     -5.127401
  C       2.419148     -4.492886     -4.157464
  H       3.989739      0.188159     -2.856482
  H       2.198528      0.054545     -2.816660
  H       3.017785      0.769103     -4.244199
  H       0.826916     -0.730493     -7.796487
  H      -0.197485     -1.218150     -6.403660
  H       0.711034     -2.459191     -7.338581
  H       3.115709     -4.318075     -3.330314
  H       2.699248     -5.402990     -4.689091
  H       1.394042     -4.570542     -3.782001
35
Coordinates from ORCA-job TMP_m1_shell2_reduced_opt_relaxed E -1531.476300445816
  C       1.884059     -2.099054     -0.360539
  O       1.550547     -0.777028      0.137710
  P       0.135610     -0.154535     -0.256048
  O      -0.186589     -0.185852     -1.712099
  O      -0.872076     -0.910449      0.710223
  C      -2.303371     -0.745933      0.505833
  O       0.210207      1.312976      0.358759
  C       0.779215      2.378641     -0.440955
  H       2.949080     -2.231601     -0.164296
  H       1.681078     -2.168819     -1.435432
  H       1.305406     -2.855375      0.178971
  H      -2.779938     -1.442401      1.196078
  H      -2.569231     -0.991343     -0.530014
  H      -2.596532      0.281607      0.742459
  H       1.860150      2.234975     -0.545311
  H       0.581967      3.300560      0.107257
  H       0.301902      2.410650     -1.425357
  Li     -0.790309     -1.124426     -3.235818
  C       3.104728      0.007157     -3.448728
  O       3.254223     -1.311572     -4.036715
  P       1.982128     -1.978703     -4.730598
  O       0.744507     -1.997033     -3.898149
  O       1.891179     -1.218722     -6.121402
  C       0.723048     -1.425531     -6.964224
  O       2.513296     -3.426100     -5.130007
  C       2.408194     -4.499878     -4.162899
  H       4.004454      0.171945     -2.854021
  H       2.212922      0.047188     -2.812788
  H       3.034141      0.760053     -4.240000
  H       0.831169     -0.724379     -7.792056
  H      -0.193952     -1.213819     -6.399980
  H       0.711929     -2.453983     -7.338275
  H       3.104691     -4.330239     -3.334610
  H       2.684845     -5.409862     -4.696556
  H       1.382516     -4.574340     -3.788341
35
Coordinates from ORCA-job TMP_m1_shell2_reduced_opt_relaxed E -1531.476301888514
  C       1.887628     -2.094445     -0.364036
  O       1.553647     -0.771682      0.132202
  P       0.136603     -0.152241     -0.258491
  O      -0.188170     -0.182103     -1.714042
  O      -0.867678     -0.912454      0.708256
  C      -2.299433     -0.749604      0.506938
  O       0.208552      1.314617      0.358468
  C       0.769127      2.383920     -0.442135
  H       2.953968     -2.224039     -0.172973
  H       1.679585     -2.167504     -1.437754
  H       1.313410     -2.850378      0.180639
  H      -2.773981     -1.446693      1.197944
  H      -2.567309     -0.994776     -0.528462
  H      -2.593572      0.277538      0.744264
  H       1.850138      2.245202     -0.552280
  H       0.570606      3.304215      0.108360
  H       0.287095      2.415543     -1.424260
  Li     -0.790917     -1.122439     -3.236581
  C       3.111161      0.000423     -3.444258
  O       3.256944     -1.317738     -4.034329
  P       1.982747     -1.980336     -4.728686
  O       0.745314     -1.996005     -3.895799
  O       1.893254     -1.218028     -6.118489
  C       0.725391     -1.422727     -6.961962
  O       2.509655     -3.428564     -5.130788
  C       2.401717     -4.503701     -4.165606
  H       4.009828      0.160523     -2.846630
  H       2.217947      0.042865     -2.810411
  H       3.045849      0.755109     -4.234230
  H       0.833582     -0.719772     -7.788256
  H      -0.191902     -1.212470     -6.397574
  H       0.714211     -2.450348     -7.338372
  H       3.099353     -4.338120     -3.337437
  H       2.674712     -5.413762     -4.701005
  H       1.376131     -4.575254     -3.790152
35
Coordinates from ORCA-job TMP_m1_shell2_reduced_opt_relaxed E -1531.476302880624
  C       1.889848     -2.091090     -0.363922
  O       1.555539     -0.767423      0.129924
  P       0.137025     -0.150569     -0.260064
  O      -0.188498     -0.180842     -1.715421
  O      -0.865374     -0.913236      0.706752
  C      -2.297307     -0.752417      0.506351
  O       0.206754      1.316318      0.357082
  C       0.763824      2.386895     -0.444131
  H       2.956510     -2.219538     -0.173799
  H       1.680917     -2.166401     -1.437304
  H       1.316833     -2.846259      0.183025
  H      -2.770817     -1.448529      1.199069
  H      -2.565918     -0.999999     -0.528310
  H      -2.592785      0.274841      0.741612
  H       1.845242      2.251573     -0.554522
  H       0.562407      3.306982      0.105664
  H       0.281762      2.416503     -1.426321
  Li     -0.791622     -1.123301     -3.236159
  C       3.115721     -0.003948     -3.441712
  O       3.258784     -1.321918     -4.032841
  P       1.982934     -1.981465     -4.727273
  O       0.746020     -1.996017     -3.893567
  O       1.893224     -1.216731     -6.115833
  C       0.725178     -1.419697     -6.959138
  O       2.507321     -3.429813     -5.131994
  C       2.398403     -4.506314     -4.168437
  H       4.013253      0.152575     -2.841388
  H       2.221002      0.040834     -2.810139
  H       3.055337      0.751781     -4.231046
  H       0.832160     -0.714429     -7.783642
  H      -0.192129     -1.211474     -6.393952
  H       0.714315     -2.446264     -7.338457
  H       3.098082     -4.344047     -3.341325
  H       2.667838     -5.416253     -4.705816
  H       1.373408     -4.575550     -3.790891
35
Coordinates from ORCA-job TMP_m1_shell2_reduced_opt_relaxed E -1531.476303417661
  C       1.891690     -2.088255     -0.363368
  O       1.557343     -0.763686      0.128088
  P       0.137461     -0.149110     -0.261236
  O      -0.189352     -0.180844     -1.716219
  O      -0.862891     -0.912975      0.706690
  C      -2.295172     -0.755035      0.507052
  O       0.205723      1.318233      0.354793
  C       0.759824      2.389215     -0.447973
  H       2.958477     -2.216086     -0.173465
  H       1.682376     -2.165717     -1.436517
  H       1.319155     -2.842527      0.185315
  H      -2.767142     -1.449815      1.202176
  H      -2.564274     -1.006315     -0.526596
  H      -2.592345      0.272398      0.739398
  H       1.841574      2.256553     -0.558315
  H       0.555994      3.309516      0.100567
  H       0.277649      2.416218     -1.430183
  Li     -0.792535     -1.126102     -3.234833
  C       3.118279     -0.007682     -3.438661
  O       3.259710     -1.325387     -4.030803
  P       1.983035     -1.982491     -4.726263
  O       0.746158     -1.996510     -3.892585
  O       1.894059     -1.215462     -6.113617
  C       0.725918     -1.415802     -6.957239
  O       2.505847     -3.430792     -5.132858
  C       2.395270     -4.508662     -4.170921
  H       4.014432      0.145939     -2.835521
  H       2.221774      0.038839     -2.809745
  H       3.062371      0.748940     -4.227465
  H       0.832880     -0.708545     -7.780068
  H      -0.191320     -1.208307     -6.391646
  H       0.714502     -2.441399     -7.339125
  H       3.095934     -4.349125     -3.344119
  H       2.662381     -5.418287     -4.709968
  H       1.370406     -4.576161     -3.792697
