35
Coordinates from ORCA-job TMP_m1_shell2_reduced_opt_relaxed E -1531.476303417661
  C           1.89169048506126     -2.08825508144235     -0.36336820704543
  O           1.55734255382397     -0.76368573672654      0.12808815513829
  P           0.13746067764189     -0.14911041709083     -0.26123557680741
  O          -0.18935210321361     -0.18084416884454     -1.71621874729235
  O          -0.86289101939352     -0.91297457461419      0.70668951941196
  C          -2.29517159771317     -0.75503451128098      0.50705178662442
  O           0.20572319612805      1.31823284032922      0.35479258308228
  C           0.75982391693756      2.38921522558742     -0.44797325632601
  H           2.95847689820770     -2.21608586998026     -0.17346514264167
  H           1.68237572657645     -2.16571674920169     -1.43651714070280
  H           1.31915536250992     -2.84252736204796      0.18531491831184
  H          -2.76714199677008     -1.44981476355165      1.20217630998418
  H          -2.56427447051821     -1.00631492241542     -0.52659568275017
  H          -2.59234517722430      0.27239761091515      0.73939787426064
  H           1.84157437872060      2.25655263442823     -0.55831470389495
  H           0.55599352884162      3.30951623240669      0.10056717155973
  H           0.27764936870369      2.41621776147890     -1.43018285145685
  Li         -0.79253528672573     -1.12610197306542     -3.23483331389302
  C           3.11827880903477     -0.00768225227424     -3.43866072261428
  O           3.25971024537972     -1.32538678543667     -4.03080338025779
  P           1.98303487331959     -1.98249051463582     -4.72626301677618
  O           0.74615761164942     -1.99651004996328     -3.89258453636462
  O           1.89405852770391     -1.21546214790959     -6.11361653266971
  C           0.72591828261916     -1.41580155837840     -6.95723922896654
  O           2.50584703071756     -3.43079165443452     -5.13285828306218
  C           2.39526983806619     -4.50866159957779     -4.17092145436154
  H           4.01443181402127      0.14593936365481     -2.83552109060723
  H           2.22177439188011      0.03883939017517     -2.80974544553416
  H           3.06237135214890      0.74893994249737     -4.22746518642844
  H           0.83287955280966     -0.70854522357089     -7.78006780327561
  H          -0.19132018026568     -1.20830672372015     -6.39164559410258
  H           0.71450226935255     -2.44139900088913     -7.33912462432337
  H           3.09593435813124     -4.34912532881604     -3.34411878653633
  H           2.66238135609061     -5.41828650636084     -4.70996804574636
  H           1.37040642574685     -4.57616052524370     -3.79269696393553
