15
EMC conformer 1/3 rel=+0.00 kJ/mol from 1; GFN2-xTB opt; T6 conformer ensemble
C  -2.36067934 -0.12961909  0.54595599
C  -1.61753293  0.36145638 -0.68743901
O  -0.34409765  0.91793674 -0.34671422
C   0.65333538  0.05342698 -0.18166750
O   0.59263120 -1.13506171 -0.32402461
O   1.75140454  0.73286056  0.15896559
C   2.92164103 -0.05169294  0.34793210
H  -2.45959153  0.67566138  1.26982948
H  -1.81814281 -0.95331619  1.00337398
H  -3.35011983 -0.47546556  0.26058757
H  -1.46978196 -0.46091266 -1.39478455
H  -2.15416045  1.17925508 -1.17190780
H   3.18655208 -0.57143507 -0.57493545
H   3.70411986  0.64756088  0.63022960
H   2.76442241 -0.79065478  1.13606204
