15
EMC conformer 0/3 rel=+0.00 kJ/mol from g1_reference; GFN2-xTB opt; T6 conformer ensemble
C  -2.29501098  0.52787455  0.54321137
C  -1.50884833 -0.77091798  0.64206091
O  -0.12364102 -0.52785502  0.90573037
C   0.63562163 -0.23548129 -0.14666112
O   0.27698969 -0.19062817 -1.28938908
O   1.88144161 -0.01072401  0.27858279
C   2.82878346  0.29190249 -0.73711708
H  -1.95308432  1.10512754 -0.31231116
H  -3.35083333  0.30515987  0.41801407
H  -2.15985090  1.11797121  1.44641136
H  -1.84770481 -1.37400254  1.48641811
H  -1.60022586 -1.34228892 -0.28726376
H   2.91602923 -0.54012196 -1.43862806
H   2.52889871  1.18637098 -1.28659541
H   3.77143520  0.45761323 -0.22246332
