15
EMC conformer 2/3 rel=+2.82 kJ/mol from 2; GFN2-xTB opt; T6 conformer ensemble
C  -2.67268193  0.84230905 -0.40259520
C  -1.57346582 -0.16969565 -0.14247932
O  -0.31502388  0.46522705 -0.39390175
C   0.75918185 -0.29472717 -0.20983922
O   0.75398970 -1.44116325  0.14145984
O   1.85018013  0.42518046 -0.47970121
C   3.08578060 -0.26129571 -0.32544864
H  -2.62906784  1.18427958 -1.43270189
H  -2.55273897  1.70036680  0.25262718
H  -3.63989096  0.38399221 -0.21844279
H  -1.59144587 -0.52231432  0.89465025
H  -1.66818094 -1.04115243 -0.79966503
H   3.12906613 -1.12456171 -0.99240295
H   3.85841836  0.45873039 -0.58092118
H   3.20587945 -0.60517532  0.70375148
