10
 energy: -20.117657716414 gnorm: 0.000776171750 xtb: 6.7.1pre (5071a88)
C           -0.20820037661057       -0.94319053456581       -0.10958966546758
C           -0.87217394738691        0.42383818100823       -0.06886469749852
O            0.17072745618205        1.31076884856940        0.05241370798238
C            1.36594591709380        0.65737761591712        0.20581452759549
O            2.39097635845481        1.14680543422897        0.47910435732969
O            1.13629732913072       -0.67723679191554       -0.00777288939038
H           -0.38336249250987       -1.53159860978594       -1.03700670894058
H           -0.53729842355660       -1.63325047233830        0.69642553814572
H           -1.46339143640073        0.69405618712895       -0.97136008642310
H           -1.59952038439672        0.55243014175294        0.76083592666691
