10
Coordinates from ORCA-job EC_cation_cpcm_20_moread E -342.068339560126
  C          -0.21942278857938     -0.93013324749989     -0.10822098711270
  C          -0.86971387818933      0.40711031622803     -0.06494859076051
  O           0.16578136356418      1.32100114070335      0.11085477870169
  C           1.38290170984668      0.66585605417772      0.21414330259507
  O           2.42815275701794      1.16614667314711      0.41780975980148
  O           1.14359974832550     -0.68899680974078      0.03561663294946
  H          -0.39361782390061     -1.51545167562956     -1.04310185427510
  H          -0.55964144822543     -1.64411876589767      0.68092827972680
  H          -1.44697477833021      0.67702126362705     -0.98281889505301
  H          -1.63106486152937      0.54156505088465      0.73973758342685
