12
Coordinates from ORCA-job DMC_cation_cpcm_5_default E -343.241923660829
  C      -2.318878     -0.114206      0.123037
  O      -1.049280     -0.725197      0.316030
  C      -0.000232      0.005054     -0.063354
  O      -0.050600      1.103204     -0.539542
  O       1.114073     -0.687469      0.174210
  C       2.325639     -0.033210     -0.181440
  H      -3.050859     -0.833872      0.479389
  H      -2.479981      0.106427     -0.933950
  H      -2.385824      0.815479      0.691419
  H       2.433862      0.899546      0.375435
  H       2.339669      0.190449     -1.249913
  H       3.122410     -0.726204      0.074721
12
Coordinates from ORCA-job DMC_cation_cpcm_5_default E -343.244797561056
  C      -2.344804     -0.126327      0.139859
  O      -1.050142     -0.722444      0.250943
  C      -0.003410      0.033699     -0.103312
  O      -0.053646      1.146107     -0.568387
  O       1.106293     -0.685481      0.107383
  C       2.354059     -0.044445     -0.168212
  H      -3.046195     -0.856296      0.539468
  H      -2.566078      0.093051     -0.915108
  H      -2.372543      0.823317      0.701918
  H       2.421846      0.904950      0.390789
  H       2.428216      0.183765     -1.241851
  H       3.126403     -0.749897      0.132553
12
Coordinates from ORCA-job DMC_cation_cpcm_5_default E -343.246179123144
  C      -2.352311     -0.128559      0.171694
  O      -1.051067     -0.733557      0.141104
  C      -0.010460      0.031887     -0.212748
  O      -0.057024      1.173155     -0.615331
  O       1.093564     -0.697056     -0.002747
  C       2.365869     -0.046572     -0.137665
  H      -3.010498     -0.862935      0.632675
  H      -2.669151      0.090023     -0.864425
  H      -2.304027      0.833662      0.715114
  H       2.354569      0.911537      0.414993
  H       2.536605      0.186844     -1.204636
  H       3.103931     -0.758430      0.228017
12
Coordinates from ORCA-job DMC_cation_cpcm_5_default E -343.246937538649
  C      -2.355578     -0.131345      0.184350
  O      -1.050198     -0.727837      0.085561
  C      -0.011070      0.058499     -0.211619
  O      -0.058327      1.197339     -0.621394
  O       1.085131     -0.690924     -0.057423
  C       2.371021     -0.049245     -0.125729
  H      -2.981385     -0.879846      0.666499
  H      -2.713489      0.074580     -0.842916
  H      -2.283971      0.837419      0.705114
  H       2.333556      0.915153      0.406742
  H       2.584471      0.172295     -1.189246
  H       3.079838     -0.776088      0.266105
12
Coordinates from ORCA-job DMC_cation_cpcm_5_default E -343.247483156975
  C      -2.349615     -0.126113      0.193579
  O      -1.056114     -0.736754      0.026928
  C      -0.013858      0.048136     -0.251946
  O      -0.058334      1.201981     -0.611878
  O       1.083423     -0.698831     -0.114776
  C       2.366118     -0.043787     -0.116002
  H      -2.954624     -0.872954      0.704864
  H      -2.757632      0.069774     -0.815391
  H      -2.246927      0.841466      0.702983
  H       2.297297      0.920541      0.405260
  H       2.633064      0.165002     -1.168419
  H       3.057202     -0.768460      0.310842
12
Coordinates from ORCA-job DMC_cation_cpcm_5_default E -343.247912931384
  C      -2.342176     -0.117885      0.197501
  O      -1.065095     -0.743716     -0.042335
  C      -0.015481      0.036661     -0.283200
  O      -0.055696      1.207398     -0.580948
  O       1.083393     -0.705071     -0.180153
  C       2.358397     -0.034700     -0.111755
  H      -2.920818     -0.863577      0.742664
  H      -2.811647      0.058379     -0.785000
  H      -2.212030      0.844209      0.700302
  H       2.261919      0.929539      0.394363
  H       2.693103      0.142859     -1.147659
  H       3.026130     -0.754097      0.362263
12
Coordinates from ORCA-job DMC_cation_cpcm_5_default E -343.248048341348
  C      -2.342624     -0.115051      0.196467
  O      -1.068576     -0.741563     -0.066803
  C      -0.015617      0.035232     -0.290468
  O      -0.054786      1.213065     -0.570120
  O       1.083590     -0.703167     -0.203389
  C       2.358444     -0.031651     -0.112767
  H      -2.908222     -0.861245      0.756275
  H      -2.836331      0.048604     -0.775011
  H      -2.207141      0.844301      0.701105
  H       2.256928      0.931444      0.392528
  H       2.718989      0.130212     -1.141504
  H       3.015346     -0.750181      0.379731
12
Coordinates from ORCA-job DMC_cation_cpcm_5_default E -343.248224699146
  C      -2.348399     -0.111911      0.193420
  O      -1.072014     -0.733595     -0.089087
  C      -0.015562      0.034834     -0.295864
  O      -0.054989      1.220866     -0.568298
  O       1.083726     -0.695709     -0.224805
  C       2.363738     -0.028484     -0.116063
  H      -2.896908     -0.859751      0.770262
  H      -2.866065      0.034277     -0.766333
  H      -2.212013      0.842208      0.706977
  H       2.262731      0.929833      0.397616
  H       2.748637      0.115706     -1.136780
  H       3.007119     -0.748275      0.394998
12
Coordinates from ORCA-job DMC_cation_cpcm_5_default E -343.248410612009
  C      -2.358785     -0.109233      0.190047
  O      -1.073962     -0.723540     -0.097328
  C      -0.015131      0.032108     -0.296807
  O      -0.056012      1.223948     -0.579441
  O       1.083992     -0.686209     -0.231855
  C       2.373732     -0.025803     -0.120385
  H      -2.894390     -0.859754      0.776651
  H      -2.885116      0.025889     -0.764115
  H      -2.225829      0.837444      0.717920
  H       2.278125      0.925237      0.407481
  H       2.766512      0.107998     -1.137075
  H       3.006864     -0.748087      0.400951
12
Coordinates from ORCA-job DMC_cation_cpcm_5_default E -343.248850150483
  C      -2.390941     -0.101394      0.178851
  O      -1.076985     -0.701471     -0.089992
  C      -0.012642      0.012732     -0.284183
  O      -0.058366      1.216324     -0.613145
  O       1.086425     -0.665669     -0.219328
  C       2.404500     -0.017797     -0.135218
  H      -2.908814     -0.857336      0.774542
  H      -2.907648      0.021918     -0.774666
  H      -2.272059      0.821409      0.750280
  H       2.328643      0.911687      0.432553
  H       2.783974      0.102707     -1.151241
  H       3.023915     -0.743109      0.397592
12
Coordinates from ORCA-job DMC_cation_cpcm_5_default E -343.249402519905
  C      -2.409005     -0.099525      0.164779
  O      -1.074853     -0.700626     -0.032117
  C      -0.008874     -0.007352     -0.242263
  O      -0.058070      1.197985     -0.608817
  O       1.092019     -0.664897     -0.157682
  C       2.420825     -0.015755     -0.151382
  H      -2.951859     -0.850963      0.740271
  H      -2.869552      0.038484     -0.812783
  H      -2.312617      0.813979      0.758021
  H       2.369832      0.906300      0.434187
  H       2.738828      0.116906     -1.184509
  H       3.063329     -0.734536      0.358339
12
Coordinates from ORCA-job DMC_cation_cpcm_5_default E -343.250591195240
  C      -2.414772     -0.104006      0.152538
  O      -1.070551     -0.714568      0.048990
  C      -0.004511     -0.029876     -0.185499
  O      -0.054659      1.180611     -0.558079
  O       1.099954     -0.677532     -0.071089
  C       2.425007     -0.019785     -0.164840
  H      -2.998304     -0.849094      0.686215
  H      -2.784784      0.068561     -0.860135
  H      -2.336222      0.819598      0.734663
  H       2.389659      0.916059      0.401893
  H       2.647897      0.139033     -1.221670
  H       3.101286     -0.729000      0.303055
12
Coordinates from ORCA-job DMC_cation_cpcm_5_default E -343.251184475745
  C      -2.417893     -0.094647      0.135947
  O      -1.069371     -0.729312      0.103614
  C       0.000330     -0.071920     -0.132424
  O      -0.050413      1.153753     -0.500488
  O       1.107787     -0.690752     -0.008800
  C       2.425079     -0.010137     -0.181798
  H      -3.029720     -0.836628      0.638720
  H      -2.723397      0.089476     -0.893144
  H      -2.353503      0.825392      0.718991
  H       2.404314      0.928121      0.374966
  H       2.580745      0.148127     -1.247911
  H       3.126041     -0.711473      0.258371
12
Coordinates from ORCA-job DMC_cation_cpcm_5_default E -343.251586967440
  C      -2.406294     -0.088650      0.123159
  O      -1.067588     -0.744683      0.169400
  C       0.003776     -0.093393     -0.082427
  O      -0.046989      1.126946     -0.466118
  O       1.116305     -0.704015      0.056714
  C       2.411199     -0.004010     -0.192139
  H      -3.056825     -0.825911      0.583367
  H      -2.648769      0.102761     -0.920691
  H      -2.365070      0.834486      0.701852
  H       2.414378      0.935867      0.360742
  H       2.500098      0.163103     -1.263954
  H       3.145779     -0.702499      0.196139
12
Coordinates from ORCA-job DMC_cation_cpcm_5_default E -343.251814450459
  C      -2.400046     -0.085536      0.110890
  O      -1.064618     -0.738770      0.243604
  C       0.006347     -0.098171     -0.037354
  O      -0.046519      1.106126     -0.474886
  O       1.123207     -0.696732      0.125909
  C       2.403238     -0.000471     -0.201796
  H      -3.078105     -0.825003      0.526501
  H      -2.583308      0.105394     -0.945346
  H      -2.402930      0.833329      0.700330
  H       2.455694      0.928158      0.369937
  H       2.427260      0.179623     -1.275519
  H       3.159780     -0.707946      0.123774
12
Coordinates from ORCA-job DMC_cation_cpcm_5_default E -343.251908216677
  C      -2.395136     -0.081339      0.111591
  O      -1.062489     -0.733852      0.278360
  C       0.006098     -0.100196     -0.027577
  O      -0.047191      1.090187     -0.502657
  O       1.124866     -0.693180      0.150900
  C       2.398281      0.004453     -0.199362
  H      -3.084304     -0.824410      0.503561
  H      -2.555437      0.101668     -0.951314
  H      -2.414617      0.835572      0.701958
  H       2.470517      0.920146      0.388620
  H       2.397777      0.195580     -1.273083
  H       3.161633     -0.714628      0.085045
12
Coordinates from ORCA-job DMC_cation_cpcm_5_default E -343.251935770663
  C      -2.396864     -0.081733      0.110633
  O      -1.060759     -0.723405      0.301564
  C       0.005775     -0.096693     -0.020635
  O      -0.048814      1.086156     -0.520124
  O       1.125217     -0.683922      0.167051
  C       2.400090      0.004609     -0.200461
  H      -3.087095     -0.829628      0.490387
  H      -2.540362      0.098836     -0.955102
  H      -2.429862      0.833316      0.703309
  H       2.487310      0.911757      0.398586
  H       2.384055      0.204914     -1.272315
  H       3.161310     -0.724207      0.063149
12
Coordinates from ORCA-job DMC_cation_cpcm_5_default E -343.251945852616
  C      -2.398547     -0.082073      0.113748
  O      -1.060396     -0.720529      0.300464
  C       0.004618     -0.094421     -0.028197
  O      -0.050670      1.085515     -0.533122
  O       1.124038     -0.681826      0.160551
  C       2.402415      0.004573     -0.198013
  H      -3.086127     -0.831487      0.495262
  H      -2.545529      0.097115     -0.951648
  H      -2.428303      0.833387      0.705409
  H       2.485812      0.908727      0.405514
  H       2.392668      0.209238     -1.268964
  H       3.160021     -0.728219      0.065038
12
Coordinates from ORCA-job DMC_cation_cpcm_5_default E -343.251949007460
  C      -2.399529     -0.082410      0.114727
  O      -1.060251     -0.718465      0.301952
  C       0.004110     -0.093341     -0.030542
  O      -0.051594      1.084932     -0.537974
  O       1.123706     -0.680338      0.158177
  C       2.403696      0.004321     -0.197571
  H      -3.085516     -0.833096      0.496475
  H      -2.546843      0.097004     -0.950413
  H      -2.429855      0.833207      0.705930
  H       2.486616      0.907338      0.407536
  H       2.396474      0.211593     -1.267867
  H       3.158988     -0.730746      0.065613
12
Coordinates from ORCA-job DMC_cation_cpcm_5_default E -343.251950558681
  C      -2.400040     -0.082616      0.115109
  O      -1.060094     -0.716209      0.305899
  C       0.003789     -0.092358     -0.030654
  O      -0.052217      1.083848     -0.541170
  O       1.123688     -0.678909      0.157923
  C       2.404399      0.004062     -0.197725
  H      -3.085220     -0.834891      0.495138
  H      -2.545386      0.097545     -0.950119
  H      -2.433505      0.832785      0.706387
  H       2.488904      0.906275      0.408281
  H       2.397576      0.213409     -1.267552
  H       3.158106     -0.732942      0.064528
12
Coordinates from ORCA-job DMC_cation_cpcm_5_default E -343.251950951609
  C      -2.400045     -0.082609      0.115067
  O      -1.060031     -0.715353      0.308154
  C       0.003731     -0.092052     -0.029798
  O      -0.052305      1.083533     -0.541134
  O       1.123756     -0.678571      0.158284
  C       2.404425      0.003925     -0.198103
  H      -3.085286     -0.835739      0.493335
  H      -2.543575      0.098378     -0.950306
  H      -2.435701      0.832319      0.706940
  H       2.489871      0.906379      0.407414
  H       2.397218      0.213068     -1.267997
  H       3.157941     -0.733279      0.064189
12
Coordinates from ORCA-job DMC_cation_cpcm_5_default E -343.251951193373
  C      -2.399922     -0.082563      0.114924
  O      -1.059918     -0.714474      0.310878
  C       0.003742     -0.091719     -0.028313
  O      -0.052309      1.083329     -0.540762
  O       1.123857     -0.678184      0.159524
  C       2.404272      0.003761     -0.198664
  H      -3.085578     -0.836814      0.490217
  H      -2.540674      0.099911     -0.950603
  H      -2.438217      0.831391      0.708162
  H       2.490814      0.906862      0.405750
  H       2.395970      0.211731     -1.268816
  H       3.157962     -0.733230      0.063747
