21
Coordinates from ORCA-job EC_m1_shell2_cation_opt E -692.127215298772
  C          -1.23877420947339     -0.65823334197685     -0.25302320176045
  C          -0.99945547338483      0.85480629335314     -0.22391860457792
  O           0.45449255135855      0.95027157016482     -0.17824706133665
  C           0.95261144729881     -0.23606406132853      0.14937363360237
  O           2.13419431621048     -0.42590402332641      0.37077008494018
  O           0.03486342818573     -1.19465389280294      0.21124821131941
  H          -1.41753136801447     -1.05089482515773     -1.25785150592444
  H          -2.01751693399503     -0.99560124152654      0.43176736371966
  H          -1.34441823062383      1.37421260612652     -1.11858590036736
  H          -1.39168126721738      1.33987977257698      0.67423167336162
  Li          3.84761528166972     -0.82908860944389      0.73524638604481
  C           8.71045264321279     -1.95540459266254      2.27143095034899
  C           8.91148874668483     -1.89337092058272      0.75412208305473
  O           7.63554967058182     -1.36884758778051      0.28189070071091
  C           6.74042685300039     -1.47527326758681      1.25786212861915
  O           5.55961982020154     -1.21786681252137      1.11397348504385
  O           7.26048662431295     -1.88964851205388      2.40710633235298
  H           9.13219561579379     -1.09678440118305      2.80127040325139
  H           9.05044138537921     -2.88711069195113      2.72478698387009
  H           9.69698525708884     -1.20532797541448      0.43991715276865
  H           9.05689825558016     -2.87483797814688      0.29429636643556
