21
Coordinates from ORCA-job EC_m1_shell2_cation_opt E -692.121483430183
  C      -1.071693     -0.751192     -0.220588
  C      -0.930294      0.782266     -0.150280
  O       0.462949      0.971827      0.089191
  C       1.066851     -0.189820      0.157172
  O       2.255383     -0.310631      0.353004
  O       0.261422     -1.212220     -0.009082
  H      -1.411652     -1.111320     -1.194347
  H      -1.709173     -1.164749      0.564286
  H      -1.192228      1.285292     -1.083977
  H      -1.487251      1.231956      0.674987
  Li      3.911392     -0.590497      0.633502
  C       8.512541     -1.963379      2.286257
  C       8.801560     -1.963067      0.771819
  O       7.553792     -1.573319      0.201100
  C       6.671777     -1.370695      1.150334
  O       5.530526     -1.030773      0.932629
  O       7.142747     -1.572627      2.357916
  H       9.109189     -1.236305      2.841894
  H       8.615581     -2.948453      2.747157
  H       9.559813     -1.234835      0.475169
  H       9.068076     -2.947601      0.380682
21
Coordinates from ORCA-job EC_m1_shell2_cation_opt E -692.124354471543
  C      -1.115936     -0.743334     -0.225778
  C      -0.969355      0.792959     -0.157964
  O       0.442091      0.981759      0.081424
  C       1.050764     -0.189081      0.150304
  O       2.246368     -0.312294      0.348047
  O       0.232353     -1.214992     -0.013597
  H      -1.458633     -1.103510     -1.198767
  H      -1.753097     -1.153174      0.561597
  H      -1.231198      1.295150     -1.092354
  H      -1.522981      1.245181      0.668397
  Li      3.910915     -0.594847      0.631630
  C       8.553367     -1.972603      2.295645
  C       8.844260     -1.968345      0.778396
  O       7.580679     -1.576904      0.199300
  C       6.687354     -1.377355      1.153029
  O       5.538818     -1.036298      0.933704
  O       7.165215     -1.581797      2.368683
  H       9.147085     -1.243894      2.852743
  H       8.659045     -2.958624      2.754429
  H       9.600299     -1.236441      0.484162
  H       9.113893     -2.951700      0.385798
21
Coordinates from ORCA-job EC_m1_shell2_cation_opt E -692.125290801717
  C      -1.142525     -0.737333     -0.229406
  C      -0.992215      0.797987     -0.165452
  O       0.429295      0.988561      0.076436
  C       1.035147     -0.189407      0.151198
  O       2.232168     -0.313891      0.348907
  O       0.212792     -1.218869     -0.012405
  H      -1.479284     -1.100701     -1.202499
  H      -1.777391     -1.145111      0.559925
  H      -1.246688      1.299090     -1.101654
  H      -1.539964      1.254332      0.661635
  Li      3.909685     -0.598780      0.634627
  C       8.578951     -1.979370      2.298819
  C       8.868920     -1.970988      0.782260
  O       7.597120     -1.576100      0.197337
  C       6.702175     -1.378588      1.157307
  O       5.551158     -1.039807      0.938951
  O       7.180319     -1.587996      2.377626
  H       9.167036     -1.248497      2.857710
  H       8.680892     -2.966121      2.755226
  H       9.620238     -1.235496      0.487390
  H       9.133479     -2.953057      0.384891
21
Coordinates from ORCA-job EC_m1_shell2_cation_opt E -692.125863447787
  C      -1.168336     -0.728088     -0.228090
  C      -1.010829      0.803636     -0.171025
  O       0.418864      0.992228      0.064633
  C       1.018259     -0.191307      0.140179
  O       2.214202     -0.319883      0.339185
  O       0.190654     -1.220423     -0.012989
  H      -1.503839     -1.096276     -1.199279
  H      -1.796709     -1.131789      0.567862
  H      -1.260673      1.303437     -1.108606
  H      -1.546398      1.266561      0.659783
  Li      3.907757     -0.611562      0.631272
  C       8.601020     -1.984636      2.301937
  C       8.893069     -1.967490      0.789078
  O       7.615342     -1.575923      0.198144
  C       6.716998     -1.391852      1.160326
  O       5.565943     -1.054839      0.941695
  O       7.193055     -1.602155      2.383306
  H       9.176971     -1.248463      2.865615
  H       8.702528     -2.972544      2.754765
  H       9.635394     -1.222730      0.496433
  H       9.158034     -2.946043      0.384599
21
Coordinates from ORCA-job EC_m1_shell2_cation_opt E -692.126259311062
  C      -1.189218     -0.722097     -0.230821
  C      -1.027969      0.806376     -0.183223
  O       0.403388      0.994147      0.058349
  C       0.996481     -0.190856      0.150041
  O       2.191496     -0.321031      0.347454
  O       0.168977     -1.218851     -0.004033
  H      -1.515168     -1.097774     -1.202208
  H      -1.818914     -1.121074      0.566190
  H      -1.266817      1.301364     -1.125996
  H      -1.561587      1.277539      0.643957
  Li      3.905191     -0.616398      0.641194
  C       8.622868     -1.993330      2.300900
  C       8.911257     -1.967625      0.790702
  O       7.631342     -1.569756      0.202546
  C       6.737479     -1.387719      1.168430
  O       5.584988     -1.056732      0.953678
  O       7.212851     -1.610183      2.388749
  H       9.195630     -1.258140      2.868730
  H       8.719537     -2.984051      2.748155
  H       9.650246     -1.219703      0.498445
  H       9.169249     -2.944250      0.377587
21
Coordinates from ORCA-job EC_m1_shell2_cation_opt E -692.126527059839
  C      -1.212267     -0.711940     -0.222288
  C      -1.039700      0.814341     -0.189420
  O       0.393527      0.993063      0.037340
  C       0.978748     -0.193718      0.129427
  O       2.171704     -0.331141      0.329306
  O       0.142884     -1.215323     -0.002503
  H      -1.547543     -1.095148     -1.187589
  H      -1.836701     -1.100144      0.584210
  H      -1.281731      1.303775     -1.134329
  H      -1.561502      1.296803      0.638879
  Li      3.902289     -0.638106      0.633001
  C       8.638904     -1.998826      2.304907
  C       8.933179     -1.955365      0.797608
  O       7.652385     -1.567412      0.208845
  C       6.752009     -1.411456      1.170543
  O       5.600121     -1.081973      0.954853
  O       7.225296     -1.634856      2.389321
  H       9.198489     -1.260945      2.882428
  H       8.744308     -2.992252      2.744192
  H       9.663222     -1.194940      0.515060
  H       9.203685     -2.924579      0.375033
21
Coordinates from ORCA-job EC_m1_shell2_cation_opt E -692.126671218898
  C      -1.221704     -0.710425     -0.220711
  C      -1.045487      0.817035     -0.200722
  O       0.383587      0.992512      0.030123
  C       0.965720     -0.192952      0.138815
  O       2.158639     -0.331907      0.337388
  O       0.128377     -1.212061      0.009021
  H      -1.556325     -1.100507     -1.183740
  H      -1.852856     -1.089459      0.585203
  H      -1.284983      1.298079     -1.150848
  H      -1.572570      1.308140      0.619383
  Li      3.900173     -0.641876      0.641631
  C       8.648152     -2.006793      2.304103
  C       8.941115     -1.951181      0.795546
  O       7.662578     -1.558804      0.214268
  C       6.763983     -1.407185      1.176591
  O       5.610251     -1.082271      0.964278
  O       7.238328     -1.643956      2.391082
  H       9.210919     -1.275371      2.887114
  H       8.756449     -3.003807      2.735036
  H       9.673343     -1.190287      0.519134
  H       9.213619     -2.917066      0.366128
21
Coordinates from ORCA-job EC_m1_shell2_cation_opt E -692.126714790130
  C      -1.226417     -0.709220     -0.215668
  C      -1.045887      0.819837     -0.206399
  O       0.381475      0.991971      0.021481
  C       0.961963     -0.193892      0.136841
  O       2.154760     -0.334877      0.335660
  O       0.120567     -1.211219      0.015411
  H      -1.566773     -1.103472     -1.175163
  H      -1.860752     -1.079468      0.592047
  H      -1.288785      1.294336     -1.159142
  H      -1.574193      1.317262      0.609311
  Li      3.898981     -0.647954      0.641909
  C       8.650231     -2.011259      2.304915
  C       8.945467     -1.944466      0.795223
  O       7.668322     -1.553025      0.216598
  C       6.766814     -1.410851      1.178017
  O       5.612383     -1.087358      0.966442
  O       7.241568     -1.654047      2.391417
  H       9.213190     -1.283820      2.892997
  H       8.764953     -3.010722      2.728866
  H       9.678480     -1.181310      0.526574
  H       9.224959     -2.906591      0.361487
21
Coordinates from ORCA-job EC_m1_shell2_cation_opt E -692.126721670949
  C      -1.228032     -0.708642     -0.212073
  C      -1.044896      0.820906     -0.210393
  O       0.382367      0.991771      0.016016
  C       0.961606     -0.194844      0.136781
  O       2.154228     -0.336812      0.335608
  O       0.117714     -1.211689      0.020737
  H      -1.570951     -1.106118     -1.169379
  H      -1.864074     -1.072969      0.597051
  H      -1.289089      1.290706     -1.165181
  H      -1.573323      1.322714      0.602609
  Li      3.898231     -0.651339      0.642608
  C       8.650310     -2.014338      2.304768
  C       8.946822     -1.939796      0.794906
  O       7.669875     -1.548099      0.217223
  C       6.766554     -1.412252      1.178758
  O       5.611803     -1.089671      0.967832
  O       7.241363     -1.660446      2.391862
  H       9.212815     -1.289271      2.896287
  H       8.768454     -3.015565      2.723707
  H       9.679952     -1.174918      0.531346
  H       9.229576     -2.899471      0.357752
21
Coordinates from ORCA-job EC_m1_shell2_cation_opt E -692.126723223041
  C      -1.229390     -0.707912     -0.208070
  C      -1.043828      0.821431     -0.214535
  O       0.383916      0.991377      0.009886
  C       0.961556     -0.195779      0.136418
  O       2.153951     -0.338572      0.335294
  O       0.115626     -1.212097      0.026536
  H      -1.573850     -1.109544     -1.163092
  H      -1.865899     -1.066634      0.603193
  H      -1.288439      1.286454     -1.171550
  H      -1.571030      1.328121      0.596237
  Li      3.897583     -0.654318      0.643165
  C       8.650112     -2.017844      2.304235
  C       8.947916     -1.935045      0.794958
  O       7.670935     -1.542286      0.217948
  C       6.766189     -1.413054      1.179525
  O       5.611169     -1.091468      0.969212
  O       7.240407     -1.667078      2.392029
  H       9.211044     -1.294849      2.899780
  H       8.770249     -3.020998      2.717971
  H       9.680449     -1.167929      0.536294
  H       9.232637     -2.892120      0.353391
21
Coordinates from ORCA-job EC_m1_shell2_cation_opt E -692.126725019658
  C      -1.232084     -0.706151     -0.200340
  C      -1.041568      0.822412     -0.223040
  O       0.387091      0.990235     -0.002118
  C       0.961071     -0.197651      0.136705
  O       2.153093     -0.342261      0.335527
  O       0.111394     -1.212501      0.038572
  H      -1.578721     -1.116407     -1.150904
  H      -1.869398     -1.053950      0.615033
  H      -1.286082      1.278022     -1.184585
  H      -1.566128      1.339119      0.583108
  Li      3.896087     -0.660732      0.644844
  C       8.649973     -2.024643      2.302869
  C       8.949979     -1.925423      0.795035
  O       7.672661     -1.530877      0.219725
  C       6.765435     -1.415522      1.181159
  O       5.609806     -1.095785      0.972259
  O       7.238617     -1.680701      2.392018
  H       9.207058     -1.305334      2.906442
  H       8.773951     -3.031435      2.706495
  H       9.680613     -1.153446      0.545669
  H       9.238457     -2.877112      0.344353
21
Coordinates from ORCA-job EC_m1_shell2_cation_opt E -692.126728565057
  C      -1.241069     -0.699819     -0.170755
  C      -1.033785      0.824379     -0.253694
  O       0.398163      0.984786     -0.047527
  C       0.959782     -0.203622      0.135340
  O       2.150772     -0.353921      0.334119
  O       0.097571     -1.212070      0.082369
  H      -1.596555     -1.142342     -1.103425
  H      -1.879033     -1.007894      0.659932
  H      -1.279369      1.244946     -1.230778
  H      -1.547537      1.377478      0.535084
  Li      3.891634     -0.680674      0.648977
  C       8.648257     -2.050831      2.297453
  C       8.957061     -1.890854      0.796722
  O       7.679390     -1.487677      0.227687
  C       6.763621     -1.421680      1.186436
  O       5.605758     -1.108590      0.981664
  O       7.231649     -1.729781      2.389697
  H       9.191480     -1.347185      2.931380
  H       8.783971     -3.070413      2.663417
  H       9.681323     -1.102554      0.582421
  H       9.258223     -2.821826      0.312306
21
Coordinates from ORCA-job EC_m1_shell2_cation_opt E -692.126721798111
  C      -1.262075     -0.678716     -0.088581
  C      -1.014990      0.821508     -0.336200
  O       0.424449      0.961782     -0.169823
  C       0.956764     -0.216502      0.132885
  O       2.145985     -0.379316      0.329516
  O       0.065492     -1.199761      0.201525
  H      -1.643921     -1.206744     -0.964663
  H      -1.896372     -0.877480      0.777496
  H      -1.267304      1.142760     -1.348595
  H      -1.499293      1.469209      0.397286
  Li      3.882725     -0.721984      0.655257
  C       8.641615     -2.123795      2.277827
  C       8.974627     -1.799031      0.809201
  O       7.697121     -1.372337      0.256696
  C       6.759654     -1.437671      1.195528
  O       5.597249     -1.138470      0.998440
  O       7.213303     -1.859897      2.370261
  H       9.148252     -1.472606      2.992951
  H       8.806055     -3.170951      2.539196
  H       9.680432     -0.974027      0.695066
  H       9.311539     -2.666112      0.237554
21
Coordinates from ORCA-job EC_m1_shell2_cation_opt E -692.126732163454
  C      -1.255508     -0.686101     -0.114463
  C      -1.020050      0.823471     -0.311323
  O       0.416969      0.969943     -0.131700
  C       0.957323     -0.212306      0.135665
  O       2.147388     -0.371533      0.332825
  O       0.075231     -1.204472      0.165786
  H      -1.627640     -1.189004     -1.009287
  H      -1.891881     -0.919442      0.741389
  H      -1.268530      1.176019     -1.314208
  H      -1.514011      1.443095      0.439771
  Li      3.884992     -0.709928      0.654899
  C       8.643716     -2.101076      2.284342
  C       8.968927     -1.827012      0.803723
  O       7.691035     -1.407812      0.246865
  C       6.760445     -1.434195      1.193230
  O       5.599089     -1.130223      0.994655
  O       7.218685     -1.820445      2.377580
  H       9.161034     -1.432017      2.974894
  H       8.799235     -3.140738      2.578923
  H       9.680109     -1.011741      0.657516
  H       9.294749     -2.714624      0.257742
21
Coordinates from ORCA-job EC_m1_shell2_cation_opt E -692.126735568230
  C      -1.247712     -0.693620     -0.140428
  C      -1.025850      0.823911     -0.284005
  O       0.408955      0.976951     -0.093690
  C       0.959096     -0.208039      0.134051
  O       2.150071     -0.362584      0.332510
  O       0.087246     -1.208187      0.127036
  H      -1.611188     -1.169729     -1.053266
  H      -1.883995     -0.963303      0.704732
  H      -1.273002      1.209301     -1.275084
  H      -1.528177      1.412975      0.485914
  Li      3.888229     -0.695246      0.651984
  C       8.644716     -2.078105      2.290711
  C       8.962352     -1.857321      0.799674
  O       7.684995     -1.443124      0.238194
  C       6.761992     -1.426076      1.190796
  O       5.601658     -1.118245      0.989328
  O       7.223624     -1.777754      2.383477
  H       9.173721     -1.392403      2.955589
  H       8.789244     -3.109041      2.619606
  H       9.680422     -1.054695      0.620758
  H       9.274909     -2.765808      0.280942
21
Coordinates from ORCA-job EC_m1_shell2_cation_opt E -692.126737170349
  C      -1.250813     -0.690342     -0.130277
  C      -1.022882      0.824133     -0.295106
  O       0.412884      0.973831     -0.109308
  C       0.958324     -0.210102      0.135252
  O       2.149012     -0.366991      0.333250
  O       0.082200     -1.206673      0.143318
  H      -1.617043     -1.177477     -1.036184
  H      -1.887651     -0.945551      0.718953
  H      -1.270266      1.196792     -1.290984
  H      -1.521460      1.425801      0.467472
  Li      3.886372     -0.703195      0.653825
  C       8.644522     -2.086840      2.288066
  C       8.964623     -1.844666      0.800859
  O       7.686761     -1.428502      0.241954
  C       6.760968     -1.430382      1.192149
  O       5.599892     -1.124558      0.992207
  O       7.221466     -1.796079      2.381156
  H       9.167929     -1.406825      2.963155
  H       8.794442     -3.121117      2.603785
  H       9.679668     -1.036648      0.634538
  H       9.282359     -2.744750      0.270743
21
Coordinates from ORCA-job EC_m1_shell2_cation_opt E -692.126738696638
  C      -1.255626     -0.684860     -0.112731
  C      -1.018131      0.823833     -0.313160
  O       0.419388      0.967917     -0.136605
  C       0.957484     -0.213478      0.135266
  O       2.147757     -0.373865      0.332781
  O       0.074520     -1.203505      0.170242
  H      -1.626952     -1.190456     -1.006381
  H      -1.892449     -0.916005      0.743365
  H      -1.267210      1.175267     -1.316293
  H      -1.509457      1.446195      0.437436
  Li      3.883611     -0.715601      0.655730
  C       8.643665     -2.101900      2.283514
  C       8.968159     -1.823900      0.803548
  O       7.689977     -1.402801      0.249056
  C       6.759671     -1.435541      1.194353
  O       5.597252     -1.133643      0.996374
  O       7.217552     -1.826401      2.376388
  H       9.157752     -1.432195      2.975884
  H       8.801893     -3.141448      2.577029
  H       9.678938     -1.008038      0.658691
  H       9.293514     -2.709717      0.254339
21
Coordinates from ORCA-job EC_m1_shell2_cation_opt E -692.126740859462
  C      -1.261206     -0.677506     -0.090703
  C      -1.012217      0.822782     -0.335256
  O       0.427548      0.959301     -0.171644
  C       0.956662     -0.217589      0.134657
  O       2.146534     -0.382191      0.331503
  O       0.065521     -1.198270      0.204288
  H      -1.638602     -1.205932     -0.968486
  H      -1.897713     -0.878789      0.773109
  H      -1.264626      1.147975     -1.346356
  H      -1.493445      1.470406      0.400393
  Li      3.880183     -0.731289      0.657331
  C       8.642385     -2.120527      2.277425
  C       8.972171     -1.798157      0.807712
  O       7.693876     -1.369722      0.259178
  C       6.758100     -1.441625      1.196756
  O       5.593916     -1.145007      1.000758
  O       7.212450     -1.864893      2.368802
  H       9.144043     -1.463857      2.991113
  H       8.811501     -3.165676      2.543567
  H       9.678156     -0.973873      0.689759
  H       9.306071     -2.665703      0.234918
21
Coordinates from ORCA-job EC_m1_shell2_cation_opt E -692.126745126729
  C      -1.272662     -0.658734     -0.034949
  C      -1.000252      0.815578     -0.388159
  O       0.444365      0.934712     -0.257579
  C       0.955651     -0.225417      0.130956
  O       2.144990     -0.397685      0.325174
  O       0.047704     -1.180228      0.286414
  H      -1.666608     -1.242070     -0.869688
  H      -1.904679     -0.786773      0.845910
  H      -1.264049      1.074463     -1.415323
  H      -1.456508      1.522449      0.307850
  Li      3.874548     -0.759567      0.656558
  C       8.637065     -2.168082      2.260671
  C       8.981811     -1.737528      0.822549
  O       7.704802     -1.288759      0.287561
  C       6.755526     -1.452332      1.199548
  O       5.588297     -1.166095      1.005530
  O       7.199537     -1.955391      2.343417
  H       9.109438     -1.549371      3.026458
  H       8.829223     -3.224329      2.458171
  H       9.677180     -0.897469      0.773358
  H       9.335928     -2.557515      0.194397
21
Coordinates from ORCA-job EC_m1_shell2_cation_opt E -692.125530931110
  C      -1.277249     -0.647106     -0.026654
  C      -0.983534      0.834050     -0.404828
  O       0.465745      0.935912     -0.294987
  C       0.955675     -0.230000      0.131615
  O       2.145372     -0.414385      0.327797
  O       0.035384     -1.178080      0.320486
  H      -1.660750     -1.251688     -0.862654
  H      -1.921840     -0.759885      0.860293
  H      -1.247799      1.088183     -1.441745
  H      -1.421827      1.565257      0.295384
  Li      3.862116     -0.810059      0.666093
  C       8.645594     -2.158008      2.254564
  C       8.982052     -1.704301      0.806679
  O       7.700578     -1.245782      0.289484
  C       6.751264     -1.461028      1.206744
  O       5.575086     -1.193464      1.022108
  O       7.197018     -1.992845      2.343152
  H       9.092539     -1.519766      3.030506
  H       8.866285     -3.218724      2.450325
  H       9.675633     -0.852903      0.758634
  H       9.331603     -2.521119      0.154671
21
Coordinates from ORCA-job EC_m1_shell2_cation_opt E -692.126732728233
  C      -1.277440     -0.639256     -0.028542
  C      -0.985570      0.828705     -0.401445
  O       0.464211      0.926054     -0.293960
  C       0.958433     -0.232942      0.126512
  O       2.145723     -0.417200      0.323380
  O       0.035905     -1.170261      0.315377
  H      -1.665278     -1.232364     -0.859504
  H      -1.918069     -0.747344      0.848730
  H      -1.257296      1.080928     -1.428178
  H      -1.419823      1.549159      0.295158
  Li      3.862400     -0.813142      0.663674
  C       8.650466     -2.154912      2.251060
  C       8.979076     -1.705365      0.813422
  O       7.695594     -1.249224      0.297417
  C       6.749175     -1.463356      1.206400
  O       5.575525     -1.196742      1.021610
  O       7.203132     -1.992707      2.335604
  H       9.097957     -1.520149      3.018886
  H       8.876462     -3.205183      2.443597
  H       9.671681     -0.862848      0.767443
  H       9.326682     -2.517594      0.171027
21
Coordinates from ORCA-job EC_m1_shell2_cation_opt E -692.126773316688
  C      -1.275982     -0.639350     -0.032791
  C      -0.985484      0.827140     -0.401472
  O       0.463145      0.924831     -0.290492
  C       0.957733     -0.230871      0.132771
  O       2.144766     -0.415018      0.329159
  O       0.035902     -1.167603      0.316461
  H      -1.660098     -1.230676     -0.866275
  H      -1.921441     -0.749613      0.840080
  H      -1.257521      1.081002     -1.427323
  H      -1.421247      1.545567      0.295504
  Li      3.861952     -0.811239      0.668432
  C       8.651856     -2.153084      2.249550
  C       8.976905     -1.707802      0.812169
  O       7.693207     -1.249300      0.300267
  C       6.749238     -1.461697      1.208864
  O       5.575783     -1.195230      1.025443
  O       7.206105     -1.992354      2.334990
  H       9.101068     -1.517088      3.014935
  H       8.880827     -3.201943      2.444121
  H       9.673220     -0.869037      0.762702
  H       9.319010     -2.522379      0.170572
21
Coordinates from ORCA-job EC_m1_shell2_cation_opt E -692.126783526071
  C      -1.276030     -0.638738     -0.033872
  C      -0.985402      0.828600     -0.397208
  O       0.463234      0.923452     -0.292036
  C       0.957953     -0.233493      0.125684
  O       2.144772     -0.417942      0.323224
  O       0.035227     -1.167999      0.312770
  H      -1.661486     -1.226842     -0.869215
  H      -1.922048     -0.752176      0.838369
  H      -1.262783      1.087830     -1.420371
  H      -1.416858      1.544935      0.304867
  Li      3.861827     -0.814486      0.664786
  C       8.651910     -2.149142      2.251436
  C       8.976850     -1.708908      0.812821
  O       7.693525     -1.250235      0.301287
  C       6.749275     -1.464658      1.207926
  O       5.575824     -1.198637      1.023958
  O       7.206573     -1.994083      2.334193
  H       9.098556     -1.508875      3.015012
  H       8.886141     -3.196075      2.450941
  H       9.675398     -0.872143      0.760055
  H       9.316488     -2.526128      0.173040
21
Coordinates from ORCA-job EC_m1_shell2_cation_opt E -692.126797413127
  C      -1.275396     -0.640196     -0.039391
  C      -0.985902      0.829803     -0.393844
  O       0.462282      0.924115     -0.289872
  C       0.956894     -0.232591      0.127882
  O       2.143794     -0.417207      0.325613
  O       0.034336     -1.167733      0.312126
  H      -1.655530     -1.224981     -0.879849
  H      -1.927281     -0.759943      0.827926
  H      -1.265876      1.095875     -1.414715
  H      -1.416409      1.542346      0.313130
  Li      3.861281     -0.814276      0.667356
  C       8.653300     -2.144665      2.252557
  C       8.975847     -1.713299      0.810454
  O       7.693232     -1.249873      0.302450
  C       6.749923     -1.464645      1.209475
  O       5.576108     -1.198951      1.026720
  O       7.208539     -1.995157      2.334843
  H       9.098723     -1.498053      3.011910
  H       8.893500     -3.189031      2.459629
  H       9.679924     -0.881546      0.750484
  H       9.307654     -2.535733      0.172783
21
Coordinates from ORCA-job EC_m1_shell2_cation_opt E -692.126840621285
  C      -1.273413     -0.645363     -0.062149
  C      -0.988673      0.835429     -0.377136
  O       0.459101      0.926925     -0.282685
  C       0.953539     -0.230707      0.132260
  O       2.140409     -0.416035      0.331333
  O       0.030960     -1.167997      0.307669
  H      -1.630905     -1.214153     -0.924169
  H      -1.947238     -0.791586      0.784657
  H      -1.280595      1.131456     -1.386651
  H      -1.413168      1.529244      0.352854
  Li      3.859305     -0.815150      0.674998
  C       8.659509     -2.124830      2.257936
  C       8.972044     -1.732599      0.801852
  O       7.693091     -1.248167      0.306155
  C       6.752204     -1.465772      1.214556
  O       5.577153     -1.201729      1.036211
  O       7.215255     -1.999968      2.337385
  H       9.096835     -1.448776      2.997250
  H       8.924268     -3.156653      2.497807
  H       9.697796     -0.922354      0.711815
  H       9.271469     -2.576958      0.175719
21
Coordinates from ORCA-job EC_m1_shell2_cation_opt E -692.126896891257
  C      -1.269059     -0.652454     -0.103695
  C      -0.993560      0.844376     -0.344850
  O       0.454503      0.931353     -0.270906
  C       0.948647     -0.228763      0.138117
  O       2.135050     -0.415544      0.339777
  O       0.025415     -1.169143      0.299041
  H      -1.583285     -1.189220     -1.003448
  H      -1.979260     -0.845088      0.703639
  H      -1.307146      1.194272     -1.330550
  H      -1.405250      1.499994      0.427875
  Li      3.856008     -0.818443      0.687329
  C       8.671028     -2.087516      2.266037
  C       8.963855     -1.768392      0.788498
  O       7.693074     -1.245538      0.312249
  C       6.755573     -1.469414      1.222912
  O       5.578676     -1.208461      1.052207
  O       7.226618     -2.009165      2.341631
  H       9.089473     -1.356697      2.964660
  H       8.979220     -3.092047      2.564390
  H       9.724913     -0.999410      0.644886
  H       9.204453     -2.650444      0.187869
21
Coordinates from ORCA-job EC_m1_shell2_cation_opt E -692.126965869688
  C      -1.266711     -0.654658     -0.125070
  C      -0.996070      0.847997     -0.327535
  O       0.453233      0.933221     -0.266477
  C       0.947030     -0.228613      0.140165
  O       2.132909     -0.416121      0.343287
  O       0.023078     -1.170182      0.295361
  H      -1.556061     -1.173730     -1.043573
  H      -1.993446     -0.869672      0.661381
  H      -1.320109      1.224938     -1.299619
  H      -1.399865      1.481096      0.468021
  Li      3.854465     -0.820703      0.693194
  C       8.677582     -2.068395      2.268774
  C       8.958871     -1.787055      0.783063
  O       7.692629     -1.244661      0.314419
  C       6.756586     -1.471277      1.227201
  O       5.578986     -1.212100      1.060172
  O       7.231450     -2.013140      2.344239
  H       9.083992     -1.308614      2.943607
  H       9.005073     -3.057533      2.595847
  H       9.735141     -1.039213      0.612999
  H       9.170182     -2.687327      0.198211
21
Coordinates from ORCA-job EC_m1_shell2_cation_opt E -692.127136373376
  C      -1.264274     -0.653869     -0.157893
  C      -0.999501      0.851993     -0.298860
  O       0.455496      0.934203     -0.265939
  C       0.947305     -0.231642      0.139643
  O       2.131383     -0.420673      0.345504
  O       0.020595     -1.172929      0.292917
  H      -1.506655     -1.143306     -1.104881
  H      -2.011373     -0.899457      0.597736
  H      -1.337332      1.270382     -1.247746
  H      -1.385583      1.442302      0.536216
  Li      3.851952     -0.827562      0.700389
  C       8.690625     -2.038928      2.270106
  C       8.949793     -1.815060      0.778109
  O       7.688469     -1.247094      0.313882
  C       6.754710     -1.476587      1.233424
  O       5.576801     -1.220337      1.071426
  O       7.234922     -2.015379      2.350514
  H       9.071881     -1.230802      2.900882
  H       9.036706     -3.004977      2.638701
  H       9.740916     -1.094102      0.569775
  H       9.122109     -2.741918      0.223765
21
Coordinates from ORCA-job EC_m1_shell2_cation_opt E -692.127156195768
  C      -1.262054     -0.653597     -0.167581
  C      -0.998916      0.852777     -0.289411
  O       0.455997      0.932363     -0.266507
  C       0.947511     -0.233581      0.136377
  O       2.131345     -0.422998      0.343823
  O       0.019867     -1.172576      0.290662
  H      -1.493141     -1.133612     -1.122217
  H      -2.016093     -0.909254      0.577707
  H      -1.344788      1.285172     -1.228985
  H      -1.376634      1.431145      0.557825
  Li      3.851295     -0.830232      0.701423
  C       8.692789     -2.028479      2.271002
  C       8.946023     -1.822792      0.776211
  O       7.685863     -1.250519      0.315529
  C       6.754099     -1.478430      1.236118
  O       5.575795     -1.223030      1.074854
  O       7.237481     -2.013514      2.352781
  H       9.069017     -1.209511      2.890710
  H       9.045608     -2.987222      2.651923
  H       9.741948     -1.111062      0.555225
  H       9.105934     -2.756789      0.230200
21
Coordinates from ORCA-job EC_m1_shell2_cation_opt E -692.127169432258
  C      -1.261830     -0.652545     -0.161988
  C      -0.996083      0.851484     -0.293257
  O       0.458749      0.928601     -0.271946
  C       0.949441     -0.235686      0.132873
  O       2.133479     -0.424891      0.340866
  O       0.021498     -1.171392      0.293453
  H      -1.497106     -1.137785     -1.112804
  H      -2.011932     -0.902625      0.589177
  H      -1.342216      1.279254     -1.234835
  H      -1.370537      1.434892      0.551892
  Li      3.851582     -0.830744      0.699350
  C       8.690848     -2.032899      2.270338
  C       8.945463     -1.816510      0.776786
  O       7.680821     -1.257820      0.313818
  C       6.751382     -1.478027      1.236576
  O       5.573110     -1.221954      1.073390
  O       7.235513     -2.003805      2.355303
  H       9.074352     -1.223774      2.897924
  H       9.031262     -2.999694      2.642206
  H       9.733644     -1.094234      0.562032
  H       9.117500     -2.745591      0.226515
21
Coordinates from ORCA-job EC_m1_shell2_cation_opt E -692.127180792325
  C      -1.259483     -0.653270     -0.170204
  C      -0.995641      0.852103     -0.287292
  O       0.459500      0.928553     -0.271599
  C       0.949438     -0.235527      0.135615
  O       2.133483     -0.425138      0.343963
  O       0.021075     -1.171336      0.294865
  H      -1.482822     -1.132081     -1.127342
  H      -2.016610     -0.911380      0.571108
  H      -1.346159      1.289821     -1.222643
  H      -1.366048      1.426469      0.566085
  Li      3.850842     -0.831356      0.702742
  C       8.692420     -2.025766      2.270528
  C       8.942052     -1.822706      0.774190
  O       7.677473     -1.262901      0.312284
  C       6.750111     -1.478744      1.238517
  O       5.571455     -1.222736      1.076861
  O       7.236836     -1.999181      2.358576
  H       9.075281     -1.209672      2.889619
  H       9.035550     -2.988338      2.650816
  H       9.732198     -1.105411      0.550132
  H       9.107994     -2.757145      0.230846
21
Coordinates from ORCA-job EC_m1_shell2_cation_opt E -692.127194251851
  C      -1.254028     -0.655194     -0.183465
  C      -0.994196      0.852105     -0.276907
  O       0.461476      0.928218     -0.272405
  C       0.950786     -0.235413      0.138993
  O       2.134839     -0.424937      0.348443
  O       0.021875     -1.171507      0.297880
  H      -1.456988     -1.122911     -1.150920
  H      -2.022924     -0.927160      0.540495
  H      -1.353630      1.306476     -1.200818
  H      -1.357395      1.410677      0.590389
  Li      3.850076     -0.830042      0.708333
  C       8.693333     -2.014891      2.270683
  C       8.934815     -1.833612      0.769473
  O       7.669441     -1.276397      0.306925
  C       6.746904     -1.475506      1.242419
  O       5.567616     -1.219766      1.082917
  O       7.237973     -1.982550      2.366614
  H       9.082349     -1.191721      2.876599
  H       9.035285     -2.973237      2.662723
  H       9.725956     -1.122104      0.530769
  H       9.095381     -2.776271      0.238528
21
Coordinates from ORCA-job EC_m1_shell2_cation_opt E -692.127198734800
  C      -1.252757     -0.654931     -0.184563
  C      -0.992932      0.852262     -0.275506
  O       0.462838      0.928199     -0.271739
  C       0.951677     -0.235657      0.140252
  O       2.135585     -0.425789      0.349470
  O       0.022311     -1.171743      0.298469
  H      -1.453774     -1.120961     -1.153279
  H      -2.023400     -0.928302      0.536970
  H      -1.353189      1.308477     -1.198174
  H      -1.355983      1.409213      0.592900
  Li      3.849799     -0.831425      0.708595
  C       8.692156     -2.012787      2.270899
  C       8.933591     -1.833947      0.768917
  O       7.666336     -1.283978      0.303400
  C       6.744806     -1.478181      1.241022
  O       5.565635     -1.221624      1.082302
  O       7.237368     -1.976399      2.368627
  H       9.084896     -1.190694      2.875789
  H       9.032449     -2.971541      2.663476
  H       9.721516     -1.119074      0.529462
  H       9.100016     -2.776862      0.240383
21
Coordinates from ORCA-job EC_m1_shell2_cation_opt E -692.127201755713
  C      -1.251229     -0.655450     -0.185398
  C      -0.992370      0.851591     -0.273840
  O       0.463398      0.928649     -0.270109
  C       0.953073     -0.235860      0.139430
  O       2.136765     -0.425538      0.349187
  O       0.023957     -1.172605      0.296660
  H      -1.452009     -1.119477     -1.155102
  H      -2.022182     -0.930546      0.535088
  H      -1.353208      1.309156     -1.195584
  H      -1.356179      1.406715      0.595336
  Li      3.850196     -0.830046      0.708679
  C       8.690658     -2.012061      2.271025
  C       8.932026     -1.835610      0.768495
  O       7.663880     -1.290203      0.300386
  C       6.743617     -1.475439      1.241008
  O       5.564556     -1.218952      1.082501
  O       7.236840     -1.967696      2.371125
  H       9.089648     -1.192451      2.875059
  H       9.027173     -2.972314      2.663278
  H       9.717984     -1.118757      0.528389
  H       9.102352     -2.778851      0.242056
21
Coordinates from ORCA-job EC_m1_shell2_cation_opt E -692.127202605185
  C      -1.250713     -0.655467     -0.187272
  C      -0.992397      0.851645     -0.272009
  O       0.463321      0.929149     -0.267657
  C       0.953324     -0.236063      0.139206
  O       2.136881     -0.425774      0.349325
  O       0.024376     -1.173287      0.294145
  H      -1.450803     -1.117220     -1.158175
  H      -2.021922     -0.932413      0.532206
  H      -1.353007      1.311224     -1.192824
  H      -1.356525      1.404563      0.598396
  Li      3.850166     -0.830255      0.709020
  C       8.690817     -2.010189      2.271174
  C       8.931356     -1.837308      0.768235
  O       7.662835     -1.293253      0.299478
  C       6.743238     -1.475628      1.241076
  O       5.564195     -1.219117      1.082989
  O       7.237299     -1.964667      2.372276
  H       9.090825     -1.189445      2.872955
  H       9.027233     -2.969752      2.665193
  H       9.716985     -1.120798      0.526060
  H       9.101459     -2.781687      0.243871
21
Coordinates from ORCA-job EC_m1_shell2_cation_opt E -692.127204437064
  C      -1.249310     -0.655884     -0.193929
  C      -0.993034      0.851964     -0.266439
  O       0.462563      0.931410     -0.258681
  C       0.953615     -0.236177      0.139575
  O       2.136872     -0.425895      0.350830
  O       0.025553     -1.175680      0.285595
  H      -1.447016     -1.110280     -1.168746
  H      -2.021343     -0.939176      0.522165
  H      -1.352163      1.317980     -1.184577
  H      -1.359304      1.397697      0.607532
  Li      3.850049     -0.830279      0.711018
  C       8.692087     -2.004304      2.271584
  C       8.929392     -1.843309      0.767033
  O       7.660115     -1.301549      0.297107
  C       6.742694     -1.475568      1.241979
  O       5.563562     -1.219056      1.085376
  O       7.239274     -1.956219      2.375923
  H       9.094686     -1.179272      2.865713
  H       9.028815     -2.961184      2.671815
  H       9.714920     -1.129240      0.517513
  H       9.096917     -2.791721      0.249283
21
Coordinates from ORCA-job EC_m1_shell2_cation_opt E -692.127206937176
  C      -1.246842     -0.656704     -0.206549
  C      -0.994373      0.852610     -0.256613
  O       0.461036      0.935656     -0.242036
  C       0.953772     -0.236117      0.141126
  O       2.136607     -0.425852      0.354436
  O       0.027555     -1.179936      0.270187
  H      -1.439735     -1.097667     -1.188451
  H      -2.020628     -0.951827      0.502834
  H      -1.350734      1.330499     -1.169701
  H      -1.365090      1.385026      0.623631
  Li      3.849727     -0.830088      0.715444
  C       8.695104     -1.993538      2.272110
  C       8.925725     -1.854409      0.764493
  O       7.655169     -1.316008      0.293237
  C       6.741989     -1.475375      1.244337
  O       5.562571     -1.218791      1.090493
  O       7.243243     -1.941599      2.382573
  H       9.101937     -1.160530      2.852082
  H       9.032668     -2.945165      2.684007
  H       9.711454     -1.145625      0.501050
  H       9.087788     -2.810304      0.258977
21
Coordinates from ORCA-job EC_m1_shell2_cation_opt E -692.127210192886
  C      -1.243123     -0.657759     -0.226370
  C      -0.996659      0.853501     -0.241873
  O       0.458355      0.942180     -0.215252
  C       0.953668     -0.235878      0.144192
  O       2.135934     -0.425623      0.360753
  O       0.030783     -1.186347      0.245583
  H      -1.429089     -1.077813     -1.218704
  H      -2.019283     -0.971201      0.472496
  H      -1.348316      1.349519     -1.147084
  H      -1.375424      1.365260      0.647128
  Li      3.849134     -0.829562      0.723030
  C       8.700573     -1.976967      2.272444
  C       8.919938     -1.871599      0.760443
  O       7.647366     -1.338183      0.287861
  C       6.741198     -1.475032      1.248790
  O       5.561258     -1.218187      1.099242
  O       7.249909     -1.919336      2.392742
  H       9.113708     -1.132075      2.830402
  H       9.039501     -2.920093      2.702397
  H       9.705990     -1.171708      0.475237
  H       9.073523     -2.838840      0.274212
21
Coordinates from ORCA-job EC_m1_shell2_cation_opt E -692.127212831415
  C      -1.241216     -0.658196     -0.238141
  C      -0.998111      0.854112     -0.233783
  O       0.456529      0.946078     -0.198432
  C       0.953238     -0.235744      0.146481
  O       2.135233     -0.425503      0.365090
  O       0.032699     -1.190176      0.230089
  H      -1.424143     -1.066065     -1.236112
  H      -2.018257     -0.982280      0.454905
  H      -1.346377      1.360417     -1.134619
  H      -1.382884      1.354050      0.659367
  Li      3.848641     -0.829225      0.728171
  C       8.704638     -1.967417      2.272275
  C       8.916510     -1.881466      0.757825
  O       7.642620     -1.351177      0.285128
  C       6.741006     -1.474991      1.252258
  O       5.560678     -1.217911      1.105243
  O       7.254371     -1.906663      2.398839
  H       9.121294     -1.115979      2.817539
  H       9.044308     -2.905415      2.712726
  H       9.702618     -1.187033      0.459756
  H       9.065549     -2.855159      0.283065
21
Coordinates from ORCA-job EC_m1_shell2_cation_opt E -692.127214948098
  C      -1.238626     -0.658406     -0.252945
  C      -0.999577      0.854720     -0.223769
  O       0.454469      0.950336     -0.178281
  C       0.952734     -0.235861      0.149372
  O       2.134361     -0.425656      0.370644
  O       0.035073     -1.194584      0.211407
  H      -1.417209     -1.051033     -1.257815
  H      -2.017280     -0.995803      0.431929
  H      -1.344503      1.374104     -1.118455
  H      -1.391540      1.339686      0.674546
  Li      3.847819     -0.828909      0.734959
  C       8.710023     -1.955420      2.271603
  C       8.911652     -1.893567      0.754350
  O       7.635851     -1.368371      0.281843
  C       6.740463     -1.475039      1.257311
  O       5.559659     -1.217589      1.113406
  O       7.260151     -1.889920      2.406740
  H       9.131576     -1.096557      2.801229
  H       9.050168     -2.887048      2.725016
  H       9.697348     -1.205759      0.440197
  H       9.056332     -2.875067      0.294378
21
Coordinates from ORCA-job EC_m1_shell2_cation_opt E -692.127215298772
  C      -1.238774     -0.658233     -0.253023
  C      -0.999455      0.854806     -0.223919
  O       0.454493      0.950272     -0.178247
  C       0.952611     -0.236064      0.149374
  O       2.134194     -0.425904      0.370770
  O       0.034863     -1.194654      0.211248
  H      -1.417531     -1.050895     -1.257852
  H      -2.017517     -0.995601      0.431767
  H      -1.344418      1.374213     -1.118586
  H      -1.391681      1.339880      0.674232
  Li      3.847615     -0.829089      0.735246
  C       8.710453     -1.955405      2.271431
  C       8.911489     -1.893371      0.754122
  O       7.635550     -1.368848      0.281891
  C       6.740427     -1.475273      1.257862
  O       5.559620     -1.217867      1.113973
  O       7.260487     -1.889649      2.407106
  H       9.132196     -1.096784      2.801270
  H       9.050441     -2.887111      2.724787
  H       9.696985     -1.205328      0.439917
  H       9.056898     -2.874838      0.294296
