31
Coordinates from ORCA-job SL_m1_shell2_reduced_opt_relaxed E -1419.029065399659
  O       1.884397      0.687201      1.740868
  S       1.206014      0.625536      0.432984
  O       1.866744      1.367103     -0.700056
  C       0.906917     -1.103151     -0.110827
  C      -0.583182     -1.321690      0.147097
  C      -1.296025     -0.005068     -0.206815
  C      -0.561535      1.111954      0.530542
  H       1.159785     -1.135244     -1.175341
  H       1.580292     -1.745447      0.462029
  H      -0.952870     -2.155975     -0.455287
  H      -0.751535     -1.572284      1.200795
  H      -1.259144      0.166769     -1.288800
  H      -2.348313     -0.025252      0.090014
  H      -0.654605      2.111473      0.101953
  H      -0.794775      1.144216      1.599603
  Li      3.099525      2.707685     -0.452092
  O       3.335280      3.757488      1.041951
  S       2.263146      3.978566      2.077342
  O       0.876383      3.707321      1.655267
  C       2.713770      3.094895      3.622506
  C       3.319764      4.179548      4.510395
  C       2.512322      5.466131      4.266244
  C       2.458365      5.674455      2.753605
  H       1.772116      2.696843      4.013622
  H       3.377986      2.271983      3.352295
  H       3.281436      3.873572      5.559554
  H       4.372422      4.338483      4.249199
  H       1.498634      5.360532      4.669616
  H       2.974073      6.330666      4.750851
  H       1.614854      6.267834      2.392253
  H       3.399622      6.058193      2.347411
31
Coordinates from ORCA-job SL_m1_shell2_reduced_opt_relaxed E -1419.029993549536
  O       1.744900      0.811321      1.816784
  S       1.176987      0.681830      0.458667
  O       1.904003      1.341376     -0.682638
  C       0.892293     -1.080877      0.010597
  C      -0.613812     -1.287683      0.171897
  C      -1.290924      0.004584     -0.310609
  C      -0.599255      1.160862      0.407883
  H       1.221466     -1.180782     -1.027668
  H       1.519721     -1.686846      0.668109
  H      -0.945579     -2.157737     -0.403178
  H      -0.859348     -1.471007      1.224853
  H      -1.173180      0.110247     -1.395418
  H      -2.362950      0.003654     -0.090500
  H      -0.657336      2.131982     -0.085299
  H      -0.907782      1.258105      1.454150
  Li      3.119430      2.711847     -0.473759
  O       3.304658      3.783705      1.018499
  S       2.258756      3.911231      2.093654
  O       0.867734      3.536013      1.764595
  C       2.849282      3.076183      3.624025
  C       3.419377      4.201501      4.485087
  C       2.504027      5.420247      4.290219
  C       2.350368      5.615653      2.781836
  H       1.962449      2.608315      4.064155
  H       3.557993      2.305612      3.318036
  H       3.464319      3.895165      5.534766
  H       4.439503      4.442000      4.163613
  H       1.525374      5.234473      4.748818
  H       2.923143      6.319035      4.753061
  H       1.444240      6.139266      2.468831
  H       3.232005      6.075059      2.325711
31
Coordinates from ORCA-job SL_m1_shell2_reduced_opt_relaxed E -1419.031886712790
  O       1.898438      0.562694      1.834088
  S       1.292316      0.611305      0.477552
  O       1.929307      1.339916     -0.670739
  C       0.907890     -1.105409     -0.098680
  C      -0.590386     -1.314931      0.131496
  C      -1.264367      0.025399     -0.184295
  C      -0.492310      1.092794      0.589093
  H       1.173159     -1.112314     -1.157789
  H       1.561770     -1.780152      0.456322
  H      -0.979982     -2.124089     -0.498219
  H      -0.776849     -1.585995      1.178991
  H      -1.208626      0.230712     -1.260112
  H      -2.322812      0.020204      0.101776
  H      -0.556351      2.104031      0.190156
  H      -0.738709      1.101541      1.657062
  Li      3.166072      2.722760     -0.526024
  O       3.290849      3.784339      1.000312
  S       2.198428      3.995184      2.008791
  O       0.760276      3.794416      1.690123
  C       2.635038      3.111677      3.576929
  C       3.299603      4.153291      4.476112
  C       2.530677      5.463112      4.268546
  C       2.441629      5.671228      2.755098
  H       1.689217      2.740195      3.987390
  H       3.263551      2.271942      3.284122
  H       3.281897      3.837999      5.526077
  H       4.347238      4.286507      4.180526
  H       1.523961      5.376443      4.697984
  H       3.029733      6.308816      4.757179
  H       1.606028      6.289152      2.422216
  H       3.375176      6.041568      2.326692
31
Coordinates from ORCA-job SL_m1_shell2_reduced_opt_relaxed E -1419.033140684077
  O       1.869079      0.561746      1.826352
  S       1.252461      0.602120      0.476664
  O       1.901076      1.344696     -0.659853
  C       0.909812     -1.113857     -0.118004
  C      -0.584116     -1.327322      0.112214
  C      -1.274706      0.010933     -0.202163
  C      -0.528275      1.087682      0.578974
  H       1.176376     -1.113592     -1.179335
  H       1.568910     -1.784614      0.437865
  H      -0.961822     -2.136866     -0.520125
  H      -0.768096     -1.606129      1.156984
  H      -1.218480      0.220557     -1.277140
  H      -2.332467     -0.006453      0.078674
  H      -0.602044      2.101476      0.182462
  H      -0.775540      1.088878      1.645135
  Li      3.149285      2.716916     -0.504759
  O       3.288580      3.769916      1.026959
  S       2.207544      3.992872      2.049302
  O       0.775318      3.784358      1.719065
  C       2.657642      3.111699      3.611258
  C       3.315520      4.173291      4.487622
  C       2.540612      5.482790      4.260798
  C       2.455544      5.684322      2.750079
  H       1.714359      2.741928      4.024944
  H       3.291501      2.270259      3.327220
  H       3.297321      3.871493      5.539493
  H       4.364214      4.303680      4.194391
  H       1.533520      5.401209      4.687689
  H       3.035475      6.334351      4.738127
  H       1.619434      6.298899      2.408458
  H       3.393825      6.047096      2.319431
31
Coordinates from ORCA-job SL_m1_shell2_reduced_opt_relaxed E -1419.033797740114
  O       1.825988      0.619146      1.859354
  S       1.241192      0.628197      0.495930
  O       1.916765      1.340397     -0.645939
  C       0.916098     -1.102229     -0.065442
  C      -0.582131     -1.303339      0.135735
  C      -1.262846      0.028520     -0.228869
  C      -0.539065      1.123693      0.545784
  H       1.208142     -1.130987     -1.120171
  H       1.559568     -1.759399      0.524205
  H      -0.946316     -2.127335     -0.484599
  H      -0.791402     -1.555850      1.182132
  H      -1.175821      0.210981     -1.306721
  H      -2.327659      0.019310      0.022050
  H      -0.603802      2.128482      0.124296
  H      -0.807926      1.148037      1.605911
  Li      3.162912      2.725832     -0.527926
  O       3.266531      3.779008      1.013109
  S       2.194973      3.967775      2.053987
  O       0.763654      3.726317      1.746801
  C       2.693154      3.084703      3.600172
  C       3.341360      4.159884      4.464950
  C       2.529663      5.452001      4.259327
  C       2.413111      5.663621      2.753695
  H       1.765272      2.692579      4.026597
  H       3.341400      2.258518      3.302297
  H       3.352735      3.853255      5.514959
  H       4.380462      4.317214      4.151607
  H       1.532840      5.342617      4.703088
  H       3.011653      6.312230      4.732753
  H       1.556065      6.259003      2.430002
  H       3.335292      6.052155      2.309704
31
Coordinates from ORCA-job SL_m1_shell2_reduced_opt_relaxed E -1419.034515331472
  O       1.748038      0.637313      1.914973
  S       1.220604      0.639129      0.529516
  O       1.947319      1.322293     -0.599788
  C       0.902294     -1.096319     -0.020436
  C      -0.604598     -1.272828      0.127086
  C      -1.253360      0.060831     -0.286019
  C      -0.553242      1.160796      0.502399
  H       1.235343     -1.147718     -1.061840
  H       1.512556     -1.750731      0.606134
  H      -0.956075     -2.102345     -0.493177
  H      -0.857869     -1.504534      1.168504
  H      -1.115187      0.223408     -1.361841
  H      -2.328403      0.067538     -0.083871
  H      -0.591958      2.159109      0.064144
  H      -0.858005      1.202872      1.551847
  Li      3.218014      2.711088     -0.548720
  O       3.231359      3.761443      1.016359
  S       2.183137      3.901336      2.089453
  O       0.757732      3.579435      1.839632
  C       2.784923      3.068461      3.627083
  C       3.404064      4.195334      4.444968
  C       2.512885      5.436142      4.253071
  C       2.329983      5.620210      2.751166
  H       1.894215      2.634807      4.090127
  H       3.466535      2.273743      3.320537
  H       3.476997      3.909068      5.498206
  H       4.418978      4.405994      4.086673
  H       1.541312      5.276197      4.735753
  H       2.962840      6.328783      4.696910
  H       1.429239      6.160607      2.451138
  H       3.212193      6.052874      2.268792
31
Coordinates from ORCA-job SL_m1_shell2_reduced_opt_relaxed E -1419.034777281696
  O       1.645817      0.804989      1.949373
  S       1.170200      0.719736      0.548557
  O       1.904254      1.383737     -0.586078
  C       0.958838     -1.052524      0.070306
  C      -0.542248     -1.297483      0.180086
  C      -1.240357     -0.020537     -0.320413
  C      -0.624383      1.151668      0.434195
  H       1.328811     -1.135629     -0.955964
  H       1.578210     -1.644602      0.747610
  H      -0.832832     -2.173056     -0.408110
  H      -0.819162     -1.489695      1.223629
  H      -1.071386      0.095727     -1.397890
  H      -2.321285     -0.059271     -0.155403
  H      -0.696286      2.122936     -0.056100
  H      -0.966316      1.231022      1.469953
  Li      3.154864      2.810137     -0.635082
  O       3.160304      3.804093      0.983151
  S       2.134849      3.970633      2.073089
  O       0.688789      3.751854      1.834049
  C       2.701015      3.044690      3.570020
  C       3.403013      4.100955      4.415629
  C       2.590555      5.401379      4.282515
  C       2.400326      5.652189      2.790452
  H       1.788815      2.653460      4.029435
  H       3.326153      2.219667      3.226067
  H       3.474040      3.773799      5.457348
  H       4.423742      4.259944      4.047321
  H       1.617490      5.284962      4.774759
  H       3.103066      6.246364      4.751769
  H       1.531419      6.257988      2.524156
  H       3.301548      6.045204      2.310348
31
Coordinates from ORCA-job SL_m1_shell2_reduced_opt_relaxed E -1419.035797188854
  O       1.723426      0.622879      1.955266
  S       1.213555      0.644500      0.564687
  O       1.944476      1.355787     -0.539121
  C       0.929543     -1.084230     -0.019762
  C      -0.577017     -1.288195      0.116824
  C      -1.242677      0.038755     -0.285876
  C      -0.566253      1.142152      0.520915
  H       1.268935     -1.112536     -1.058853
  H       1.545306     -1.737675      0.601960
  H      -0.913969     -2.115845     -0.515091
  H      -0.833358     -1.534513      1.154411
  H      -1.098057      0.216021     -1.358480
  H      -2.319979      0.024894     -0.093038
  H      -0.614499      2.142667      0.089956
  H      -0.881059      1.171827      1.568293
  Li      3.252005      2.750159     -0.624637
  O       3.160871      3.742290      1.010372
  S       2.132617      3.928688      2.090493
  O       0.692155      3.678092      1.852676
  C       2.711767      3.067301      3.619972
  C       3.392862      4.165233      4.430731
  C       2.557720      5.444224      4.251275
  C       2.367217      5.637837      2.749309
  H       1.805167      2.676041      4.091069
  H       3.353382      2.243186      3.306059
  H       3.467472      3.876740      5.484035
  H       4.411230      4.329740      4.058454
  H       1.585702      5.327431      4.745730
  H       3.054078      6.314113      4.692487
  H       1.487403      6.217076      2.461318
  H       3.261840      6.029698      2.257343
31
Coordinates from ORCA-job SL_m1_shell2_reduced_opt_relaxed E -1419.036091163372
  O       1.752816      0.593703      1.957697
  S       1.231394      0.632878      0.572964
  O       1.963669      1.357525     -0.515403
  C       0.926157     -1.083840     -0.031731
  C      -0.581815     -1.279096      0.110878
  C      -1.238212      0.058923     -0.268286
  C      -0.542894      1.144959      0.546889
  H       1.257571     -1.099961     -1.073752
  H       1.540250     -1.751843      0.576253
  H      -0.929562     -2.094740     -0.530648
  H      -0.832922     -1.538699      1.146485
  H      -1.101917      0.250675     -1.339413
  H      -2.313689      0.052664     -0.065132
  H      -0.582910      2.151102      0.127824
  H      -0.853930      1.165982      1.595808
  Li      3.291959      2.741919     -0.641971
  O       3.149255      3.721246      1.007577
  S       2.126071      3.917584      2.085003
  O       0.689852      3.658199      1.838401
  C       2.701992      3.067001      3.619622
  C       3.382689      4.167604      4.427679
  C       2.547123      5.445083      4.242492
  C       2.354150      5.628522      2.738658
  H       1.796084      2.677959      4.094342
  H       3.343565      2.241310      3.309646
  H       3.456516      3.883210      5.482110
  H       4.401086      4.329833      4.054596
  H       1.575448      5.331369      4.738354
  H       3.043448      6.317842      4.678022
  H       1.471771      6.203717      2.449642
  H       3.246848      6.021705      2.244169
31
Coordinates from ORCA-job SL_m1_shell2_reduced_opt_relaxed E -1419.036192816807
  O       1.707269      0.605893      1.962244
  S       1.199988      0.630709      0.573240
  O       1.939154      1.371943     -0.491752
  C       0.927522     -1.089413     -0.033933
  C      -0.578876     -1.311744      0.084498
  C      -1.251221      0.016133     -0.301416
  C      -0.580514      1.111457      0.522272
  H       1.273509     -1.098194     -1.071652
  H       1.543812     -1.749563      0.580587
  H      -0.902036     -2.131756     -0.564045
  H      -0.840347     -1.578805      1.115622
  H      -1.106560      0.212344     -1.370599
  H      -2.328391     -0.006246     -0.109292
  H      -0.628193      2.116652      0.101724
  H      -0.911986      1.129368      1.565038
  Li      3.273789      2.757477     -0.647492
  O       3.122922      3.716664      1.021136
  S       2.123034      3.941502      2.107471
  O       0.684387      3.699133      1.865724
  C       2.695740      3.091465      3.641122
  C       3.406163      4.180412      4.439150
  C       2.592378      5.472338      4.257583
  C       2.381931      5.649385      2.755089
  H       1.789775      2.721964      4.131324
  H       3.316991      2.251653      3.327734
  H       3.484914      3.897686      5.493473
  H       4.423359      4.321006      4.054204
  H       1.624991      5.380557      4.766196
  H       3.109950      6.338784      4.680505
  H       1.504649      6.237282      2.475585
  H       3.273759      6.028250      2.247438
31
Coordinates from ORCA-job SL_m1_shell2_reduced_opt_relaxed E -1419.036228544726
  O       1.725950      0.610395      1.961804
  S       1.213156      0.634659      0.574463
  O       1.949778      1.370058     -0.496529
  C       0.928839     -1.085684     -0.027842
  C      -0.578044     -1.297497      0.097340
  C      -1.244493      0.034241     -0.287597
  C      -0.564668      1.126372      0.532362
  H       1.270779     -1.098670     -1.066973
  H       1.543931     -1.748416      0.584992
  H      -0.908558     -2.116494     -0.548759
  H      -0.837088     -1.561533      1.129871
  H      -1.102784      0.227829     -1.357703
  H      -2.321018      0.018477     -0.091433
  H      -0.608536      2.131895      0.111641
  H      -0.890921      1.146382      1.576642
  Li      3.283045      2.754664     -0.650642
  O       3.129254      3.716557      1.014046
  S       2.122760      3.932369      2.096258
  O       0.686148      3.681205      1.849319
  C       2.693984      3.079887      3.629171
  C       3.396336      4.170314      4.431814
  C       2.575820      5.458742      4.251268
  C       2.368867      5.640475      2.749352
  H       1.788185      2.704800      4.115307
  H       3.320052      2.243470      3.315446
  H       3.473381      3.884892      5.485506
  H       4.413953      4.317884      4.050464
  H       1.607442      5.359753      4.756625
  H       3.087067      6.326813      4.678479
  H       1.489270      6.224175      2.468650
  H       3.259978      6.026322      2.245439
31
Coordinates from ORCA-job SL_m1_shell2_reduced_opt_relaxed E -1419.036232573662
  O       1.726626      0.612171      1.962700
  S       1.214157      0.635526      0.575024
  O       1.950678      1.369418     -0.496858
  C       0.928536     -1.085421     -0.025864
  C      -0.578497     -1.294941      0.098187
  C      -1.243312      0.037544     -0.287630
  C      -0.563200      1.128778      0.533082
  H       1.271560     -1.099464     -1.064692
  H       1.542697     -1.748587      0.587396
  H      -0.909093     -2.113803     -0.548044
  H      -0.838970     -1.558333      1.130519
  H      -1.100406      0.230408     -1.357715
  H      -2.320018      0.022898     -0.092531
  H      -0.605900      2.134669      0.113103
  H      -0.889934      1.148406      1.577150
  Li      3.283391      2.753373     -0.648632
  O       3.131244      3.716123      1.014345
  S       2.123376      3.929387      2.095571
  O       0.687287      3.674157      1.848460
  C       2.695729      3.078280      3.628696
  C       3.397127      4.170019      4.430189
  C       2.573803      5.456905      4.250020
  C       2.364804      5.638522      2.748621
  H       1.790724      2.702487      4.115685
  H       3.322241      2.242126      3.315090
  H       3.475511      3.884997      5.483853
  H       4.414103      4.319764      4.047980
  H       1.606215      5.355823      4.756493
  H       3.083568      6.326196      4.676506
  H       1.483579      6.220002      2.468498
  H       3.254235      6.026905      2.243577
31
Coordinates from ORCA-job SL_m1_shell2_reduced_opt_relaxed E -1419.036234400249
  O       1.723953      0.613842      1.964157
  S       1.212572      0.636094      0.575952
  O       1.948998      1.370197     -0.495526
  C       0.928826     -1.085457     -0.024744
  C      -0.578229     -1.295434      0.096625
  C      -1.243081      0.036864     -0.290030
  C      -0.565013      1.127894      0.532546
  H       1.273886     -1.099393     -1.062933
  H       1.542535     -1.748352      0.589243
  H      -0.907059     -2.114342     -0.550459
  H      -0.840642     -1.559133      1.128380
  H      -1.098395      0.229867     -1.359848
  H      -2.320117      0.021493     -0.096881
  H      -0.607771      2.134259      0.113699
  H      -0.893323      1.146173      1.576128
  Li      3.281246      2.753734     -0.646731
  O       3.131298      3.715603      1.015945
  S       2.123196      3.929050      2.096621
  O       0.687137      3.673013      1.849463
  C       2.695542      3.078764      3.629931
  C       3.399272      4.170388      4.429427
  C       2.576101      5.457549      4.249908
  C       2.364248      5.638772      2.748978
  H       1.790660      2.704877      4.118594
  H       3.320181      2.241147      3.316451
  H       3.479106      3.886011      5.483139
  H       4.415662      4.319615      4.045495
  H       1.609498      5.356929      4.758348
  H       3.086852      6.326979      4.674944
  H       1.482340      6.219761      2.470031
  H       3.252383      6.027576      2.241927
31
Coordinates from ORCA-job SL_m1_shell2_reduced_opt_relaxed E -1419.036236061497
  O       1.721146      0.614068      1.966206
  S       1.210565      0.636161      0.577651
  O       1.946511      1.371698     -0.492908
  C       0.929432     -1.085516     -0.024511
  C      -0.577670     -1.296727      0.093487
  C      -1.242878      0.035568     -0.292727
  C      -0.567419      1.125701      0.533082
  H       1.276866     -1.098252     -1.061939
  H       1.542716     -1.748427      0.589890
  H      -0.904337     -2.115072     -0.555437
  H      -0.842204     -1.561970      1.124310
  H      -1.096211      0.230043     -1.361995
  H      -2.320284      0.018841     -0.101805
  H      -0.610680      2.133029      0.116631
  H      -0.897424      1.141157      1.576175
  Li      3.278651      2.754318     -0.644402
  O       3.131060      3.714265      1.018398
  S       2.122435      3.929161      2.098109
  O       0.686357      3.673462      1.850338
  C       2.693848      3.079975      3.632019
  C       3.401586      4.171045      4.428643
  C       2.579938      5.459301      4.249584
  C       2.364596      5.639542      2.749060
  H       1.788587      2.709768      4.122812
  H       3.315322      2.239766      3.319178
  H       3.483045      3.887802      5.482531
  H       4.417381      4.318273      4.042408
  H       1.614481      5.360483      4.760571
  H       3.092895      6.328485      4.672514
  H       1.482169      6.220434      2.471559
  H       3.251381      6.027954      2.239346
31
Coordinates from ORCA-job SL_m1_shell2_reduced_opt_relaxed E -1419.036237945589
  O       1.717421      0.612663      1.969801
  S       1.207764      0.635666      0.580917
  O       1.942901      1.374168     -0.488014
  C       0.930380     -1.085568     -0.024807
  C      -0.576869     -1.298720      0.087727
  C      -1.242436      0.033991     -0.296551
  C      -0.570801      1.122022      0.535027
  H       1.281460     -1.095884     -1.061019
  H       1.542622     -1.748907      0.590159
  H      -0.900456     -2.115478     -0.564723
  H      -0.844564     -1.567331      1.116848
  H      -1.092669      0.231910     -1.364755
  H      -2.320420      0.015209     -0.109042
  H      -0.614949      2.131137      0.122982
  H      -0.903138      1.132279      1.577492
  Li      3.275376      2.754947     -0.640809
  O       3.130666      3.711428      1.022466
  S       2.120851      3.929051      2.100510
  O       0.684839      3.674078      1.851544
  C       2.690772      3.082016      3.635679
  C       3.404940      4.172428      4.427326
  C       2.585954      5.462472      4.248671
  C       2.364989      5.640522      2.748670
  H       1.784739      2.718005      4.129788
  H       3.307318      2.237645      3.324276
  H       3.489237      3.891314      5.481570
  H       4.419735      4.315964      4.037134
  H       1.622344      5.366937      4.763719
  H       3.102652      6.331207      4.667948
  H       1.481574      6.221033      2.473550
  H       3.249628      6.028132      2.234695
31
Coordinates from ORCA-job SL_m1_shell2_reduced_opt_relaxed E -1419.036239154315
  O       1.715769      0.610314      1.972489
  S       1.206229      0.634887      0.583650
  O       1.940454      1.376128     -0.484145
  C       0.931143     -1.085529     -0.025562
  C      -0.576293     -1.300038      0.082983
  C      -1.242001      0.033368     -0.298633
  C      -0.572758      1.119215      0.537639
  H       1.284727     -1.093742     -1.060914
  H       1.542291     -1.749523      0.589793
  H      -0.897999     -2.115004     -0.572625
  H      -0.846033     -1.571986      1.110697
  H      -1.090146      0.234835     -1.365874
  H      -2.320349      0.013217     -0.113372
  H      -0.617732      2.129824      0.129374
  H      -0.906318      1.125003      1.579786
  Li      3.273380      2.755245     -0.638152
  O       3.130881      3.708822      1.025558
  S       2.119585      3.928776      2.101987
  O       0.683764      3.674515      1.851599
  C       2.687972      3.083505      3.638460
  C       3.406833      4.173497      4.426325
  C       2.590149      5.464989      4.247607
  C       2.365189      5.641036      2.747851
  H       1.781114      2.724378      4.134715
  H       3.300998      2.236036      3.328554
  H       3.493245      3.894095      5.480859
  H       4.420929      4.313802      4.033149
  H       1.627791      5.372269      4.765489
  H       3.109808      6.333311      4.664072
  H       1.480905      6.221077      2.474528
  H       3.248335      6.028011      2.230891
31
Coordinates from ORCA-job SL_m1_shell2_reduced_opt_relaxed E -1419.036239749795
  O       1.715829      0.608753      1.973567
  S       1.205995      0.634459      0.584938
  O       1.939635      1.377102     -0.482511
  C       0.931529     -1.085356     -0.026039
  C      -0.576056     -1.300358      0.080910
  C      -1.241763      0.033539     -0.298877
  C      -0.573181      1.118221      0.539432
  H       1.286026     -1.092734     -1.061062
  H       1.541875     -1.749744      0.589690
  H      -0.897263     -2.114212     -0.576303
  H      -0.846401     -1.574186      1.107967
  H      -1.089188      0.237075     -1.365631
  H      -2.320228      0.012992     -0.114330
  H      -0.618635      2.129464      0.132794
  H      -0.906851      1.121974      1.581577
  Li      3.272830      2.755404     -0.637340
  O       3.131503      3.707409      1.026753
  S       2.119150      3.928427      2.102256
  O       0.683538      3.674488      1.850909
  C       2.686662      3.083914      3.639520
  C       3.407102      4.173882      4.425933
  C       2.591461      5.465952      4.246907
  C       2.365128      5.640962      2.747117
  H       1.779297      2.726688      4.136266
  H       3.298640      2.235385      3.330473
  H       3.494396      3.895187      5.480586
  H       4.420958      4.312661      4.031556
  H       1.629467      5.374529      4.765684
  H       3.112321      6.334087      4.662229
  H       1.480319      6.220573      2.474577
  H       3.247766      6.027800      2.229230
