31
Coordinates from ORCA-job SL_m1_shell2_oxidized_opt_relaxed E -1418.488732542766
  O           1.45201944306577      0.96648013894447      1.81933532419834
  S           1.01299623097560      0.78678307197425      0.37980148850915
  O           1.85739520268911      1.44566082499071     -0.65700305793330
  C           0.85748705009395     -1.04708797012014      0.09541714740386
  C          -0.64668239981233     -1.27586407845371      0.19453959125510
  C          -1.34380654111383     -0.08109674597242     -0.46761187680432
  C          -0.78072641335734      1.18841778836608      0.17304734278491
  H           1.26922252236175     -1.17884056759863     -0.91373265115014
  H           1.47392394266116     -1.56089239145133      0.83854291735102
  H          -0.88328893166955     -2.21865488650230     -0.31423983056627
  H          -0.95242076945807     -1.38293254893726      1.24090794173964
  H          -1.16756133750084     -0.07444502317876     -1.54882258169943
  H          -2.42691321598235     -0.10643285317973     -0.30740089713918
  H          -0.84289308908871      2.09979889945124     -0.42753895913969
  H          -1.14256880803148      1.36396181086624      1.19226789574781
  Li          3.24214866413043      2.74843907615594     -0.61552727715081
  O           3.31384711637995      3.65645467203447      1.05281678201126
  S           2.39002743426567      3.78708577487147      2.21534254988203
  O           0.96959249963736      3.30335999920917      2.00371071608133
  C           3.11602971482796      3.07763045245051      3.76109836065682
  C           3.56552179419351      4.32119393302370      4.52984939329341
  C           2.49544773529940      5.39983874161815      4.32085050629004
  C           2.27070940398872      5.54443828860987      2.81969877478372
  H           2.28481779087699      2.54455956509525      4.23598740861577
  H           3.90604685853655      2.38413350736498      3.46091427273130
  H           3.67491453879304      4.06129094109856      5.58807870673609
  H           4.54183293441044      4.66241949590881      4.16856170271555
  H           1.56097108261057      5.13344512114389      4.82632390993317
  H           2.81548725517122      6.37278577507780      4.71400439672090
  H           1.30032111650391      5.94518190326208      2.51324353481359
  H           3.08796417454137      6.04722328387657      2.28631446732829
