31
Coordinates from ORCA-job SL_m1_shell2_oxidized_opt_relaxed E -1418.476039161645
  O       1.884397      0.687201      1.740868
  S       1.206014      0.625536      0.432984
  O       1.866744      1.367103     -0.700056
  C       0.906917     -1.103151     -0.110827
  C      -0.583182     -1.321690      0.147097
  C      -1.296025     -0.005068     -0.206815
  C      -0.561535      1.111954      0.530542
  H       1.159785     -1.135244     -1.175341
  H       1.580292     -1.745447      0.462029
  H      -0.952870     -2.155975     -0.455287
  H      -0.751535     -1.572284      1.200795
  H      -1.259144      0.166769     -1.288800
  H      -2.348313     -0.025252      0.090014
  H      -0.654605      2.111473      0.101953
  H      -0.794775      1.144216      1.599603
  Li      3.099525      2.707685     -0.452092
  O       3.335280      3.757488      1.041951
  S       2.263146      3.978566      2.077342
  O       0.876383      3.707321      1.655267
  C       2.713770      3.094895      3.622506
  C       3.319764      4.179548      4.510395
  C       2.512322      5.466131      4.266244
  C       2.458365      5.674455      2.753605
  H       1.772116      2.696843      4.013622
  H       3.377986      2.271983      3.352295
  H       3.281436      3.873572      5.559554
  H       4.372422      4.338483      4.249199
  H       1.498634      5.360532      4.669616
  H       2.974073      6.330666      4.750851
  H       1.614854      6.267834      2.392253
  H       3.399622      6.058193      2.347411
31
Coordinates from ORCA-job SL_m1_shell2_oxidized_opt_relaxed E -1418.482446739769
  O       1.397353      0.938770      1.836067
  S       0.982909      0.691724      0.438044
  O       1.823713      1.323854     -0.638351
  C       0.828141     -1.113519      0.075165
  C      -0.681655     -1.350637      0.085878
  C      -1.339031     -0.120945     -0.559325
  C      -0.791670      1.111415      0.154301
  H       1.281361     -1.254229     -0.912804
  H       1.395783     -1.653745      0.838976
  H      -0.907873     -2.270132     -0.467000
  H      -1.040654     -1.484160      1.112751
  H      -1.104583     -0.077879     -1.629064
  H      -2.430663     -0.146560     -0.457470
  H      -0.824643      2.049314     -0.405599
  H      -1.210575      1.255452      1.157409
  Li      3.037703      2.689997     -0.376391
  O       3.275596      3.771845      1.104438
  S       2.326373      3.866857      2.268490
  O       0.961143      3.337902      2.059157
  C       3.125545      3.151520      3.770777
  C       3.637092      4.376756      4.523160
  C       2.587037      5.485927      4.357322
  C       2.300722      5.616028      2.861770
  H       2.322737      2.620713      4.296159
  H       3.885394      2.441863      3.434269
  H       3.788779      4.119684      5.578432
  H       4.603036      4.698739      4.117685
  H       1.670160      5.230015      4.900503
  H       2.945670      6.447995      4.742117
  H       1.325326      6.039104      2.602634
  H       3.101637      6.120668      2.309278
31
Coordinates from ORCA-job SL_m1_shell2_oxidized_opt_relaxed E -1418.482891375880
  O       1.303344      0.523233      1.851322
  S       0.886569      0.486118      0.416113
  O       1.692287      1.293067     -0.558361
  C       0.793058     -1.287946     -0.181205
  C      -0.713511     -1.544455     -0.186735
  C      -1.410340     -0.264423     -0.657994
  C      -0.927857      0.880460      0.225150
  H       1.256344     -1.251059     -1.177273
  H       1.383488     -1.914191      0.499446
  H      -0.894971     -2.389431     -0.871964
  H      -1.063825     -1.845523      0.806725
  H      -1.189067     -0.059467     -1.711088
  H      -2.504856     -0.332777     -0.548279
  H      -1.002474      1.890514     -0.192925
  H      -1.314111      0.849606      1.254875
  Li      2.926576      2.655423     -0.235877
  O       3.226964      3.746647      1.251576
  S       2.325093      4.040560      2.413330
  O       0.878291      3.693329      2.267953
  C       3.047667      3.318048      3.976018
  C       3.715262      4.531123      4.615241
  C       2.800903      5.739068      4.391015
  C       2.510530      5.841922      2.894268
  H       2.180620      2.934022      4.533722
  H       3.710974      2.498102      3.678829
  H       3.844694      4.315756      5.688348
  H       4.709413      4.699783      4.187440
  H       1.871104      5.637128      4.961558
  H       3.279316      6.686209      4.691852
  H       1.590948      6.372835      2.617544
  H       3.359429      6.170655      2.278152
31
Coordinates from ORCA-job SL_m1_shell2_oxidized_opt_relaxed E -1418.484752813791
  O       1.327110      0.684292      1.842873
  S       0.916639      0.571071      0.412596
  O       1.739056      1.314214     -0.597818
  C       0.799071     -1.230261     -0.080830
  C      -0.708087     -1.475489     -0.082089
  C      -1.385765     -0.219713     -0.635109
  C      -0.891083      0.966351      0.188573
  H       1.265173     -1.255184     -1.073297
  H       1.377667     -1.818349      0.637749
  H      -0.899349     -2.355861     -0.712103
  H      -1.066083     -1.708044      0.926467
  H      -1.151816     -0.078787     -1.695901
  H      -2.477889     -0.271942     -0.535741
  H      -0.952916      1.949563     -0.285791
  H      -1.287557      0.997070      1.210353
  Li      2.981734      2.672410     -0.305804
  O       3.257636      3.748345      1.194148
  S       2.340762      3.969583      2.360199
  O       0.917020      3.552685      2.198149
  C       3.089334      3.255216      3.910484
  C       3.697681      4.484452      4.582107
  C       2.719476      5.645123      4.386496
  C       2.428628      5.761769      2.892713
  H       2.241171      2.822558      4.453763
  H       3.790865      2.475595      3.600789
  H       3.842944      4.255306      5.645921
  H       4.678418      4.716105      4.153047
  H       1.794970      5.480240      4.950215
  H       3.144295      6.603881      4.716314
  H       1.484085      6.244738      2.625618
  H       3.258673      6.157398      2.294689
31
Coordinates from ORCA-job SL_m1_shell2_oxidized_opt_relaxed E -1418.481011020274
  O       1.452508      1.117770      1.792814
  S       1.024657      0.808446      0.400691
  O       1.863804      1.378980     -0.701352
  C       0.839777     -1.038511      0.184697
  C      -0.669154     -1.245611      0.223228
  C      -1.315816     -0.070410     -0.511015
  C      -0.771847      1.207464      0.131195
  H       1.294425     -1.219823     -0.793417
  H       1.406319     -1.522215      0.979815
  H      -0.894051     -2.200215     -0.262237
  H      -1.023787     -1.309397      1.256884
  H      -1.087098     -0.094863     -1.581915
  H      -2.402373     -0.080610     -0.405423
  H      -0.810314      2.107989     -0.482366
  H      -1.164206      1.397423      1.131337
  Li      3.138496      2.718413     -0.502784
  O       3.340854      3.744008      1.037606
  S       2.382214      3.776354      2.188460
  O       1.033775      3.191858      1.949803
  C       3.168842      3.072813      3.719219
  C       3.596631      4.321424      4.494899
  C       2.475974      5.350610      4.338594
  C       2.214593      5.517989      2.848593
  H       2.369493      2.507391      4.199924
  H       3.972762      2.414057      3.388911
  H       3.745284      4.048933      5.541487
  H       4.545512      4.709122      4.109315
  H       1.566391      5.030577      4.857285
  H       2.757807      6.324898      4.749440
  H       1.223873      5.881852      2.578622
  H       2.996519      6.067619      2.316470
31
Coordinates from ORCA-job SL_m1_shell2_oxidized_opt_relaxed E -1418.486165216321
  O       1.382162      0.814010      1.826034
  S       0.956082      0.649326      0.404094
  O       1.783274      1.339798     -0.637186
  C       0.810721     -1.172188      0.000671
  C      -0.695733     -1.405942      0.018352
  C      -1.365607     -0.172451     -0.590631
  C      -0.849389      1.043884      0.177665
  H       1.268836     -1.243512     -0.991905
  H       1.388689     -1.726592      0.742948
  H      -0.902124     -2.311849     -0.564590
  H      -1.047742     -1.584207      1.039704
  H      -1.137306     -0.082353     -1.658108
  H      -2.454641     -0.211953     -0.485576
  H      -0.906494      2.003483     -0.340433
  H      -1.240538      1.122069      1.196139
  Li      3.044745      2.691171     -0.386018
  O       3.290472      3.744786      1.136392
  S       2.358927      3.907961      2.298673
  O       0.950417      3.449512      2.107414
  C       3.106992      3.194415      3.846849
  C       3.661081      4.430008      4.557258
  C       2.638274      5.553326      4.373253
  C       2.363994      5.687312      2.880659
  H       2.266144      2.725141      4.365241
  H       3.840959      2.448946      3.533222
  H       3.803849      4.186332      5.614932
  H       4.635266      4.709697      4.142317
  H       1.713156      5.340858      4.919418
  H       3.017965      6.516848      4.734548
  H       1.404804      6.132896      2.609347
  H       3.184629      6.133605      2.308095
31
Coordinates from ORCA-job SL_m1_shell2_oxidized_opt_relaxed E -1418.486676937597
  O       1.428957      0.846747      1.812353
  S       0.980717      0.676565      0.396717
  O       1.794341      1.360854     -0.657494
  C       0.822974     -1.150647      0.011181
  C      -0.682998     -1.378223      0.057712
  C      -1.360001     -0.148394     -0.550393
  C      -0.828455      1.073500      0.198583
  H       1.264186     -1.227533     -0.988907
  H       1.413391     -1.699446      0.747809
  H      -0.901634     -2.288973     -0.513679
  H      -1.017315     -1.547313      1.086562
  H      -1.150219     -0.067321     -1.622362
  H      -2.447434     -0.183686     -0.426511
  H      -0.891809      2.028734     -0.326973
  H      -1.200498      1.160244      1.223607
  Li      3.077288      2.698874     -0.423677
  O       3.313634      3.731366      1.117572
  S       2.367554      3.887628      2.267465
  O       0.961672      3.427742      2.053083
  C       3.090965      3.166420      3.824997
  C       3.627203      4.400101      4.552313
  C       2.602491      5.519882      4.358919
  C       2.353092      5.664988      2.863793
  H       2.240790      2.692500      4.323801
  H       3.833283      2.425947      3.519098
  H       3.753780      4.149191      5.610564
  H       4.606926      4.686338      4.155344
  H       1.669060      5.301068      4.888230
  H       2.971858      6.482753      4.733377
  H       1.396310      6.106946      2.578291
  H       3.181757      6.117485      2.307402
31
Coordinates from ORCA-job SL_m1_shell2_oxidized_opt_relaxed E -1418.487544198142
  O       1.512433      0.948796      1.796875
  S       1.032564      0.749007      0.389152
  O       1.835710      1.395703     -0.692355
  C       0.847816     -1.094688      0.074680
  C      -0.658166     -1.299870      0.159941
  C      -1.335777     -0.083072     -0.474902
  C      -0.776765      1.157354      0.220656
  H       1.269306     -1.205116     -0.931882
  H       1.450428     -1.622542      0.817894
  H      -0.898502     -2.227879     -0.375585
  H      -0.972234     -1.432173      1.200687
  H      -1.148188     -0.039033     -1.553161
  H      -2.421380     -0.102047     -0.327554
  H      -0.842138      2.096158     -0.334586
  H      -1.121971      1.279525      1.252521
  Li      3.154873      2.719975     -0.517420
  O       3.346931      3.715990      1.063148
  S       2.381107      3.831173      2.197647
  O       0.982763      3.348916      1.944704
  C       3.080429      3.095687      3.760022
  C       3.564704      4.327256      4.525081
  C       2.514597      5.423565      4.328867
  C       2.296417      5.597652      2.833133
  H       2.225831      2.593345      4.224588
  H       3.849219      2.380132      3.458512
  H       3.673064      4.056822      5.581228
  H       4.545933      4.646817      4.158239
  H       1.574856      5.169605      4.830894
  H       2.848155      6.388460      4.733257
  H       1.333703      6.017142      2.530914
  H       3.126142      6.081677      2.303585
31
Coordinates from ORCA-job SL_m1_shell2_oxidized_opt_relaxed E -1418.487839431351
  O       1.479362      0.963855      1.799333
  S       1.015360      0.761547      0.380913
  O       1.832713      1.404620     -0.690248
  C       0.840745     -1.088611      0.085804
  C      -0.665413     -1.295198      0.159426
  C      -1.341476     -0.086166     -0.492595
  C      -0.792806      1.163391      0.193896
  H       1.273427     -1.204071     -0.916141
  H       1.439474     -1.607197      0.839389
  H      -0.897964     -2.229420     -0.369845
  H      -0.988757     -1.420045      1.198354
  H      -1.144679     -0.052238     -1.569613
  H      -2.428728     -0.106587     -0.354332
  H      -0.855946      2.096381     -0.372186
  H      -1.145898      1.295127      1.222657
  Li      3.173871      2.718918     -0.530045
  O       3.352700      3.700139      1.069227
  S       2.399205      3.809307      2.212942
  O       0.999305      3.306406      1.977208
  C       3.117788      3.097836      3.777074
  C       3.582657      4.344419      4.528623
  C       2.511260      5.420235      4.330901
  C       2.277561      5.579960      2.835886
  H       2.272494      2.585241      4.249045
  H       3.897705      2.392922      3.477553
  H       3.704046      4.084067      5.586379
  H       4.555620      4.678998      4.153090
  H       1.580142      5.154598      4.842987
  H       2.831067      6.395162      4.723653
  H       1.303680      5.976333      2.536271
  H       3.093351      6.074407      2.293172
31
Coordinates from ORCA-job SL_m1_shell2_oxidized_opt_relaxed E -1418.488235724351
  O       1.467542      0.963918      1.798063
  S       1.003776      0.772325      0.371648
  O       1.824941      1.424402     -0.690566
  C       0.844539     -1.077200      0.080436
  C      -0.659818     -1.296502      0.160845
  C      -1.349679     -0.092243     -0.488883
  C      -0.801662      1.164025      0.185509
  H       1.273420     -1.191656     -0.923750
  H       1.452327     -1.590217      0.831198
  H      -0.890536     -2.232699     -0.365290
  H      -0.977042     -1.421645      1.201792
  H      -1.160103     -0.062523     -1.567487
  H      -2.435802     -0.120434     -0.343693
  H      -0.871813      2.092639     -0.387501
  H      -1.154730      1.303388      1.213848
  Li      3.191802      2.725548     -0.550160
  O       3.357738      3.679971      1.074973
  S       2.409937      3.798745      2.221850
  O       1.000082      3.304263      1.988841
  C       3.121635      3.096210      3.787532
  C       3.581168      4.345305      4.537389
  C       2.512596      5.423772      4.327970
  C       2.280500      5.570354      2.830556
  H       2.274843      2.584503      4.259186
  H       3.903357      2.389247      3.496641
  H       3.699199      4.092002      5.597241
  H       4.556419      4.678206      4.165589
  H       1.580003      5.164346      4.840661
  H       2.835937      6.399915      4.714057
  H       1.305936      5.961346      2.524540
  H       3.095350      6.065024      2.285741
31
Coordinates from ORCA-job SL_m1_shell2_oxidized_opt_relaxed E -1418.488529142191
  O       1.480094      0.981632      1.794401
  S       1.006582      0.797123      0.362715
  O       1.825999      1.456995     -0.695205
  C       0.860730     -1.047710      0.085282
  C      -0.640590     -1.282190      0.189264
  C      -1.350542     -0.085977     -0.458592
  C      -0.792496      1.181354      0.187545
  H       1.273772     -1.171189     -0.924862
  H       1.485296     -1.551773      0.828793
  H      -0.876746     -2.222623     -0.325387
  H      -0.940823     -1.399722      1.236313
  H      -1.180232     -0.069592     -1.540895
  H      -2.433165     -0.120733     -0.293830
  H      -0.873133      2.100163     -0.400242
  H      -1.139907      1.340249      1.215492
  Li      3.223245      2.743907     -0.595375
  O       3.360916      3.655582      1.067074
  S       2.413506      3.784698      2.212203
  O       0.991354      3.309196      1.967930
  C       3.103670      3.076015      3.774432
  C       3.556544      4.318519      4.539499
  C       2.498276      5.407161      4.316745
  C       2.281779      5.549098      2.815164
  H       2.252643      2.561624      4.236818
  H       3.887418      2.367006      3.493346
  H       3.659034      4.064023      5.600301
  H       4.539123      4.649114      4.184347
  H       1.558647      5.153930      4.819573
  H       2.827829      6.378660      4.707244
  H       1.311297      5.941932      2.497512
  H       3.101741      6.047863      2.281171
31
Coordinates from ORCA-job SL_m1_shell2_oxidized_opt_relaxed E -1418.488602496819
  O       1.464876      0.969046      1.797693
  S       0.999928      0.789506      0.362011
  O       1.823822      1.456987     -0.687268
  C       0.857963     -1.049757      0.078895
  C      -0.643506     -1.288696      0.181410
  C      -1.353907     -0.092568     -0.466466
  C      -0.795907      1.175493      0.180128
  H       1.270626     -1.174578     -0.931128
  H       1.482142     -1.556140      0.821090
  H      -0.878233     -2.228164     -0.335035
  H      -0.944706     -1.407200      1.227996
  H      -1.183430     -0.076432     -1.548683
  H      -2.436204     -0.128221     -0.301215
  H      -0.874742      2.093222     -0.409515
  H      -1.148893      1.337301      1.205539
  Li      3.224114      2.743756     -0.593851
  O       3.353390      3.650571      1.073963
  S       2.412096      3.788224      2.222734
  O       0.988020      3.312182      1.987174
  C       3.108946      3.083257      3.780746
  C       3.564073      4.327690      4.542797
  C       2.505388      5.415968      4.319769
  C       2.285050      5.550942      2.817292
  H       2.263122      2.566500      4.249651
  H       3.892909      2.374934      3.498660
  H       3.667590      4.075847      5.603942
  H       4.545916      4.657779      4.185353
  H       1.567260      5.163895      4.825787
  H       2.837079      6.388063      4.706124
  H       1.314132      5.944599      2.502197
  H       3.102950      6.050329      2.280990
31
Coordinates from ORCA-job SL_m1_shell2_oxidized_opt_relaxed E -1418.488663337102
  O       1.467237      0.976548      1.799898
  S       1.006610      0.794057      0.363185
  O       1.833900      1.459960     -0.683378
  C       0.860952     -1.040683      0.087303
  C      -0.641163     -1.278671      0.195056
  C      -1.350450     -0.085352     -0.458992
  C      -0.786241      1.186002      0.178057
  H       1.269116     -1.175049     -0.923171
  H       1.485386     -1.546914      0.829234
  H      -0.878249     -2.220114     -0.315881
  H      -0.940029     -1.390152      1.242939
  H      -1.183673     -0.076944     -1.541739
  H      -2.431814     -0.117131     -0.289066
  H      -0.861853      2.098673     -0.419438
  H      -1.141028      1.358388      1.200694
  Li      3.236532      2.748035     -0.608405
  O       3.346692      3.646987      1.067013
  S       2.407910      3.784061      2.216963
  O       0.985016      3.303633      1.982975
  C       3.108945      3.076274      3.769602
  C       3.558575      4.319847      4.538404
  C       2.495477      5.404080      4.317320
  C       2.277637      5.540857      2.813887
  H       2.269475      2.550578      4.239059
  H       3.897355      2.374479      3.484149
  H       3.658984      4.064169      5.598578
  H       4.539692      4.655382      4.184560
  H       1.557600      5.145629      4.820367
  H       2.822269      6.376002      4.707180
  H       1.306623      5.934970      2.500133
  H       3.094379      6.046736      2.282292
31
Coordinates from ORCA-job SL_m1_shell2_oxidized_opt_relaxed E -1418.488692981587
  O       1.462050      0.977689      1.803265
  S       1.008842      0.792353      0.366359
  O       1.840361      1.455696     -0.677917
  C       0.860203     -1.040377      0.091977
  C      -0.642930     -1.276594      0.197577
  C      -1.348538     -0.084773     -0.461789
  C      -0.784232      1.187494      0.174547
  H       1.269035     -1.178444     -0.917531
  H       1.481508     -1.548102      0.835289
  H      -0.878491     -2.219211     -0.311572
  H      -0.943949     -1.384937      1.245046
  H      -1.179522     -0.078784     -1.544084
  H      -2.430126     -0.113874     -0.293621
  H      -0.855626      2.098293     -0.425940
  H      -1.142412      1.362884      1.195044
  Li      3.237367      2.749023     -0.610758
  O       3.338217      3.650275      1.063197
  S       2.402910      3.785879      2.215759
  O       0.982149      3.302266      1.987165
  C       3.111499      3.076230      3.765317
  C       3.560946      4.319627      4.535847
  C       2.494569      5.400841      4.319090
  C       2.275384      5.540524      2.815852
  H       2.276735      2.546277      4.237366
  H       3.901343      2.378561      3.474323
  H       3.662298      4.061111      5.595047
  H       4.540518      4.657579      4.180563
  H       1.557739      5.138332      4.821910
  H       2.817781      6.373212      4.710399
  H       1.304551      5.937428      2.505699
  H       3.091684      6.047860      2.285350
31
Coordinates from ORCA-job SL_m1_shell2_oxidized_opt_relaxed E -1418.488709712391
  O       1.462442      0.971437      1.807093
  S       1.012663      0.789188      0.370183
  O       1.848079      1.450382     -0.672111
  C       0.858168     -1.042411      0.092005
  C      -0.645882     -1.274430      0.196917
  C      -1.347436     -0.080722     -0.462358
  C      -0.780917      1.189524      0.176074
  H       1.266377     -1.179741     -0.917767
  H       1.477239     -1.554178      0.834275
  H      -0.882460     -2.216603     -0.312530
  H      -0.947408     -1.382510      1.244237
  H      -1.177361     -0.073807     -1.544447
  H      -2.429266     -0.106599     -0.295287
  H      -0.848200      2.100787     -0.424014
  H      -1.139332      1.364460      1.196362
  Li      3.241520      2.746336     -0.611240
  O       3.332649      3.651394      1.060169
  S       2.399965      3.784307      2.215074
  O       0.981389      3.296763      1.991600
  C       3.115473      3.077097      3.764335
  C       3.561944      4.322225      4.534131
  C       2.491455      5.399169      4.318731
  C       2.271485      5.539145      2.815681
  H       2.283978      2.543940      4.238063
  H       3.907495      2.383396      3.470086
  H       3.664999      4.063460      5.593040
  H       4.539765      4.663164      4.177092
  H       1.555572      5.132864      4.821376
  H       2.809721      6.373170      4.710018
  H       1.300388      5.936157      2.506847
  H       3.087360      6.046973      2.285145
31
Coordinates from ORCA-job SL_m1_shell2_oxidized_opt_relaxed E -1418.488722438025
  O       1.453483      0.976170      1.811720
  S       1.011474      0.790895      0.373919
  O       1.851435      1.449206     -0.666494
  C       0.859554     -1.042164      0.097537
  C      -0.644499     -1.275333      0.198982
  C      -1.345311     -0.084682     -0.465932
  C      -0.783709      1.188112      0.171001
  H       1.270300     -1.179318     -0.911218
  H       1.477084     -1.552628      0.841945
  H      -0.877605     -2.220022     -0.307542
  H      -0.948568     -1.380473      1.245907
  H      -1.171209     -0.080189     -1.547418
  H      -2.427851     -0.111426     -0.303111
  H      -0.849101      2.097483     -0.432104
  H      -1.145022      1.364882      1.189914
  Li      3.237920      2.751498     -0.615897
  O       3.321675      3.656603      1.054773
  S       2.393670      3.788431      2.213632
  O       0.973680      3.306600      1.995634
  C       3.113301      3.075805      3.760397
  C       3.563821      4.318045      4.532150
  C       2.495526      5.397804      4.321498
  C       2.274528      5.543450      2.819378
  H       2.281423      2.543363      4.234202
  H       3.903232      2.382005      3.460866
  H       3.668565      4.056054      5.590136
  H       4.541596      4.657496      4.173549
  H       1.559366      5.131996      4.824031
  H       2.814975      6.370479      4.715350
  H       1.305262      5.946538      2.512798
  H       3.092867      6.047656      2.289173
31
Coordinates from ORCA-job SL_m1_shell2_oxidized_opt_relaxed E -1418.488728377504
  O       1.459562      0.958214      1.816820
  S       1.016564      0.783907      0.378298
  O       1.860082      1.442858     -0.658972
  C       0.855074     -1.047834      0.090376
  C      -0.649755     -1.273485      0.193121
  C      -1.345535     -0.075781     -0.464447
  C      -0.777457      1.190900      0.177943
  H       1.263353     -1.179390     -0.920169
  H       1.471588     -1.565828      0.830443
  H      -0.888730     -2.214783     -0.317158
  H      -0.952548     -1.382211      1.240126
  H      -1.172426     -0.066617     -1.546115
  H      -2.428188     -0.098204     -0.301066
  H      -0.838499      2.103641     -0.420598
  H      -1.136022      1.364344      1.198527
  Li      3.247846      2.742994     -0.613007
  O       3.319770      3.652840      1.054908
  S       2.393815      3.782331      2.215788
  O       0.976060      3.292794      2.003348
  C       3.120900      3.079102      3.764330
  C       3.564151      4.326352      4.531436
  C       2.489564      5.399387      4.318390
  C       2.266992      5.539851      2.816301
  H       2.292006      2.543331      4.239862
  H       3.914585      2.389287      3.465502
  H       3.672201      4.068498      5.590212
  H       4.539498      4.670637      4.170646
  H       1.555176      5.129628      4.822248
  H       2.803210      6.375142      4.709579
  H       1.295801      5.937361      2.508387
  H       3.083227      6.045069      2.283721
31
Coordinates from ORCA-job SL_m1_shell2_oxidized_opt_relaxed E -1418.488731431942
  O       1.452506      0.966576      1.818368
  S       1.013287      0.787198      0.379054
  O       1.857612      1.445649     -0.658011
  C       0.857579     -1.046436      0.095159
  C      -0.646646     -1.275459      0.195322
  C      -1.344213     -0.081153     -0.466897
  C      -0.781042      1.188727      0.172998
  H       1.268511     -1.178611     -0.914265
  H       1.474286     -1.560482      0.837879
  H      -0.882839     -2.218716     -0.312756
  H      -0.951523     -1.382069      1.241984
  H      -1.168578     -0.074724     -1.548209
  H      -2.427246     -0.106310     -0.306115
  H      -0.843273      2.099748     -0.428099
  H      -1.142179      1.364369      1.192411
  Li      3.242440      2.748719     -0.616197
  O       3.314629      3.656270      1.052682
  S       2.390532      3.786764      2.215000
  O       0.970275      3.303461      2.003186
  C       3.116320      3.077377      3.761243
  C       3.564977      4.321078      4.530447
  C       2.494719      5.399265      4.320748
  C       2.271227      5.544021      2.819363
  H       2.285167      2.544019      4.235824
  H       3.906833      2.384602      3.460735
  H       3.673536      4.060861      5.588665
  H       4.541396      4.662446      4.169632
  H       1.559797      5.132391      4.825177
  H       2.813385      6.372581      4.714098
  H       1.301279      5.945520      2.512555
  H       3.089113      6.046654      2.286798
31
Coordinates from ORCA-job SL_m1_shell2_oxidized_opt_relaxed E -1418.488732542766
  O       1.452019      0.966480      1.819335
  S       1.012996      0.786783      0.379801
  O       1.857395      1.445661     -0.657003
  C       0.857487     -1.047088      0.095417
  C      -0.646682     -1.275864      0.194540
  C      -1.343807     -0.081097     -0.467612
  C      -0.780726      1.188418      0.173047
  H       1.269223     -1.178841     -0.913733
  H       1.473924     -1.560892      0.838543
  H      -0.883289     -2.218655     -0.314240
  H      -0.952421     -1.382933      1.240908
  H      -1.167561     -0.074445     -1.548823
  H      -2.426913     -0.106433     -0.307401
  H      -0.842893      2.099799     -0.427539
  H      -1.142569      1.363962      1.192268
  Li      3.242149      2.748439     -0.615527
  O       3.313847      3.656455      1.052817
  S       2.390027      3.787086      2.215343
  O       0.969592      3.303360      2.003711
  C       3.116030      3.077630      3.761098
  C       3.565522      4.321194      4.529849
  C       2.495448      5.399839      4.320851
  C       2.270709      5.544438      2.819699
  H       2.284818      2.544560      4.235987
  H       3.906047      2.384134      3.460914
  H       3.674915      4.061291      5.588079
  H       4.541833      4.662419      4.168562
  H       1.560971      5.133445      4.826324
  H       2.815487      6.372786      4.714004
  H       1.300321      5.945182      2.513244
  H       3.087964      6.047223      2.286314
