31
Coordinates from ORCA-job SL_m1_shell2_reduced_opt_relaxed E -1419.036239749795
  O           1.71582903348869      0.60875288273251      1.97356739256933
  S           1.20599483947029      0.63445911875697      0.58493833539856
  O           1.93963514838133      1.37710235537127     -0.48251085234440
  C           0.93152856003162     -1.08535561491989     -0.02603934016220
  C          -0.57605622631441     -1.30035779975439      0.08091019598387
  C          -1.24176306597687      0.03353934641920     -0.29887721587862
  C          -0.57318137337563      1.11822143786220      0.53943155929677
  H           1.28602560957745     -1.09273363140030     -1.06106243319653
  H           1.54187515642265     -1.74974418228496      0.58969017452777
  H          -0.89726321500555     -2.11421182341361     -0.57630288027516
  H          -0.84640115785833     -1.57418574836544      1.10796728492877
  H          -1.08918791307782      0.23707461584506     -1.36563077495287
  H          -2.32022762483235      0.01299216193273     -0.11432975889852
  H          -0.61863450735804      2.12946350418276      0.13279378330867
  H          -0.90685109990267      1.12197378829465      1.58157656786955
  Li          3.27282987258270      2.75540395115007     -0.63733993761106
  O           3.13150251477074      3.70740888670787      1.02675332402606
  S           2.11915047853960      3.92842661093969      2.10225621666080
  O           0.68353783113164      3.67448784201633      1.85090909413028
  C           2.68666153773398      3.08391410010668      3.63951984184658
  C           3.40710245016974      4.17388154683495      4.42593262822352
  C           2.59146092806839      5.46595152751003      4.24690656677214
  C           2.36512844030846      5.64096158040420      2.74711656896408
  H           1.77929725257643      2.72668795987463      4.13626649545628
  H           3.29864042288590      2.23538501607400      3.33047325804656
  H           3.49439643034695      3.89518702972596      5.48058604877581
  H           4.42095828981366      4.31266094825677      4.03155582263972
  H           1.62946729811374      5.37452918637464      4.76568357087796
  H           3.11232139815114      6.33408680194016      4.66222892777114
  H           1.48031936701809      6.22057267289818      2.47457714322224
  H           3.24776632411844      6.02779992792703      2.22923039202285
