11
Coordinates from ORCA-job DOL_cation_opt E -267.947581421422
  C       0.541923      0.944299     -0.067675
  C       0.945785     -0.487514      0.240994
  O      -0.156397     -1.228933     -0.288467
  C      -1.306223     -0.401072     -0.152093
  O      -0.867857      0.914167      0.170268
  H       0.983776      1.689449      0.599733
  H       0.760970      1.203545     -1.115669
  H       1.046522     -0.648452      1.326086
  H       1.854729     -0.817815     -0.269592
  H      -1.847173     -0.422074     -1.111073
  H      -1.956057     -0.745599      0.667489
11
Coordinates from ORCA-job DOL_cation_opt E -267.952112057588
  C       0.549347      0.949955     -0.064831
  C       0.955616     -0.487495      0.241060
  O      -0.173206     -1.232897     -0.254455
  C      -1.289619     -0.395986     -0.150216
  O      -0.877112      0.910582      0.132953
  H       0.972395      1.700082      0.608369
  H       0.752643      1.232678     -1.111420
  H       1.057143     -0.677588      1.322816
  H       1.852004     -0.832442     -0.280879
  H      -1.841651     -0.431317     -1.115344
  H      -1.957562     -0.735572      0.671948
11
Coordinates from ORCA-job DOL_cation_opt E -267.954629232626
  C       0.562500      0.954819     -0.060798
  C       0.970181     -0.483533      0.241349
  O      -0.196988     -1.235022     -0.205167
  C      -1.268536     -0.389568     -0.147854
  O      -0.887596      0.902460      0.079672
  H       0.953615      1.708263      0.625840
  H       0.755659      1.266740     -1.098918
  H       1.081326     -0.704061      1.314178
  H       1.843681     -0.848388     -0.302784
  H      -1.844629     -0.450105     -1.109340
  H      -1.969215     -0.721604      0.663821
11
Coordinates from ORCA-job DOL_cation_opt E -267.954960844651
  C       0.567168      0.956182     -0.059307
  C       0.975104     -0.482025      0.240670
  O      -0.201278     -1.240064     -0.186609
  C      -1.268009     -0.389458     -0.147756
  O      -0.889619      0.905419      0.060324
  H       0.943985      1.705696      0.639542
  H       0.772613      1.277390     -1.091213
  H       1.101922     -0.703033      1.310662
  H       1.837785     -0.850519     -0.318059
  H      -1.854720     -0.466030     -1.104486
  H      -1.984953     -0.713558      0.656233
11
Coordinates from ORCA-job DOL_cation_opt E -267.955177886815
  C       0.571786      0.957513     -0.058435
  C       0.979745     -0.480773      0.239983
  O      -0.205708     -1.245882     -0.161829
  C      -1.268064     -0.389525     -0.147688
  O      -0.890532      0.909268      0.034667
  H       0.927008      1.698733      0.660665
  H       0.800117      1.290925     -1.080158
  H       1.132946     -0.698030      1.305911
  H       1.825999     -0.852609     -0.341610
  H      -1.867215     -0.489967     -1.096025
  H      -2.006084     -0.699652      0.644520
11
Coordinates from ORCA-job DOL_cation_opt E -267.955205935333
  C       0.571880      0.958054     -0.058487
  C       0.979937     -0.481367      0.239602
  O      -0.207248     -1.246702     -0.153910
  C      -1.267858     -0.389460     -0.147643
  O      -0.890313      0.909563      0.026308
  H       0.919948      1.695546      0.668070
  H       0.809162      1.295495     -1.076467
  H       1.143231     -0.696258      1.304192
  H       1.820792     -0.853481     -0.349796
  H      -1.868501     -0.498258     -1.094157
  H      -2.011032     -0.693132      0.642290
11
Coordinates from ORCA-job DOL_cation_opt E -267.955223055844
  C       0.570925      0.958864     -0.058416
  C       0.979328     -0.482802      0.238862
  O      -0.208809     -1.247167     -0.146239
  C      -1.268014     -0.389478     -0.147658
  O      -0.890089      0.909571      0.018021
  H       0.913070      1.692349      0.675133
  H       0.817223      1.300288     -1.072679
  H       1.152906     -0.695098      1.302182
  H       1.815668     -0.854411     -0.357459
  H      -1.867714     -0.506530     -1.093866
  H      -2.014496     -0.685585      0.642121
11
Coordinates from ORCA-job DOL_cation_opt E -267.955228806413
  C       0.570052      0.959416     -0.058087
  C       0.978795     -0.483834      0.238198
  O      -0.209746     -1.247472     -0.142111
  C      -1.268524     -0.389600     -0.147739
  O      -0.890213      0.909613      0.013465
  H       0.910166      1.691029      0.678334
  H       0.820463      1.303026     -1.070573
  H       1.157375     -0.695225      1.300881
  H       1.813484     -0.854908     -0.360877
  H      -1.866335     -0.510570     -1.094719
  H      -2.015518     -0.681473      0.643228
11
Coordinates from ORCA-job DOL_cation_opt E -267.955231741484
  C       0.569437      0.959815     -0.057594
  C       0.978481     -0.484524      0.237565
  O      -0.210603     -1.247919     -0.138623
  C      -1.269229     -0.389782     -0.147859
  O      -0.890543      0.909796      0.009622
  H       0.908418      1.690354      0.680455
  H       0.822421      1.305293     -1.068826
  H       1.160515     -0.695817      1.299729
  H       1.812144     -0.855316     -0.363191
  H      -1.865046     -0.513337     -1.095763
  H      -2.015996     -0.678562      0.644487
11
Coordinates from ORCA-job DOL_cation_opt E -267.955232654519
  C       0.569317      0.959924     -0.057269
  C       0.978480     -0.484658      0.237269
  O      -0.211111     -1.248304     -0.136621
  C      -1.269699     -0.389910     -0.147945
  O      -0.890803      0.909996      0.007458
  H       0.907569      1.690162      0.681438
  H       0.823385      1.306485     -1.067871
  H       1.162112     -0.696237      1.299115
  H       1.811484     -0.855577     -0.364364
  H      -1.864522     -0.514507     -1.096268
  H      -2.016213     -0.677372      0.645059
