11
Coordinates from ORCA-job DOL_cation_opt E -267.955232654519
  C           0.56931716363421      0.95992409069165     -0.05726879713645
  C           0.97847970701750     -0.48465789398871      0.23726878071371
  O          -0.21111149743702     -1.24830394461373     -0.13662070531108
  C          -1.26969944642578     -0.38991045381771     -0.14794512037310
  O          -0.89080263607866      0.90999603002528      0.00745771426374
  H           0.90756926618741      1.69016216071611      0.68143788668070
  H           0.82338497148216      1.30648507756903     -1.06787078652665
  H           1.16211227779261     -0.69623748201755      1.29911452950231
  H           1.81148382729636     -0.85557744938626     -0.36436354953500
  H          -1.86452246094734     -0.51450682964401     -1.09626775266228
  H          -2.01621317252145     -0.67737230553411      0.64505880038410
