15
EMC_G2_cation
C     -2.2787300000     0.5283460000     0.5321470000
C     -1.5220770000    -0.7784020000     0.6458080000
O     -0.1152610000    -0.5481590000     0.9279530000
C      0.6373600000    -0.2471970000    -0.1391830000
O      0.2697230000    -0.1887650000    -1.2902630000
O      1.8876930000    -0.0269090000     0.2981260000
C      2.8267290000     0.3016000000    -0.7449840000
H     -1.9281140000     1.1041830000    -0.3283080000
H     -3.3457670000     0.3230460000     0.3955480000
H     -2.1562020000     1.1268470000     1.4396900000
H     -1.8658400000    -1.3692540000     1.4989660000
H     -1.6077410000    -1.3734870000    -0.2687670000
H      2.9009790000    -0.5177150000    -1.4654630000
H      2.5183520000     1.2127460000    -1.2652290000
H      3.7788960000     0.4531200000    -0.2360420000
