15
Coordinates from ORCA-job EMC_optfreq E -382.859041171182
  C          -2.27873019622937      0.52834631507263      0.53214701594178
  C          -1.52207654696103     -0.77840207630952      0.64580826174452
  O          -0.11526143884110     -0.54815897014229      0.92795251986983
  C           0.63736036672629     -0.24719656647127     -0.13918345664042
  O           0.26972277316072     -0.18876457302900     -1.29026273177662
  O           1.88769340745201     -0.02690907607938      0.29812593247378
  C           2.82672878468853      0.30159958874746     -0.74498389356249
  H          -1.92811377553367      1.10418254205206     -0.32830783761683
  H          -3.34576718676808      0.32304627758182      0.39554802751477
  H          -2.15620178086121      1.12684657502068      1.43969029782947
  H          -1.86583983920291     -1.36925386557542      1.49896637512824
  H          -1.60774103545709     -1.37348714697377     -0.26876662217787
  H           2.90097857014603     -0.51771515865305     -1.46546311815595
  H           2.51835202150937      1.21274591300847     -1.26522910891730
  H           3.77889585617152      0.45312020175053     -0.23604166165490
