15
Coordinates from ORCA-job EMC_optfreq E -382.857926166781
  C      -2.295011      0.527875      0.543211
  C      -1.508848     -0.770918      0.642061
  O      -0.123641     -0.527855      0.905730
  C       0.635622     -0.235481     -0.146661
  O       0.276990     -0.190628     -1.289389
  O       1.881442     -0.010724      0.278583
  C       2.828783      0.291902     -0.737117
  H      -1.953084      1.105128     -0.312311
  H      -3.350833      0.305160      0.418014
  H      -2.159851      1.117971      1.446411
  H      -1.847705     -1.374003      1.486418
  H      -1.600226     -1.342289     -0.287264
  H       2.916029     -0.540122     -1.438628
  H       2.528899      1.186371     -1.286595
  H       3.771435      0.457613     -0.222463
15
Coordinates from ORCA-job EMC_optfreq E -382.858834647746
  C      -2.289307      0.529398      0.540768
  C      -1.517832     -0.775669      0.645408
  O      -0.120594     -0.540375      0.912083
  C       0.637376     -0.251313     -0.150224
  O       0.273252     -0.193041     -1.301115
  O       1.883624     -0.022183      0.286241
  C       2.831673      0.298628     -0.738597
  H      -1.943339      1.104641     -0.321886
  H      -3.354561      0.315245      0.414533
  H      -2.153439      1.126498      1.447073
  H      -1.860646     -1.371048      1.495724
  H      -1.616480     -1.358651     -0.276646
  H       2.925416     -0.527097     -1.450902
  H       2.527494      1.199821     -1.280073
  H       3.777361      0.465147     -0.222387
15
Coordinates from ORCA-job EMC_optfreq E -382.858870829916
  C      -2.296159      0.522879      0.540069
  C      -1.516536     -0.774000      0.643919
  O      -0.116331     -0.522605      0.923782
  C       0.635193     -0.213878     -0.141885
  O       0.273697     -0.178732     -1.298551
  O       1.888112     -0.011501      0.296359
  C       2.836430      0.290367     -0.744166
  H      -1.953719      1.107928     -0.319233
  H      -3.361061      0.299816      0.405397
  H      -2.176903      1.119057      1.451306
  H      -1.854674     -1.375897      1.492025
  H      -1.601260     -1.360794     -0.276713
  H       2.906320     -0.537524     -1.456869
  H       2.546913      1.199197     -1.281163
  H       3.789980      0.435688     -0.234278
15
Coordinates from ORCA-job EMC_optfreq E -382.859019953338
  C      -2.277855      0.529128      0.533131
  C      -1.521301     -0.778649      0.645548
  O      -0.115393     -0.547674      0.929159
  C       0.637857     -0.251326     -0.139677
  O       0.269168     -0.190637     -1.292469
  O       1.887298     -0.028728      0.300170
  C       2.825300      0.301855     -0.743967
  H      -1.926127      1.104941     -0.327756
  H      -3.345524      0.323510      0.396685
  H      -2.153924      1.127914      1.441077
  H      -1.868203     -1.370698      1.496795
  H      -1.609991     -1.371430     -0.270333
  H       2.905932     -0.517853     -1.463797
  H       2.515343      1.210265     -1.268597
  H       3.777418      0.459381     -0.235970
15
Coordinates from ORCA-job EMC_optfreq E -382.859037412588
  C      -2.280573      0.528588      0.533890
  C      -1.521264     -0.777784      0.645320
  O      -0.115934     -0.545629      0.927009
  C       0.637812     -0.247597     -0.140179
  O       0.270656     -0.190029     -1.291840
  O       1.887674     -0.026431      0.297827
  C       2.827332      0.300792     -0.744247
  H      -1.930613      1.105116     -0.326485
  H      -3.347342      0.321405      0.398291
  H      -2.156785      1.126598      1.441653
  H      -1.865870     -1.370609      1.496827
  H      -1.608693     -1.370107     -0.270941
  H       2.905678     -0.520004     -1.462804
  H       2.519029      1.209408     -1.269144
  H       3.778894      0.456282     -0.235177
15
Coordinates from ORCA-job EMC_optfreq E -382.859040507583
  C      -2.279768      0.528374      0.532995
  C      -1.521674     -0.778014      0.645490
  O      -0.115561     -0.546600      0.927624
  C       0.637562     -0.246771     -0.139508
  O       0.270259     -0.189186     -1.290781
  O       1.887804     -0.026526      0.298018
  C       2.827127      0.301049     -0.744762
  H      -1.929628      1.104741     -0.327326
  H      -3.346617      0.322035      0.396791
  H      -2.156910      1.126560      1.440697
  H      -1.865643     -1.370026      1.497784
  H      -1.607739     -1.371771     -0.269924
  H       2.902924     -0.519125     -1.464168
  H       2.518819      1.211031     -1.267139
  H       3.779045      0.454229     -0.235791
15
Coordinates from ORCA-job EMC_optfreq E -382.859041171182
  C      -2.278730      0.528346      0.532147
  C      -1.522077     -0.778402      0.645808
  O      -0.115261     -0.548159      0.927953
  C       0.637360     -0.247197     -0.139183
  O       0.269723     -0.188765     -1.290263
  O       1.887693     -0.026909      0.298126
  C       2.826729      0.301600     -0.744984
  H      -1.928114      1.104183     -0.328308
  H      -3.345767      0.323046      0.395548
  H      -2.156202      1.126847      1.439690
  H      -1.865840     -1.369254      1.498966
  H      -1.607741     -1.373487     -0.268767
  H       2.900979     -0.517715     -1.465463
  H       2.518352      1.212746     -1.265229
  H       3.778896      0.453120     -0.236042
