11
 energy: -17.692873840030 gnorm: 0.000614732424 xtb: 6.7.1pre (5071a88)
C            0.59175950372753        1.10936614479817       -0.02209227302365
C            0.79825042388396       -0.42645495318223        0.18535798101222
O           -0.15519723631516       -1.11736144015448       -0.56850031317149
C           -1.44266893261907       -0.68132234152628       -0.24045057295650
O           -0.65688133559026        1.46962445610865        0.18702826879877
H            1.33801403947444        1.60490615302530        0.67461661736651
H            0.96701729870870        1.33427358414519       -1.06655607298055
H            0.66937030557018       -0.65307970174280        1.25856079420861
H            1.79182765267566       -0.76338588827215       -0.14132957952568
H           -2.14077986284792       -0.92429706938746       -1.03176625427566
H           -1.76071185666805       -0.95226894381189        0.76513140454744
