11
 energy: -17.086991336834 gnorm: 0.000437188727 xtb: 6.7.1pre (5071a88)
C            0.53743655525982        0.96665592149086       -0.03322894635467
C            0.96170000599044       -0.50628145253837        0.20778075085880
O           -0.24689557624867       -1.23111899842021        0.10656643490513
C           -1.27514388587724       -0.39158694767247       -0.14847035483385
O           -0.85893706186909        0.89153098759405       -0.23532466513447
H            0.73089757197573        1.63129278447358        0.81827716519978
H            0.99262714209086        1.42162065953434       -0.92215811445460
H            1.39362479494474       -0.68882126852928        1.19999832800812
H            1.66493809753852       -0.89555043670293       -0.53931445686799
H           -1.81988619081002       -0.69910368625865       -1.08124974860950
H           -2.08036145299512       -0.49863756297092        0.62712360728327
