10
Coordinates from ORCA-job DMSO_optfreq E -553.138035291836
  C          -1.33978562673143      0.20909257911800     -0.28277375784179
  S          -0.14966128458264     -0.51398373901864      0.92700832045572
  C           1.33472710277114     -0.33671982482877     -0.15395976424464
  O           0.00657128073268      0.50971431909542      2.03464001440360
  H          -1.01327309734899      1.22358644689705     -0.52928145674824
  H          -1.39415190938981     -0.41929701234584     -1.17720810848241
  H          -2.31289822969342      0.23996548380967      0.21280925277382
  H           2.19227666697466     -0.67773125389207      0.43068859839224
  H           1.22218204637408     -0.95432457193505     -1.05041030323969
  H           1.45401304089374      0.71969757310024     -0.41151279546860
