10
DMSO_G2_anion
C     -1.3397860000     0.2090930000    -0.2827740000
S     -0.1496610000    -0.5139840000     0.9270080000
C      1.3347270000    -0.3367200000    -0.1539600000
O      0.0065710000     0.5097140000     2.0346400000
H     -1.0132730000     1.2235860000    -0.5292810000
H     -1.3941520000    -0.4192970000    -1.1772080000
H     -2.3128980000     0.2399650000     0.2128090000
H      2.1922770000    -0.6777310000     0.4306890000
H      1.2221820000    -0.9543250000    -1.0504100000
H      1.4540130000     0.7196980000    -0.4115130000
