10
Coordinates from ORCA-job DMSO_optfreq E -553.134578897180
  C      -1.333745      0.215167     -0.276666
  S      -0.151480     -0.519932      0.942716
  C       1.331156     -0.328298     -0.148192
  O       0.000195      0.474429      2.002854
  H      -1.009544      1.216530     -0.537117
  H      -1.374240     -0.423428     -1.151328
  H      -2.308625      0.258848      0.198160
  H       2.197227     -0.660051      0.415385
  H       1.199524     -0.948305     -1.027248
  H       1.449532      0.715041     -0.418564
10
Coordinates from ORCA-job DMSO_optfreq E -553.137311502503
  C      -1.338257      0.213219     -0.281327
  S      -0.148981     -0.508314      0.939443
  C       1.335093     -0.331679     -0.152267
  O       0.000291      0.483275      2.038951
  H      -1.012742      1.224142     -0.540694
  H      -1.384432     -0.427735     -1.166928
  H      -2.315910      0.251819      0.204243
  H       2.200639     -0.669778      0.421856
  H       1.208405     -0.955968     -1.041849
  H       1.455895      0.721018     -0.421429
10
Coordinates from ORCA-job DMSO_optfreq E -553.137950601840
  C      -1.336054      0.210584     -0.283201
  S      -0.149228     -0.510024      0.936413
  C       1.332149     -0.333497     -0.154505
  O       0.002792      0.497044      2.049006
  H      -1.009381      1.224471     -0.537621
  H      -1.384625     -0.425947     -1.173337
  H      -2.312960      0.244681      0.206428
  H       2.194922     -0.674631      0.423822
  H       1.209998     -0.955126     -1.048078
  H       1.452388      0.722445     -0.418927
10
Coordinates from ORCA-job DMSO_optfreq E -553.138023211760
  C      -1.337758      0.209956     -0.283203
  S      -0.149477     -0.512255      0.931497
  C       1.333383     -0.334930     -0.154457
  O       0.004654      0.504278      2.044509
  H      -1.011575      1.223958     -0.533990
  H      -1.388585     -0.422682     -1.175145
  H      -2.312895      0.241785      0.209024
  H       2.193470     -0.676756      0.426560
  H       1.215222     -0.954307     -1.049263
  H       1.453561      0.720952     -0.415531
10
Coordinates from ORCA-job DMSO_optfreq E -553.138032604424
  C      -1.338928      0.209634     -0.282919
  S      -0.149632     -0.513580      0.928685
  C       1.334246     -0.335777     -0.154123
  O       0.005688      0.507479      2.039369
  H      -1.012738      1.223732     -0.531580
  H      -1.391396     -0.420871     -1.175987
  H      -2.312949      0.240744      0.210950
  H       2.192891     -0.677423      0.428619
  H       1.218706     -0.954134     -1.049681
  H       1.454113      0.720195     -0.413333
10
Coordinates from ORCA-job DMSO_optfreq E -553.138034658395
  C      -1.339538      0.209351     -0.282782
  S      -0.149671     -0.513997      0.927396
  C       1.334637     -0.336335     -0.153963
  O       0.006255      0.508959      2.036183
  H      -1.013184      1.223638     -0.530134
  H      -1.393164     -0.419877     -1.176648
  H      -2.312945      0.240261      0.212166
  H       2.192537     -0.677653      0.429949
  H       1.220889     -0.954206     -1.050052
  H       1.454184      0.719859     -0.412115
10
Coordinates from ORCA-job DMSO_optfreq E -553.138035291836
  C      -1.339786      0.209093     -0.282774
  S      -0.149661     -0.513984      0.927008
  C       1.334727     -0.336720     -0.153960
  O       0.006571      0.509714      2.034640
  H      -1.013273      1.223586     -0.529281
  H      -1.394152     -0.419297     -1.177208
  H      -2.312898      0.239965      0.212809
  H       2.192277     -0.677731      0.430689
  H       1.222182     -0.954325     -1.050410
  H       1.454013      0.719698     -0.411513
