31
Coordinates from ORCA-job SL_m1_shell2_cation_opt E -1418.912472200537
  O       2.020887      0.955822      1.486464
  S       1.182696      0.758989      0.327321
  O       1.714381      1.467463     -0.830983
  C       0.970564     -0.997478     -0.093443
  C      -0.496696     -1.238521      0.212088
  C      -1.255412      0.052215     -0.121770
  C      -0.554140      1.182847      0.603824
  H       1.200454     -1.095815     -1.150137
  H       1.652090     -1.594263      0.502180
  H      -0.888174     -2.073348     -0.368454
  H      -0.624810     -1.472484      1.270194
  H      -1.220437      0.230568     -1.197482
  H      -2.299374     -0.029081      0.179254
  H      -0.740562      2.171975      0.204139
  H      -0.726008      1.169538      1.675921
  Li      2.732017      2.594225      0.013927
  O       3.505413      3.665975      1.130994
  S       2.389325      3.879276      2.045401
  O       1.129743      3.560691      1.416892
  C       2.657842      3.009444      3.609430
  C       3.245048      4.110342      4.469696
  C       2.450100      5.388383      4.174939
  C       2.449062      5.586906      2.670195
  H       1.689259      2.667246      3.960567
  H       3.313912      2.166263      3.431941
  H       3.189863      3.860943      5.528798
  H       4.292948      4.261346      4.206439
  H       1.427019      5.273019      4.536672
  H       2.895320      6.242294      4.684759
  H       1.594507      6.138828      2.294956
  H       3.375024      6.020733      2.304057
31
Coordinates from ORCA-job SL_m1_shell2_cation_opt E -1418.924787677399
  O       2.039951      0.909478      1.481555
  S       1.185125      0.731522      0.306510
  O       1.702159      1.480035     -0.859406
  C       0.950515     -1.022424     -0.147404
  C      -0.521505     -1.294433      0.170633
  C      -1.295902      0.000278     -0.129775
  C      -0.566701      1.126085      0.601027
  H       1.170899     -1.093709     -1.216314
  H       1.656918     -1.624762      0.427069
  H      -0.907344     -2.127640     -0.422163
  H      -0.634773     -1.554879      1.229196
  H      -1.292566      0.196041     -1.208601
  H      -2.335521     -0.078789      0.198102
  H      -0.758500      2.129703      0.219589
  H      -0.721453      1.099635      1.683762
  Li      2.742429      2.595202      0.005127
  O       3.538406      3.657743      1.139208
  S       2.399721      3.909316      2.049162
  O       1.118294      3.606588      1.410365
  C       2.648646      3.059874      3.639950
  C       3.251277      4.152783      4.520806
  C       2.482638      5.447451      4.207432
  C       2.495865      5.618956      2.687066
  H       1.662011      2.734694      3.982665
  H       3.290002      2.194772      3.467216
  H       3.175213      3.897823      5.580898
  H       4.313078      4.280705      4.279122
  H       1.450302      5.361152      4.565396
  H       2.940995      6.305913      4.704886
  H       1.651988      6.185145      2.288134
  H       3.439696      6.030080      2.317568
31
Coordinates from ORCA-job SL_m1_shell2_cation_opt E -1418.931025821709
  O       2.049056      0.846900      1.473990
  S       1.177637      0.693626      0.281699
  O       1.675467      1.489867     -0.889790
  C       0.925812     -1.054898     -0.212306
  C      -0.540821     -1.350896      0.122956
  C      -1.330862     -0.053036     -0.134298
  C      -0.585155      1.061632      0.603052
  H       1.130538     -1.091732     -1.288644
  H       1.657558     -1.659288      0.332362
  H      -0.917235     -2.177618     -0.485745
  H      -0.632736     -1.644295      1.175817
  H      -1.363104      0.166767     -1.208810
  H      -2.361310     -0.129830      0.223616
  H      -0.780218      2.077753      0.249406
  H      -0.715439      1.012443      1.690891
  Li      2.751589      2.594773     -0.001111
  O       3.576847      3.648666      1.161789
  S       2.414792      3.947232      2.064887
  O       1.109147      3.663909      1.418529
  C       2.636548      3.115261      3.679934
  C       3.252862      4.198440      4.568271
  C       2.518190      5.510474      4.232513
  C       2.550936      5.660035      2.706859
  H       1.634250      2.816401      4.009862
  H       3.255089      2.229337      3.512651
  H       3.150193      3.938070      5.625497
  H       4.324349      4.295031      4.352216
  H       1.479448      5.460117      4.580832
  H       2.990997      6.371546      4.712641
  H       1.725963      6.238754      2.280354
  H       3.511474      6.038901      2.338861
31
Coordinates from ORCA-job SL_m1_shell2_cation_opt E -1418.932984170075
  O       2.041330      0.801818      1.465137
  S       1.165169      0.665954      0.264547
  O       1.648829      1.491626     -0.904858
  C       0.910887     -1.077139     -0.258239
  C      -0.548044     -1.383562      0.091859
  C      -1.348480     -0.086987     -0.135612
  C      -0.600586      1.021838      0.604395
  H       1.102077     -1.089295     -1.337429
  H       1.657636     -1.682677      0.263919
  H      -0.919987     -2.204360     -0.527489
  H      -0.625132     -1.697029      1.139627
  H      -1.404857      0.146492     -1.205711
  H      -2.371592     -0.168101      0.241988
  H      -0.797786      2.043193      0.267752
  H      -0.713976      0.957930      1.693169
  Li      2.754782      2.593032     -0.001511
  O       3.599126      3.643287      1.186842
  S       2.427807      3.972890      2.083079
  O       1.110162      3.702456      1.438079
  C       2.630129      3.148846      3.708977
  C       3.251594      4.228596      4.594628
  C       2.540997      5.549085      4.242157
  C       2.589156      5.689288      2.717736
  H       1.619813      2.867533      4.029135
  H       3.234666      2.252578      3.546444
  H       3.128580      3.969455      5.650042
  H       4.327523      4.306075      4.396389
  H       1.499497      5.521305      4.583223
  H       3.023461      6.409782      4.713173
  H       1.779276      6.275763      2.273877
  H       3.559803      6.044665      2.353453
31
Coordinates from ORCA-job SL_m1_shell2_cation_opt E -1418.934610231654
  O       2.020114      0.751132      1.450606
  S       1.145233      0.633724      0.244147
  O       1.614490      1.486296     -0.917767
  C       0.895122     -1.102383     -0.310066
  C      -0.554601     -1.418657      0.057406
  C      -1.366903     -0.126414     -0.140567
  C      -0.621462      0.979028      0.601440
  H       1.070216     -1.088253     -1.391241
  H       1.656003     -1.709585      0.187626
  H      -0.924586     -2.233239     -0.571290
  H      -0.616189     -1.749773      1.100178
  H      -1.447365      0.118378     -1.205988
  H      -2.382284     -0.218574      0.255169
  H      -0.821846      2.003685      0.279116
  H      -0.719125      0.901830      1.690174
  Li      2.756532      2.590608     -0.000389
  O       3.619515      3.641830      1.221249
  S       2.444968      4.001700      2.109234
  O       1.118605      3.744303      1.471583
  C       2.627768      3.185363      3.743520
  C       3.252937      4.264570      4.622912
  C       2.566990      5.591181      4.251286
  C       2.632262      5.722799      2.729260
  H       1.610687      2.921106      4.054092
  H       3.220124      2.280618      3.587266
  H       3.108685      4.012840      5.677472
  H       4.332389      4.324612      4.442255
  H       1.523191      5.584791      4.584734
  H       3.058900      6.449885      4.716216
  H       1.838734      6.317376      2.268935
  H       3.612759      6.053559      2.370212
31
Coordinates from ORCA-job SL_m1_shell2_cation_opt E -1418.935979788513
  O       1.987954      0.701028      1.430249
  S       1.119986      0.600163      0.221556
  O       1.577879      1.472156     -0.928168
  C       0.878974     -1.128267     -0.361942
  C      -0.562474     -1.455842      0.021492
  C      -1.387510     -0.169839     -0.152136
  C      -0.646629      0.935314      0.591511
  H       1.038133     -1.090883     -1.444338
  H       1.650868     -1.737919      0.113746
  H      -0.933541     -2.265565     -0.612913
  H      -0.609700     -1.799436      1.060633
  H      -1.487415      0.082982     -1.213666
  H      -2.396250     -0.278604      0.256350
  H      -0.852146      1.960996      0.277726
  H      -0.734067      0.848924      1.679762
  Li      2.757563      2.588406      0.000515
  O       3.635416      3.646971      1.260361
  S       2.464866      4.030926      2.140544
  O       1.134593      3.784531      1.514808
  C       2.632286      3.223703      3.781152
  C       3.260027      4.305286      4.653500
  C       2.594868      5.635345      4.262332
  C       2.675691      5.756624      2.741831
  H       1.610733      2.972497      4.085287
  H       3.217202      2.313413      3.633022
  H       3.098495      4.067246      5.708719
  H       4.341869      4.351817      4.486363
  H       1.549079      5.646197      4.588565
  H       3.094219      6.491137      4.724917
  H       1.896530      6.358717      2.268647
  H       3.664362      6.066312      2.388355
31
Coordinates from ORCA-job SL_m1_shell2_cation_opt E -1418.936721874549
  O       1.957359      0.666236      1.409668
  S       1.097518      0.575280      0.202194
  O       1.551063      1.454978     -0.935106
  C       0.865803     -1.147185     -0.399602
  C      -0.570534     -1.486917     -0.006141
  C      -1.406552     -0.206432     -0.167146
  C      -0.669023      0.901485      0.576635
  H       1.013318     -1.096879     -1.482928
  H       1.643423     -1.759548      0.062657
  H      -0.944567     -2.295431     -0.640359
  H      -0.607149     -1.834604      1.032145
  H      -1.515822      0.049915     -1.226917
  H      -2.411522     -0.330629      0.246112
  H      -0.881545      1.925657      0.262773
  H      -0.755068      0.813265      1.664637
  Li      2.759190      2.587645     -0.000760
  O       3.644054      3.656422      1.291508
  S       2.482075      4.052451      2.167150
  O       1.152728      3.812397      1.551652
  C       2.642326      3.254648      3.811770
  C       3.271125      4.339902      4.679862
  C       2.616909      5.671031      4.274061
  C       2.707746      5.780770      2.753114
  H       1.619558      3.008394      4.115066
  H       3.226869      2.342779      3.672382
  H       3.101834      4.116370      5.736926
  H       4.354031      4.379611      4.517946
  H       1.569308      5.690644      4.594350
  H       3.119249      6.524686      4.737457
  H       1.936891      6.388263      2.273569
  H       3.701267      6.079136      2.404105
31
Coordinates from ORCA-job SL_m1_shell2_cation_opt E -1418.936884973625
  O       1.945914      0.658029      1.399679
  S       1.088709      0.568404      0.193720
  O       1.544212      1.447185     -0.938220
  C       0.860321     -1.152190     -0.410640
  C      -0.574500     -1.498773     -0.014042
  C      -1.415218     -0.220275     -0.175045
  C      -0.677844      0.890607      0.566909
  H       1.003330     -1.101558     -1.494749
  H       1.638796     -1.765993      0.048797
  H      -0.950631     -2.309309     -0.644300
  H      -0.606665     -1.843586      1.025580
  H      -1.523957      0.035479     -1.235190
  H      -2.419708     -0.349482      0.237574
  H      -0.895406      1.912533      0.248145
  H      -0.767277      0.806027      1.655053
  Li      2.761980      2.588179     -0.003858
  O       3.646131      3.661814      1.301487
  S       2.489339      4.058326      2.176988
  O       1.162044      3.818706      1.563437
  C       2.649797      3.265620      3.822870
  C       3.277736      4.353049      4.690739
  C       2.623293      5.683699      4.280264
  C       2.717177      5.786716      2.758200
  H       1.628139      3.017036      4.128608
  H       3.238128      2.355052      3.688740
  H       3.109627      4.135482      5.749120
  H       4.360592      4.392903      4.527099
  H       1.574483      5.702591      4.597211
  H       3.123982      6.537488      4.745040
  H       1.947563      6.395910      2.278177
  H       3.711772      6.084667      2.411383
31
Coordinates from ORCA-job SL_m1_shell2_cation_opt E -1418.936932245582
  O       1.944882      0.660537      1.395797
  S       1.086951      0.569348      0.190711
  O       1.545468      1.445860     -0.940076
  C       0.858735     -1.151158     -0.410539
  C      -0.575570     -1.500309     -0.012496
  C      -1.417578     -0.222223     -0.176962
  C      -0.679249      0.890761      0.562488
  H       0.999934     -1.104047     -1.495220
  H       1.636933     -1.765331      0.049332
  H      -0.952803     -2.313365     -0.638704
  H      -0.605910     -1.840925      1.028711
  H      -1.523619      0.031606     -1.237960
  H      -2.422476     -0.350891      0.234571
  H      -0.899661      1.910900      0.239157
  H      -0.771289      0.810392      1.650836
  Li      2.765399      2.588877     -0.007427
  O       3.646771      3.663267      1.301884
  S       2.491723      4.057290      2.178539
  O       1.165902      3.815918      1.563022
  C       2.653625      3.266506      3.824399
  C       3.279785      4.355028      4.693191
  C       2.621892      5.684669      4.282282
  C       2.716778      5.785031      2.759578
  H       1.633314      3.014144      4.132069
  H       3.245650      2.357665      3.692944
  H       3.114470      4.138197      5.752092
  H       4.362315      4.397274      4.526993
  H       1.572301      5.699858      4.597157
  H       3.119596      6.539574      4.748002
  H       1.946385      6.394186      2.280268
  H       3.711206      6.085698      2.414142
31
Coordinates from ORCA-job SL_m1_shell2_cation_opt E -1418.936963726146
  O       1.947307      0.666469      1.392613
  S       1.087172      0.572932      0.188420
  O       1.548846      1.447153     -0.942502
  C       0.858097     -1.147940     -0.407845
  C      -0.575407     -1.498194     -0.007056
  C      -1.417989     -0.220437     -0.175777
  C      -0.678170      0.894905      0.559783
  H       0.997045     -1.105453     -1.493148
  H       1.636460     -1.761857      0.052419
  H      -0.953622     -2.314269     -0.628601
  H      -0.603734     -1.833813      1.035926
  H      -1.521736      0.030407     -1.237790
  H      -2.423152     -0.346599      0.235642
  H      -0.900969      1.913181      0.231708
  H      -0.771494      0.819518      1.648420
  Li      2.770555      2.589694     -0.012540
  O       3.648136      3.662771      1.299870
  S       2.493434      4.053741      2.177761
  O       1.169143      3.809673      1.558568
  C       2.656263      3.263868      3.823152
  C       3.279399      4.353490      4.693304
  C       2.617123      5.681582      4.282636
  C       2.713712      5.780709      2.759630
  H       1.637261      3.007011      4.131743
  H       3.252162      2.357057      3.693919
  H       3.116483      4.135556      5.752299
  H       4.361613      4.399172      4.525257
  H       1.566689      5.691807      4.595063
  H       3.110816      6.538185      4.749275
  H       1.942512      6.389218      2.280484
  H       3.707906      6.084801      2.416147
31
Coordinates from ORCA-job SL_m1_shell2_cation_opt E -1418.936987968134
  O       1.951320      0.672558      1.389365
  S       1.088436      0.577232      0.186241
  O       1.551965      1.450001     -0.945509
  C       0.857952     -1.144072     -0.405520
  C      -0.574252     -1.494280     -0.000130
  C      -1.417290     -0.217105     -0.171705
  C      -0.675712      0.900607      0.559018
  H       0.993630     -1.105164     -1.491418
  H       1.637528     -1.757214      0.053789
  H      -0.953468     -2.313007     -0.617494
  H      -0.599840     -1.825745      1.044274
  H      -1.521193      0.030484     -1.234477
  H      -2.422001     -0.340505      0.241484
  H      -0.900093      1.917374      0.227256
  H      -0.768010      0.829715      1.648021
  Li      2.776874      2.590470     -0.018666
  O       3.650663      3.660692      1.297714
  S       2.495073      4.049416      2.175938
  O       1.172249      3.802884      1.552840
  C       2.657273      3.259636      3.820809
  C       3.276507      4.350346      4.692530
  C       2.610947      5.676786      4.281575
  C       2.710646      5.775897      2.758675
  H       1.638940      2.999010      4.128456
  H       3.256211      2.354549      3.693177
  H       3.113833      4.130639      5.751169
  H       4.358677      4.399195      4.524897
  H       1.559645      5.682826      4.591189
  H       3.100732      6.535044      4.749136
  H       1.939571      6.383639      2.278306
  H       3.705048      6.082428      2.417841
31
Coordinates from ORCA-job SL_m1_shell2_cation_opt E -1418.937024661594
  O       1.959260      0.681687      1.383123
  S       1.091558      0.584670      0.182349
  O       1.556106      1.455735     -0.951281
  C       0.857997     -1.137310     -0.403281
  C      -0.571368     -1.486629      0.012238
  C      -1.415443     -0.210735     -0.161645
  C      -0.670391      0.910943      0.559792
  H       0.986546     -1.102484     -1.490198
  H       1.640914     -1.748870      0.052373
  H      -0.952747     -2.309105     -0.598755
  H      -0.590962     -1.812567      1.058499
  H      -1.523301      0.031453     -1.225248
  H      -2.418317     -0.330259      0.256988
  H      -0.896604      1.925631      0.223134
  H      -0.758307      0.846859      1.649507
  Li      2.789015      2.591792     -0.030433
  O       3.656305      3.655910      1.294836
  S       2.498070      4.041819      2.172019
  O       1.177806      3.792048      1.542749
  C       2.657181      3.251574      3.816264
  C       3.268769      4.344078      4.691132
  C       2.599661      5.667910      4.278426
  C       2.706650      5.767913      2.756093
  H       1.639094      2.985723      4.120032
  H       3.260269      2.348980      3.690794
  H       3.103374      4.121504      5.748742
  H       4.351309      4.397411      4.527357
  H       1.546775      5.668628      4.582610
  H       3.083309      6.528534      4.747913
  H       1.937177      6.374548      2.271891
  H       3.702156      6.076947      2.420762
31
Coordinates from ORCA-job SL_m1_shell2_cation_opt E -1418.937077774435
  O       1.973114      0.693928      1.372938
  S       1.097987      0.596224      0.176675
  O       1.561331      1.464862     -0.960428
  C       0.858489     -1.126717     -0.401542
  C      -0.565950     -1.473938      0.031463
  C      -1.411789     -0.199931     -0.142733
  C      -0.660606      0.927295      0.563670
  H       0.974539     -1.095752     -1.489964
  H       1.647384     -1.736103      0.046457
  H      -0.951671     -2.300939     -0.570678
  H      -0.574878     -1.793390      1.079824
  H      -1.529715      0.034673     -1.206919
  H      -2.410640     -0.315006      0.286597
  H      -0.888666      1.939435      0.221111
  H      -0.739382      0.872423      1.654490
  Li      2.809116      2.593908     -0.050115
  O       3.665861      3.647811      1.291053
  S       2.502489      4.029932      2.164557
  O       1.186296      3.776845      1.526714
  C       2.654794      3.238317      3.808285
  C       3.253695      4.333208      4.688831
  C       2.581668      5.653659      4.272076
  C       2.701886      5.755821      2.751005
  H       1.636155      2.965820      4.103870
  H       3.263269      2.339091      3.685557
  H       3.080724      4.106954      5.744463
  H       4.337258      4.392112      4.534334
  H       1.526236      5.648602      4.567173
  H       3.056723      6.516982      4.745356
  H       1.936278      6.361247      2.259470
  H       3.699866      6.066966      2.425191
31
Coordinates from ORCA-job SL_m1_shell2_cation_opt E -1418.937158157530
  O       1.998251      0.711327      1.357016
  S       1.111182      0.614995      0.169279
  O       1.569196      1.479024     -0.974307
  C       0.860095     -1.109382     -0.399312
  C      -0.556129     -1.452149      0.062229
  C      -1.404225     -0.180200     -0.108700
  C      -0.642146      0.954195      0.573909
  H       0.955324     -1.082031     -1.489819
  H       1.658199     -1.716473      0.035007
  H      -0.950495     -2.284392     -0.527085
  H      -0.547082     -1.763761      1.112885
  H      -1.541569      0.043994     -1.172731
  H      -2.395508     -0.289982      0.339268
  H      -0.871897      1.963198      0.224028
  H      -0.704596      0.911983      1.666245
  Li      2.842449      2.597462     -0.083235
  O       3.680800      3.634911      1.284681
  S       2.508260      4.010587      2.149907
  O       1.198656      3.754691      1.499690
  C       2.647899      3.215721      3.793216
  C       3.225986      4.313403      4.683962
  C       2.552106      5.629688      4.259943
  C       2.694916      5.736286      2.741417
  H       1.627646      2.934092      4.073908
  H       3.264060      2.321452      3.674143
  H       3.037863      4.082307      5.735998
  H       4.311423      4.379579      4.547213
  H       1.492635      5.618122      4.539939
  H       3.014652      6.495744      4.740708
  H       1.936559      6.340596      2.237727
  H       3.697354      6.049349      2.431651
31
Coordinates from ORCA-job SL_m1_shell2_cation_opt E -1418.937248661917
  O       2.030845      0.728437      1.340992
  S       1.130126      0.636244      0.164318
  O       1.578342      1.493522     -0.987926
  C       0.863184     -1.089592     -0.395482
  C      -0.544068     -1.425727      0.096574
  C      -1.392912     -0.154038     -0.067042
  C      -0.617305      0.985363      0.590825
  H       0.935618     -1.063997     -1.487761
  H       1.669749     -1.696232      0.023365
  H      -0.950342     -2.261139     -0.480191
  H      -0.515224     -1.731427      1.148574
  H      -1.553432      0.061304     -1.129591
  H      -2.375040     -0.259487      0.401886
  H      -0.847279      1.992139      0.235335
  H      -0.660851      0.954301      1.684410
  Li      2.880535      2.601820     -0.122094
  O       3.695612      3.621736      1.275860
  S       2.511990      3.988863      2.129502
  O       1.209500      3.733086      1.467005
  C       2.636154      3.188480      3.772363
  C       3.191377      4.287398      4.675812
  C       2.518204      5.600964      4.244210
  C       2.686565      5.714023      2.729158
  H       1.613666      2.898164      4.035335
  H       3.259992      2.299331      3.656315
  H       2.984380      4.051766      5.723353
  H       4.278821      4.359904      4.560567
  H       1.454440      5.584735      4.507248
  H       2.968416      6.467872      4.735309
  H       1.936745      6.318267      2.212938
  H       3.694052      6.028260      2.437614
31
Coordinates from ORCA-job SL_m1_shell2_cation_opt E -1418.937331465133
  O       2.060815      0.738393      1.332046
  S       1.149345      0.651789      0.165094
  O       1.586031      1.501733     -0.995628
  C       0.867155     -1.074978     -0.389768
  C      -0.534628     -1.404147      0.121885
  C      -1.381186     -0.129792     -0.033290
  C      -0.593751      1.009459      0.609644
  H       0.924456     -1.048864     -1.482928
  H       1.677094     -1.684079      0.018893
  H      -0.952483     -2.238830     -0.447713
  H      -0.492729     -1.708268      1.173935
  H      -1.558376      0.082483     -1.093785
  H      -2.356635     -0.233287      0.450034
  H      -0.821745      2.016085      0.252683
  H      -0.623841      0.983090      1.703840
  Li      2.909856      2.605847     -0.153776
  O       3.703621      3.614904      1.266486
  S       2.510887      3.973594      2.109416
  O       1.212842      3.721928      1.439548
  C       2.622711      3.166217      3.751490
  C       3.162548      4.263374      4.666098
  C       2.492449      5.577503      4.230943
  C       2.679017      5.697473      2.718910
  H       1.598239      2.870940      4.001054
  H       3.251341      2.280422      3.636103
  H       2.940785      4.024939      5.710018
  H       4.251364      4.338694      4.567010
  H       1.425722      5.560141      4.481848
  H       2.935617      6.442300      4.732335
  H       1.935204      6.303276      2.195788
  H       3.690134      6.011998      2.440567
31
Coordinates from ORCA-job SL_m1_shell2_cation_opt E -1418.937392311790
  O       2.076516      0.739090      1.333644
  S       1.160934      0.655795      0.170924
  O       1.590084      1.500033     -0.995309
  C       0.870580     -1.071369     -0.382749
  C      -0.532034     -1.395667      0.129759
  C      -1.374081     -0.117020     -0.021671
  C      -0.581070      1.017879      0.621523
  H       0.926952     -1.044713     -1.475948
  H       1.677440     -1.684380      0.026357
  H      -0.956252     -2.227068     -0.439879
  H      -0.489645     -1.701271      1.181436
  H      -1.553102      0.097814     -1.081392
  H      -2.348859     -0.220306      0.463129
  H      -0.805920      2.025868      0.266241
  H      -0.609416      0.989552      1.715792
  Li      2.920256      2.608537     -0.167878
  O       3.701786      3.618260      1.259115
  S       2.505518      3.971153      2.097544
  O       1.207432      3.725387      1.427301
  C       2.613781      3.157245      3.738072
  C       3.151768      4.250318      4.658515
  C       2.484289      5.567678      4.226456
  C       2.674201      5.692986      2.715430
  H       1.588603      2.861437      3.984442
  H       3.243193      2.272229      3.620425
  H       2.926510      4.010737      5.701415
  H       4.240958      4.325020      4.562595
  H       1.416910      5.551349      4.474889
  H       2.927739      6.428607      4.734269
  H       1.930790      6.301222      2.194301
  H       3.686001      6.007937      2.440034
31
Coordinates from ORCA-job SL_m1_shell2_cation_opt E -1418.937446106937
  O       2.087754      0.740046      1.340140
  S       1.170061      0.656744      0.179399
  O       1.595370      1.494143     -0.992106
  C       0.874399     -1.071210     -0.370630
  C      -0.532266     -1.389673      0.134507
  C      -1.367776     -0.105929     -0.018996
  C      -0.571514      1.023560      0.629596
  H       0.936863     -1.047522     -1.463587
  H       1.674769     -1.688180      0.045447
  H      -0.960238     -2.218054     -0.436587
  H      -0.495875     -1.695287      1.186492
  H      -1.539849      0.111727     -1.079364
  H      -2.345284     -0.206685      0.460735
  H      -0.792507      2.032859      0.275299
  H      -0.603893      0.992785      1.723733
  Li      2.925622      2.611385     -0.178235
  O       3.695099      3.626912      1.249595
  S       2.497718      3.972831      2.087734
  O       1.198205      3.732104      1.418682
  C       2.607912      3.150951      3.724857
  C       3.148543      4.238901      4.649776
  C       2.480418      5.559590      4.225741
  C       2.666691      5.691470      2.714819
  H       1.583438      2.853865      3.972778
  H       3.238004      2.266891      3.603001
  H       2.926462      3.996305      5.692615
  H       4.237467      4.314035      4.550250
  H       1.413411      5.541852      4.475896
  H       2.925429      6.416664      4.738571
  H       1.920177      6.301845      2.200389
  H       3.677251      6.009413      2.438233
31
Coordinates from ORCA-job SL_m1_shell2_cation_opt E -1418.937522614299
  O       2.104592      0.746482      1.352016
  S       1.183948      0.659404      0.193565
  O       1.606810      1.484154     -0.986976
  C       0.880900     -1.070717     -0.345482
  C      -0.533254     -1.377515      0.146018
  C      -1.356917     -0.086049     -0.016572
  C      -0.556296      1.036125      0.639572
  H       0.955676     -1.056424     -1.437835
  H       1.670050     -1.692352      0.085043
  H      -0.965193     -2.202917     -0.426190
  H      -0.509122     -1.679965      1.199359
  H      -1.514222      0.133072     -1.079013
  H      -2.340083     -0.178732      0.452940
  H      -0.770452      2.046732      0.284503
  H      -0.596623      1.004130      1.733426
  Li      2.936393      2.616813     -0.198088
  O       3.682687      3.642569      1.231031
  S       2.484426      3.975303      2.071848
  O       1.182844      3.740006      1.404113
  C       2.601367      3.138645      3.701201
  C       3.145260      4.218467      4.633715
  C       2.472042      5.542792      4.225666
  C       2.650349      5.687851      2.714890
  H       1.579224      2.836430      3.952508
  H       3.234037      2.257575      3.570817
  H       2.931083      3.967311      5.676122
  H       4.233316      4.297360      4.526615
  H       1.406042      5.518862      4.479754
  H       2.917725      6.394925      4.745838
  H       1.897433      6.300549      2.212440
  H       3.657817      6.013449      2.435936
31
Coordinates from ORCA-job SL_m1_shell2_cation_opt E -1418.937614800359
  O       2.108714      0.752173      1.364622
  S       1.189651      0.658467      0.204577
  O       1.616039      1.473931     -0.981573
  C       0.885083     -1.073979     -0.323654
  C      -0.536276     -1.371806      0.152707
  C      -1.350895     -0.075923     -0.023055
  C      -0.550471      1.042878      0.639704
  H       0.973708     -1.069910     -1.415030
  H       1.664853     -1.696953      0.121796
  H      -0.967045     -2.196896     -0.420697
  H      -0.525679     -1.669565      1.207616
  H      -1.492367      0.141675     -1.088075
  H      -2.340131     -0.160367      0.434927
  H      -0.759034      2.053561      0.281568
  H      -0.600913      1.012226      1.733140
  Li      2.941270      2.621500     -0.210989
  O       3.669860      3.658196      1.216076
  S       2.473700      3.981934      2.063768
  O       1.169159      3.749162      1.399544
  C       2.601261      3.132801      3.685131
  C       3.149805      4.206272      4.622386
  C       2.470200      5.532433      4.229935
  C       2.637837      5.689057      2.718883
  H       1.582084      2.825367      3.941833
  H       3.235779      2.254495      3.545694
  H       2.945508      3.945980      5.664498
  H       4.236692      4.289204      4.506245
  H       1.405851      5.502086      4.490149
  H       2.917010      6.381615      4.753723
  H       1.878745      6.303237      2.227642
  H       3.641863      6.021489      2.435689
31
Coordinates from ORCA-job SL_m1_shell2_cation_opt E -1418.937759447004
  O       2.102816      0.760445      1.378807
  S       1.189893      0.656498      0.213399
  O       1.627185      1.464379     -0.976152
  C       0.887869     -1.078922     -0.301280
  C      -0.540097     -1.368300      0.160774
  C      -1.347627     -0.071411     -0.034371
  C      -0.550566      1.049364      0.630192
  H       0.990565     -1.087592     -1.391323
  H       1.660622     -1.699471      0.159338
  H      -0.965216     -2.196871     -0.411795
  H      -0.543424     -1.657858      1.217915
  H      -1.473836      0.139152     -1.102702
  H      -2.342761     -0.145408      0.412312
  H      -0.753572      2.058242      0.264288
  H      -0.612575      1.025739      1.723113
  Li      2.945744      2.626659     -0.223256
  O       3.655484      3.673936      1.200479
  S       2.464091      3.991278      2.060069
  O       1.155873      3.758004      1.401525
  C       2.607000      3.129009      3.671438
  C       3.158740      4.197192      4.613156
  C       2.470380      5.522984      4.237515
  C       2.626280      5.692690      2.726306
  H       1.591833      2.813802      3.933952
  H       3.243983      2.254597      3.520660
  H       2.965090      3.924556      5.654146
  H       4.244204      4.285983      4.488520
  H       1.408159      5.484579      4.504936
  H       2.917181      6.371153      4.762781
  H       1.861797      6.307957      2.245189
  H       3.626748      6.031972      2.438849
31
Coordinates from ORCA-job SL_m1_shell2_cation_opt E -1418.937890977001
  O       2.097487      0.769530      1.391326
  S       1.191651      0.657176      0.221041
  O       1.639580      1.457742     -0.971418
  C       0.890669     -1.081264     -0.281462
  C      -0.542002     -1.362443      0.171513
  C      -1.343919     -0.065883     -0.040529
  C      -0.549320      1.058336      0.621653
  H       1.002959     -1.100420     -1.370354
  H       1.659353     -1.698373      0.190224
  H      -0.962341     -2.194853     -0.399102
  H      -0.555144     -1.644586      1.230471
  H      -1.461283      0.136508     -1.111391
  H      -2.342849     -0.131285      0.398976
  H      -0.746508      2.065432      0.248259
  H      -0.618996      1.042404      1.714183
  Li      2.954114      2.631872     -0.238495
  O       3.642336      3.685816      1.185126
  S       2.455061      3.997268      2.055211
  O       1.143928      3.763392      1.403134
  C       2.611755      3.123103      3.657831
  C       3.163555      4.187008      4.604540
  C       2.467852      5.511563      4.242537
  C       2.615865      5.694022      2.731850
  H       1.599714      2.800671      3.923167
  H       3.250884      2.252539      3.495856
  H       2.976256      3.903312      5.643777
  H       4.248037      4.281172      4.475992
  H       1.407259      5.466898      4.515087
  H       2.913552      6.359099      4.769815
  H       1.848280      6.310358      2.257425
  H       3.614075      6.038224      2.442537
31
Coordinates from ORCA-job SL_m1_shell2_cation_opt E -1418.938117754333
  O       2.089272      0.779033      1.409211
  S       1.194912      0.657974      0.232088
  O       1.656822      1.448340     -0.963505
  C       0.894148     -1.084227     -0.257099
  C      -0.544478     -1.355214      0.183827
  C      -1.339134     -0.059012     -0.048453
  C      -0.547791      1.068985      0.611239
  H       1.018236     -1.114843     -1.344379
  H       1.657586     -1.697299      0.227977
  H      -0.959311     -2.191768     -0.384913
  H      -0.569799     -1.629151      1.244611
  H      -1.446514      0.133729     -1.122093
  H      -2.342677     -0.115578      0.381810
  H      -0.736807      2.074317      0.229509
  H      -0.627015      1.061551      1.703192
  Li      2.967372      2.638839     -0.260703
  O       3.622959      3.701077      1.165080
  S       2.441822      4.004337      2.048799
  O       1.126278      3.770995      1.408201
  C       2.617624      3.116020      3.641281
  C       3.169775      4.174644      4.593817
  C       2.465455      5.497648      4.248372
  C       2.603330      5.695693      2.738603
  H       1.609372      2.785222      3.910420
  H       3.258930      2.250262      3.464539
  H       2.989881      3.878760      5.631022
  H       4.253080      4.274955      4.460742
  H       1.406975      5.446491      4.527689
  H       2.910218      6.343959      4.778616
  H       1.832268      6.313836      2.272542
  H       3.599071      6.044764      2.446738
31
Coordinates from ORCA-job SL_m1_shell2_cation_opt E -1418.938844262316
  O       2.080811      0.786122      1.431539
  S       1.199559      0.656310      0.246537
  O       1.677154      1.433199     -0.953101
  C       0.897159     -1.089385     -0.227384
  C      -0.548792     -1.348120      0.197346
  C      -1.333081     -0.050943     -0.058876
  C      -0.544489      1.079858      0.599738
  H       1.036026     -1.133978     -1.312332
  H       1.651633     -1.699885      0.274563
  H      -0.958902     -2.188784     -0.368809
  H      -0.589737     -1.611416      1.260272
  H      -1.425383      0.131305     -1.135743
  H      -2.342590     -0.096230      0.358573
  H      -0.723636      2.082711      0.207225
  H      -0.637570      1.082954      1.690587
  Li      2.989484      2.648673     -0.295469
  O       3.597832      3.723179      1.140983
  S       2.424802      4.015718      2.041111
  O       1.102724      3.785487      1.415501
  C       2.624008      3.109171      3.620064
  C       3.177601      4.159983      4.580561
  C       2.463008      5.482133      4.256817
  C       2.588447      5.699044      2.748457
  H       1.621251      2.766910      3.894963
  H       3.269186      2.250286      3.426039
  H       3.008242      3.849228      5.615215
  H       4.259205      4.268256      4.440258
  H       1.407048      5.421949      4.543653
  H       2.906988      6.325703      4.792117
  H       1.812806      6.320452      2.294690
  H       3.581063      6.054448      2.453686
31
Coordinates from ORCA-job SL_m1_shell2_cation_opt E -1418.939144330212
  O       2.064878      0.779008      1.453270
  S       1.200778      0.650157      0.257693
  O       1.694220      1.419547     -0.940819
  C       0.896660     -1.096705     -0.214567
  C      -0.554212     -1.349113      0.197334
  C      -1.332252     -0.050840     -0.071949
  C      -0.547029      1.080660      0.588686
  H       1.045229     -1.144694     -1.298100
  H       1.644990     -1.707244      0.296568
  H      -0.961269     -2.190866     -0.369494
  H      -0.605744     -1.608492      1.260792
  H      -1.415853      0.126636     -1.150348
  H      -2.345725     -0.092972      0.336310
  H      -0.718262      2.082994      0.191185
  H      -0.650630      1.088302      1.678664
  Li      3.010220      2.654905     -0.323167
  O       3.573558      3.737892      1.126263
  S       2.410150      4.023852      2.041470
  O       1.080254      3.796491      1.436123
  C       2.632260      3.110462      3.615103
  C       3.188646      4.159038      4.576269
  C       2.467480      5.480005      4.263798
  C       2.581807      5.704494      2.755888
  H       1.633712      2.761615      3.897171
  H       3.279524      2.255899      3.409779
  H       3.027270      3.843872      5.610889
  H       4.268949      4.271619      4.429382
  H       1.413730      5.416571      4.558153
  H       2.912497      6.322435      4.800252
  H       1.803303      6.328302      2.310210
  H       3.572725      6.060506      2.455972
31
Coordinates from ORCA-job SL_m1_shell2_cation_opt E -1418.939407615371
  O       2.070387      0.786389      1.473517
  S       1.214105      0.659391      0.273130
  O       1.715701      1.416974     -0.929109
  C       0.902319     -1.088733     -0.194780
  C      -0.551964     -1.332529      0.209651
  C      -1.322238     -0.030828     -0.068038
  C      -0.535438      1.098808      0.592502
  H       1.056410     -1.140652     -1.277377
  H       1.644381     -1.701023      0.323453
  H      -0.961370     -2.173599     -0.356486
  H      -0.610390     -1.588169      1.273710
  H      -1.400443      0.143100     -1.147456
  H      -2.338009     -0.068756      0.335047
  H      -0.699603      2.101046      0.191721
  H      -0.643770      1.110155      1.682071
  Li      3.029326      2.658130     -0.344950
  O       3.554271      3.740563      1.107597
  S       2.393635      4.012233      2.030040
  O       1.059553      3.783969      1.435825
  C       2.633022      3.094846      3.600934
  C       3.186782      4.143703      4.562838
  C       2.456593      5.461902      4.257861
  C       2.563253      5.691793      2.750645
  H       1.638248      2.738092      3.886698
  H       3.285121      2.245668      3.388612
  H       3.031342      3.825910      5.597572
  H       4.265796      4.263363      4.411829
  H       1.404408      5.392115      4.556576
  H       2.899021      6.304236      4.796696
  H       1.779859      6.313974      2.311089
  H       3.551550      6.052266      2.447364
31
Coordinates from ORCA-job SL_m1_shell2_cation_opt E -1418.939695666172
  O       2.042671      0.761131      1.497809
  S       1.209225      0.651967      0.281876
  O       1.726430      1.413761     -0.909754
  C       0.900013     -1.093286     -0.209096
  C      -0.556026     -1.343083      0.184059
  C      -1.328138     -0.039671     -0.087114
  C      -0.548913      1.085973      0.585950
  H       1.059037     -1.130113     -1.291668
  H       1.639654     -1.710214      0.307382
  H      -0.963185     -2.178995     -0.391311
  H      -0.619516     -1.608311      1.245624
  H      -1.404273      0.141873     -1.165497
  H      -2.345889     -0.089494      0.310083
  H      -0.711076      2.091649      0.192707
  H      -0.662630      1.088332      1.675227
  Li      3.028904      2.654508     -0.337962
  O       3.530979      3.733827      1.110046
  S       2.381903      4.004226      2.044997
  O       1.038006      3.774657      1.478049
  C       2.643811      3.105332      3.627486
  C       3.205301      4.165717      4.571268
  C       2.473583      5.481642      4.256625
  C       2.566559      5.693501      2.746713
  H       1.651290      2.751987      3.925908
  H       3.294605      2.254461      3.417377
  H       3.057153      3.865018      5.612176
  H       4.283188      4.282919      4.410169
  H       1.423970      5.418367      4.566243
  H       2.921501      6.327698      4.785307
  H       1.780190      6.313470      2.308791
  H       3.553534      6.045488      2.429308
31
Coordinates from ORCA-job SL_m1_shell2_cation_opt E -1418.939919875796
  O       2.034174      0.762857      1.521202
  S       1.214274      0.657871      0.296184
  O       1.746927      1.413700     -0.892444
  C       0.903468     -1.086357     -0.197156
  C      -0.554961     -1.332644      0.187971
  C      -1.322579     -0.028372     -0.091707
  C      -0.545825      1.097880      0.582475
  H       1.068011     -1.124048     -1.278837
  H       1.638428     -1.705057      0.323753
  H      -0.960832     -2.169165     -0.387388
  H      -0.625600     -1.594373      1.249948
  H      -1.391358      0.149501     -1.171205
  H      -2.342861     -0.075004      0.299328
  H      -0.703278      2.102156      0.184023
  H      -0.667018      1.105848      1.670837
  Li      3.042661      2.655779     -0.350437
  O       3.507885      3.730029      1.097230
  S       2.366657      3.991355      2.044490
  O       1.017158      3.756612      1.494025
  C       2.650502      3.095976      3.625509
  C       3.211459      4.161621      4.563402
  C       2.469617      5.472889      4.252090
  C       2.551460      5.682338      2.741530
  H       1.663477      2.734319      3.931808
  H       3.306560      2.250184      3.411085
  H       3.072581      3.861519      5.605772
  H       4.287373      4.285681      4.394422
  H       1.422454      5.403297      4.568655
  H       2.915920      6.322113      4.776956
  H       1.760015      6.299243      2.308586
  H       3.535110      6.036591      2.416674
31
Coordinates from ORCA-job SL_m1_shell2_cation_opt E -1418.940212103338
  O       2.013272      0.754746      1.555592
  S       1.215518      0.658626      0.315737
  O       1.771710      1.411256     -0.864512
  C       0.905527     -1.081951     -0.187661
  C      -0.556170     -1.326189      0.184419
  C      -1.318496     -0.021059     -0.105365
  C      -0.546908      1.105720      0.573871
  H       1.078512     -1.117031     -1.268045
  H       1.633942     -1.704874      0.337316
  H      -0.958362     -2.163057     -0.392959
  H      -0.637744     -1.584972      1.246330
  H      -1.375060      0.153992     -1.186022
  H      -2.342629     -0.063857      0.275813
  H      -0.697650      2.108032      0.168131
  H      -0.681870      1.120905      1.660377
  Li      3.059469      2.656611     -0.363954
  O       3.473330      3.724261      1.085216
  S       2.346108      3.978977      2.051583
  O       0.987342      3.737139      1.528542
  C       2.661913      3.091272      3.630139
  C       3.226156      4.164965      4.556891
  C       2.471839      5.470347      4.249363
  C       2.535341      5.672920      2.737149
  H       1.683237      2.719789      3.950586
  H       3.323813      2.251413      3.410061
  H       3.102070      3.867246      5.601804
  H       4.298940      4.296420      4.374230
  H       1.428829      5.393927      4.577781
  H       2.918619      6.324463      4.765603
  H       1.737149      6.286153      2.311587
  H       3.514112      6.028148      2.399177
31
Coordinates from ORCA-job SL_m1_shell2_cation_opt E -1418.940563308847
  O       1.984855      0.739396      1.602422
  S       1.217392      0.656104      0.343542
  O       1.804036      1.405172     -0.824997
  C       0.907259     -1.078808     -0.174647
  C      -0.559216     -1.319006      0.179254
  C      -1.312586     -0.011924     -0.124273
  C      -0.546736      1.114680      0.562687
  H       1.091860     -1.109537     -1.253172
  H       1.625933     -1.709001      0.355085
  H      -0.956842     -2.156072     -0.400953
  H      -0.655961     -1.573875      1.240861
  H      -1.351460      0.160056     -1.206160
  H      -2.342078     -0.048050      0.242723
  H      -0.685959      2.114218      0.146307
  H      -0.702611      1.140204      1.646009
  Li      3.087562      2.658838     -0.388416
  O       3.425150      3.718123      1.069877
  S       2.317246      3.966321      2.061233
  O       0.946353      3.716409      1.576731
  C       2.676253      3.086997      3.633951
  C       3.246088      4.169572      4.547404
  C       2.475637      5.467599      4.247655
  C       2.513631      5.663004      2.733574
  H       1.709573      2.702387      3.974122
  H       3.345239      2.255356      3.404237
  H       3.142465      3.873637      5.595021
  H       4.314253      4.310441      4.345825
  H       1.438628      5.382304      4.592353
  H       2.923717      6.327458      4.752882
  H       1.706610      6.272412      2.319365
  H       3.485567      6.019924      2.378274
31
Coordinates from ORCA-job SL_m1_shell2_cation_opt E -1418.940866140735
  O       1.939031      0.713941      1.671243
  S       1.217548      0.647665      0.386172
  O       1.845832      1.392819     -0.764720
  C       0.908775     -1.079851     -0.153683
  C      -0.565952     -1.313272      0.167589
  C      -1.303932     -0.002802     -0.157070
  C      -0.548361      1.122092      0.545583
  H       1.114597     -1.103847     -1.228469
  H       1.611058     -1.720583      0.385413
  H      -0.954847     -2.150023     -0.418958
  H      -0.688313     -1.563936      1.227595
  H      -1.313426      0.166539     -1.239994
  H      -2.342256     -0.029963      0.184752
  H      -0.667614      2.118401      0.115703
  H      -0.738659      1.160031      1.622828
  Li      3.126944      2.663880     -0.425676
  O       3.352487      3.712854      1.049704
  S       2.273881      3.955661      2.076421
  O       0.886329      3.697769      1.650167
  C       2.696102      3.085544      3.637446
  C       3.278288      4.177621      4.532540
  C       2.486944      5.466775      4.248965
  C       2.484326      5.655180      2.733306
  H       1.747417      2.684994      4.008090
  H       3.371456      2.264334      3.389738
  H       3.205804      3.883412      5.583220
  H       4.338993      4.329527      4.301791
  H       1.459869      5.371297      4.619657
  H       2.939419      6.333136      4.738765
  H       1.664685      6.260928      2.338906
  H       3.445434      6.014216      2.351757
31
Coordinates from ORCA-job SL_m1_shell2_cation_opt E -1418.940932581453
  O       1.922977      0.703864      1.687782
  S       1.213768      0.640393      0.396323
  O       1.851755      1.384815     -0.748963
  C       0.907952     -1.086605     -0.146242
  C      -0.570341     -1.317140      0.161181
  C      -1.302970     -0.005653     -0.172283
  C      -0.552344      1.118767      0.537377
  H       1.123399     -1.110595     -1.219150
  H       1.603916     -1.729189      0.398853
  H      -0.954662     -2.154385     -0.427705
  H      -0.702919     -1.566349      1.220329
  H      -1.300862      0.163105     -1.255343
  H      -2.344813     -0.030558      0.158810
  H      -0.664197      2.114467      0.104115
  H      -0.755427      1.158989      1.612204
  Li      3.134278      2.667507     -0.436480
  O       3.332194      3.718708      1.047353
  S       2.262998      3.961559      2.082642
  O       0.871108      3.704037      1.671490
  C       2.701826      3.089906      3.637959
  C       3.291329      4.181665      4.529063
  C       2.495821      5.470270      4.254326
  C       2.478814      5.660571      2.738783
  H       1.757981      2.687212      4.018601
  H       3.376078      2.270290      3.382381
  H       3.228933      3.886212      5.580030
  H       4.349723      4.334880      4.288661
  H       1.472256      5.373336      4.634279
  H       2.951694      6.336853      4.740617
  H       1.655376      6.266531      2.352627
  H       3.436219      6.020874      2.349163
31
Coordinates from ORCA-job SL_m1_shell2_cation_opt E -1418.940961144004
  O       1.918061      0.701071      1.692199
  S       1.211140      0.634424      0.399361
  O       1.849771      1.377447     -0.745704
  C       0.907414     -1.095072     -0.137393
  C      -0.574343     -1.321236      0.158249
  C      -1.301972     -0.008858     -0.182608
  C      -0.554883      1.114718      0.532688
  H       1.132126     -1.123632     -1.208338
  H       1.598138     -1.736048      0.416086
  H      -0.954751     -2.158996     -0.432512
  H      -0.715561     -1.569343      1.216527
  H      -1.291421      0.159407     -1.265691
  H      -2.346557     -0.031968      0.139921
  H      -0.661360      2.111160      0.099786
  H      -0.765267      1.153487      1.606222
  Li      3.131833      2.671179     -0.440406
  O       3.325525      3.730503      1.046450
  S       2.259323      3.972544      2.083238
  O       0.866114      3.717378      1.674049
  C       2.702675      3.093814      3.633463
  C       3.298891      4.181216      4.525652
  C       2.503040      5.471428      4.261015
  C       2.476724      5.669286      2.746370
  H       1.759813      2.692701      4.018330
  H       3.372933      2.273376      3.370707
  H       3.241947      3.881521      5.575735
  H       4.356240      4.333868      4.280320
  H       1.481756      5.374563      4.647095
  H       2.962353      6.335960      4.747870
  H       1.650610      6.275871      2.367020
  H       3.431547      6.032567      2.353081
31
Coordinates from ORCA-job SL_m1_shell2_cation_opt E -1418.940966966312
  O       1.916529      0.701309      1.696025
  S       1.211267      0.632960      0.402071
  O       1.850984      1.374864     -0.743221
  C       0.907506     -1.097775     -0.131796
  C      -0.576149     -1.321041      0.157338
  C      -1.300385     -0.007973     -0.186955
  C      -0.554867      1.114514      0.531537
  H       1.137414     -1.129230     -1.201588
  H       1.595136     -1.737741      0.426578
  H      -0.954901     -2.158632     -0.434760
  H      -0.722205     -1.568793      1.215031
  H      -1.285461      0.160192     -1.270003
  H      -2.346399     -0.029969      0.131053
  H      -0.658571      2.111742      0.099826
  H      -0.768329      1.151751      1.604529
  Li      3.130692      2.672559     -0.441622
  O       3.321980      3.735050      1.044470
  S       2.256897      3.975069      2.082561
  O       0.863343      3.719426      1.674178
  C       2.703362      3.094095      3.630939
  C       3.302346      4.180249      4.522739
  C       2.505219      5.470279      4.262928
  C       2.473400      5.671270      2.748784
  H       1.761105      2.693509      4.017835
  H       3.371860      2.273343      3.364955
  H       3.248837      3.878901      5.572543
  H       4.358923      4.333444      4.274441
  H       1.485386      5.372717      4.652651
  H       2.965654      6.334355      4.749618
  H       1.644984      6.276918      2.373064
  H       3.426303      6.036979      2.353034
31
Coordinates from ORCA-job SL_m1_shell2_cation_opt E -1418.940974913502
  O       1.912736      0.701034      1.703055
  S       1.211000      0.630353      0.406890
  O       1.853458      1.370533     -0.737946
  C       0.907301     -1.102078     -0.123254
  C      -0.579524     -1.320786      0.153968
  C      -1.297907     -0.006244     -0.195363
  C      -0.555475      1.113681      0.529726
  H       1.146652     -1.138376     -1.190850
  H       1.589120     -1.740527      0.443776
  H      -0.955492     -2.157561     -0.441079
  H      -0.734261     -1.568488      1.210430
  H      -1.274883      0.162544     -1.278194
  H      -2.346442     -0.026759      0.114444
  H      -0.655073      2.112596      0.101043
  H      -0.774110      1.147241      1.601821
  Li      3.127201      2.674520     -0.441493
  O       3.316359      3.742040      1.041981
  S       2.253416      3.977594      2.082636
  O       0.859792      3.719290      1.675385
  C       2.705517      3.094959      3.628929
  C       3.309455      4.180252      4.518147
  C       2.509413      5.469416      4.265545
  C       2.467055      5.673747      2.752132
  H       1.764354      2.695651      4.019813
  H       3.371152      2.273296      3.358746
  H       3.262921      3.877456      5.567891
  H       4.364388      4.334560      4.263562
  H       1.492393      5.370366      4.662235
  H       2.971681      6.333345      4.750853
  H       1.633729      6.276543      2.382873
  H       3.415933      6.044141      2.351076
31
Coordinates from ORCA-job SL_m1_shell2_cation_opt E -1418.940981367668
  O       1.908321      0.700299      1.710817
  S       1.210660      0.628112      0.412419
  O       1.856644      1.366543     -0.731370
  C       0.907057     -1.105249     -0.115952
  C      -0.582498     -1.320284      0.149777
  C      -1.295515     -0.004006     -0.203382
  C      -0.556072      1.113047      0.528538
  H       1.155458     -1.145406     -1.181328
  H       1.583005     -1.742964      0.458845
  H      -0.955956     -2.155781     -0.448632
  H      -0.745580     -1.568434      1.204871
  H      -1.264563      0.166016     -1.285861
  H      -2.346344     -0.023162      0.098731
  H      -0.652373      2.113579      0.102956
  H      -0.779662      1.142968      1.599734
  Li      3.123441      2.676187     -0.440449
  O       3.311011      3.747499      1.040074
  S       2.250064      3.978235      2.083438
  O       0.856720      3.715925      1.677580
  C       2.708007      3.095668      3.628291
  C       3.316581      4.181034      4.513857
  C       2.513252      5.469124      4.267132
  C       2.460411      5.674804      2.754276
  H       1.768060      2.697526      4.023268
  H       3.371389      2.273101      3.355279
  H       3.277253      3.877752      5.563777
  H       4.369736      4.336571      4.252615
  H       1.499092      5.368381      4.670692
  H       2.977280      6.333381      4.750211
  H       1.621964      6.274157      2.391142
  H       3.405018      6.049717      2.347436
31
Coordinates from ORCA-job SL_m1_shell2_cation_opt E -1418.940988175163
  O       1.902020      0.697894      1.719977
  S       1.209543      0.625074      0.419028
  O       1.860193      1.361937     -0.722840
  C       0.906485     -1.108429     -0.109905
  C      -0.585614     -1.320610      0.143541
  C      -1.293476     -0.002195     -0.212304
  C      -0.557340      1.111460      0.527497
  H       1.164459     -1.151145     -1.172849
  H       1.576076     -1.746323      0.472110
  H      -0.956286     -2.154124     -0.459315
  H      -0.757554     -1.570182      1.196880
  H      -1.254188      0.170019     -1.294182
  H      -2.346550     -0.020113      0.081989
  H      -0.650750      2.113712      0.105388
  H      -0.786334      1.137400      1.597686
  Li      3.118284      2.677865     -0.437882
  O       3.305916      3.752590      1.039293
  S       2.246825      3.978328      2.085544
  O       0.854077      3.710564      1.681502
  C       2.711056      3.097258      3.629306
  C       3.324771      4.183344      4.509976
  C       2.518005      5.470394      4.268431
  C       2.453748      5.675697      2.755996
  H       1.772360      2.700712      4.028904
  H       3.372224      2.273458      3.354453
  H       3.293290      3.880376      5.560263
  H       4.375908      4.339901      4.241264
  H       1.507027      5.368131      4.679518
  H       2.984353      6.335300      4.748067
  H       1.609775      6.271047      2.399149
  H       3.393560      6.054996      2.342297
31
Coordinates from ORCA-job SL_m1_shell2_cation_opt E -1418.940994237220
  O       1.897227      0.695145      1.727262
  S       1.208752      0.622604      0.424650
  O       1.863275      1.358151     -0.715603
  C       0.905970     -1.110265     -0.106548
  C      -0.587647     -1.321009      0.138547
  C      -1.292171     -0.000708     -0.217921
  C      -0.557938      1.110250      0.527614
  H       1.170421     -1.153345     -1.167818
  H       1.571026     -1.749381      0.479387
  H      -0.956514     -2.152507     -0.468152
  H      -0.765651     -1.572410      1.190425
  H      -1.247429      0.173714     -1.299239
  H      -2.346596     -0.017589      0.071553
  H      -0.649594      2.113654      0.107863
  H      -0.790728      1.133621      1.597083
  Li      3.114267      2.679447     -0.435921
  O       3.303785      3.756047      1.039472
  S       2.244944      3.977936      2.087124
  O       0.853145      3.705212      1.683851
  C       2.713078      3.098494      3.630259
  C       3.330229      4.185275      4.507387
  C       2.521086      5.471735      4.268875
  C       2.448945      5.675901      2.756620
  H       1.775090      2.703272      4.032911
  H       3.372924      2.273710      3.355008
  H       3.304005      3.882739      5.557947
  H       4.379961      4.342479      4.233575
  H       1.512366      5.368495      4.685175
  H       2.989340      6.337204      4.745556
  H       1.601064      6.268211      2.403939
  H       3.385227      6.058256      2.337897
31
Coordinates from ORCA-job SL_m1_shell2_cation_opt E -1418.940999952589
  O       1.891931      0.690883      1.734653
  S       1.207550      0.619426      0.430391
  O       1.866040      1.354080     -0.708135
  C       0.905236     -1.112278     -0.104596
  C      -0.589561     -1.322342      0.133252
  C      -1.291452     -0.000236     -0.222819
  C      -0.558761      1.108256      0.528032
  H       1.175083     -1.153910     -1.164514
  H       1.566468     -1.753506      0.483447
  H      -0.956680     -2.151632     -0.477500
  H      -0.772784     -1.576224      1.183614
  H      -1.242273      0.176717     -1.303521
  H      -2.346905     -0.016224      0.062864
  H      -0.648828      2.112595      0.110171
  H      -0.795285      1.129596      1.596750
  Li      3.109996      2.681518     -0.434052
  O       3.303529      3.759525      1.040657
  S       2.243791      3.978444      2.088768
  O       0.852996      3.701191      1.685812
  C       2.714727      3.100376      3.631239
  C       3.335079      4.187583      4.505500
  C       2.524296      5.473831      4.269463
  C       2.445363      5.676813      2.757293
  H       1.777181      2.706752      4.036573
  H       3.373245      2.274503      3.355985
  H       3.313015      3.885381      5.556242
  H       4.383669      4.345016      4.227492
  H       1.517542      5.370178      4.690300
  H       2.994679      6.339708      4.743231
  H       1.594352      6.266751      2.408052
  H       3.378621      6.061568      2.334138
31
Coordinates from ORCA-job SL_m1_shell2_cation_opt E -1418.941004405272
  O       1.890242      0.688032      1.737577
  S       1.207292      0.617959      0.432854
  O       1.867571      1.352294     -0.705005
  C       0.904746     -1.112655     -0.105027
  C      -0.590126     -1.322919      0.131882
  C      -1.291596     -0.000107     -0.222834
  C      -0.558533      1.107657      0.529149
  H       1.175037     -1.151882     -1.164912
  H       1.565405     -1.755785      0.481610
  H      -0.957109     -2.151145     -0.480395
  H      -0.774039     -1.578316      1.181744
  H      -1.242169      0.177995     -1.303316
  H      -2.347035     -0.015657      0.062888
  H      -0.648088      2.112082      0.111358
  H      -0.796036      1.129027      1.597662
  Li      3.108468      2.683544     -0.434293
  O       3.307246      3.761033      1.042096
  S       2.244962      3.978673      2.088568
  O       0.855243      3.699263      1.683740
  C       2.714998      3.100951      3.631011
  C       3.335559      4.188221      4.505216
  C       2.524387      5.474395      4.269384
  C       2.444401      5.677071      2.757118
  H       1.777178      2.708027      4.036463
  H       3.373329      2.274667      3.356582
  H       3.313719      3.885930      5.555926
  H       4.384031      4.345805      4.226901
  H       1.517963      5.370630      4.690910
  H       2.995208      6.340436      4.742386
  H       1.592685      6.266246      2.408238
  H       3.376922      6.062868      2.333301
31
Coordinates from ORCA-job SL_m1_shell2_cation_opt E -1418.941008772100
  O       1.889190      0.685598      1.738988
  S       1.207044      0.617312      0.433806
  O       1.868395      1.352131     -0.703552
  C       0.904346     -1.112350     -0.106524
  C      -0.590061     -1.323433      0.132522
  C      -1.292341     -0.000825     -0.221017
  C      -0.558472      1.107460      0.529919
  H       1.172474     -1.148669     -1.167091
  H       1.566304     -1.756988      0.476962
  H      -0.957446     -2.151587     -0.479636
  H      -0.772364     -1.579498      1.182502
  H      -1.244485      0.177389     -1.301534
  H      -2.347357     -0.016440      0.066237
  H      -0.647915      2.111409      0.110970
  H      -0.795994      1.130088      1.598384
  Li      3.107742      2.686280     -0.435834
  O       3.312917      3.761579      1.043652
  S       2.247478      3.979132      2.087558
  O       0.858556      3.699385      1.679941
  C       2.714925      3.101061      3.630241
  C       3.334237      4.188173      4.505830
  C       2.523292      5.474252      4.269242
  C       2.445207      5.677377      2.756833
  H       1.776596      2.708285      4.034677
  H       3.373571      2.274770      3.356706
  H       3.310703      3.885524      5.556390
  H       4.383098      4.345883      4.229123
  H       1.516323      5.370491      4.689434
  H       2.993491      6.340327      4.742817
  H       1.594123      6.266778      2.406797
  H       3.378284      6.063444      2.334438
31
Coordinates from ORCA-job SL_m1_shell2_cation_opt E -1418.941012867494
  O       1.890171      0.684143      1.737739
  S       1.207602      0.618520      0.432473
  O       1.869091      1.354526     -0.704474
  C       0.904117     -1.110138     -0.109883
  C      -0.588850     -1.322742      0.136729
  C      -1.293789     -0.001344     -0.215145
  C      -0.557701      1.108992      0.531063
  H       1.165806     -1.143029     -1.172231
  H       1.570119     -1.755880      0.467677
  H      -0.958134     -2.152035     -0.472779
  H      -0.765615     -1.578220      1.187817
  H      -1.250872      0.175538     -1.296069
  H      -2.347539     -0.017530      0.076666
  H      -0.647927      2.111683      0.109303
  H      -0.792980      1.134714      1.599910
  Li      3.108578      2.690279     -0.439371
  O       3.323131      3.760319      1.045580
  S       2.252875      3.978229      2.084796
  O       0.865333      3.699235      1.671351
  C       2.714314      3.099601      3.628757
  C       3.329482      4.186733      4.507578
  C       2.519061      5.472336      4.268145
  C       2.447510      5.676331      2.755460
  H       1.774847      2.706113      4.029809
  H       3.374447      2.273883      3.357236
  H       3.301447      3.883643      5.557882
  H       4.379426      4.344972      4.235407
  H       1.510242      5.368170      4.683810
  H       2.986586      6.338556      4.744152
  H       1.598406      6.266359      2.401773
  H       3.382676      6.062382      2.337616
31
Coordinates from ORCA-job SL_m1_shell2_cation_opt E -1418.941016268857
  O       1.888046      0.683789      1.739877
  S       1.207217      0.619409      0.433335
  O       1.869760      1.356434     -0.702602
  C       0.904339     -1.109168     -0.109441
  C      -0.588286     -1.322399      0.138754
  C      -1.294030     -0.001972     -0.214418
  C      -0.558455      1.109726      0.530267
  H       1.164327     -1.141523     -1.172251
  H       1.571589     -1.754594      0.466985
  H      -0.957520     -2.152902     -0.469145
  H      -0.763813     -1.576622      1.190377
  H      -1.251485      0.173603     -1.295580
  H      -2.347748     -0.018618      0.077517
  H      -0.648435      2.111659      0.106729
  H      -0.794286      1.137096      1.598914
  Li      3.107588      2.693878     -0.442036
  O       3.325913      3.760225      1.045441
  S       2.254635      3.978208      2.083493
  O       0.867148      3.700377      1.668249
  C       2.714713      3.098744      3.627502
  C       3.328662      4.185645      4.507523
  C       2.518018      5.470909      4.268082
  C       2.448288      5.676073      2.755473
  H       1.775207      2.704520      4.027685
  H       3.375351      2.273507      3.355759
  H       3.299766      3.881984      5.557648
  H       4.378814      4.344410      4.236404
  H       1.508657      5.366056      4.682299
  H       2.984219      6.337082      4.745502
  H       1.599606      6.266268      2.401136
  H       3.384057      6.062533      2.339301
31
Coordinates from ORCA-job SL_m1_shell2_cation_opt E -1418.941020994456
  O       1.885807      0.685565      1.740782
  S       1.206793      0.622941      0.432821
  O       1.869615      1.362072     -0.701450
  C       0.905347     -1.105873     -0.109540
  C      -0.585993     -1.321100      0.144546
  C      -1.294886     -0.003109     -0.210732
  C      -0.559833      1.112066      0.529032
  H       1.160408     -1.138279     -1.173575
  H       1.576285     -1.749575      0.464474
  H      -0.955800     -2.154574     -0.458922
  H      -0.757191     -1.572035      1.197716
  H      -1.254948      0.169203     -1.292547
  H      -2.348027     -0.021230      0.083237
  H      -0.650712      2.112256      0.101640
  H      -0.794755      1.143137      1.597734
  Li      3.105414      2.700959     -0.447492
  O       3.332292      3.758754      1.044701
  S       2.259376      3.977343      2.080201
  O       0.872406      3.702544      1.660270
  C       2.714770      3.096103      3.624969
  C       3.324816      4.182413      4.508345
  C       2.514518      5.467377      4.267269
  C       2.451497      5.674593      2.754718
  H       1.774573      2.699976      4.021523
  H       3.377102      2.272054      3.353711
  H       3.292391      3.877686      5.558071
  H       4.375874      4.342010      4.241164
  H       1.503260      5.361248      4.676615
  H       2.977461      6.333220      4.748476
  H       1.604552      6.265485      2.397533
  H       3.389448      6.061108      2.343491
31
Coordinates from ORCA-job SL_m1_shell2_cation_opt E -1418.941022714288
  O       1.884520      0.686607      1.741089
  S       1.206349      0.624500      0.432711
  O       1.868844      1.364736     -0.700739
  C       0.906037     -1.104399     -0.109849
  C      -0.584702     -1.321008      0.146353
  C      -1.295375     -0.003998     -0.209323
  C      -0.560825      1.112536      0.528718
  H       1.159614     -1.136965     -1.174218
  H       1.578377     -1.747146      0.463621
  H      -0.954465     -2.155471     -0.455758
  H      -0.754366     -1.570925      1.200020
  H      -1.256615      0.167316     -1.291340
  H      -2.348218     -0.023033      0.085645
  H      -0.652515      2.112124      0.100082
  H      -0.795204      1.144809      1.597502
  Li      3.103308      2.704015     -0.449427
  O       3.333889      3.757927      1.043886
  S       2.261092      3.977332      2.079042
  O       0.874212      3.704078      1.657873
  C       2.714572      3.095267      3.624113
  C       3.323052      4.181090      4.509023
  C       2.513534      5.466435      4.266873
  C       2.453883      5.674170      2.754310
  H       1.773893      2.698341      4.018698
  H       3.377639      2.271678      3.353177
  H       3.288693      3.875928      5.558563
  H       4.374641      4.340617      4.243878
  H       1.501356      5.360196      4.673921
  H       2.975617      6.331889      4.749576
  H       1.608013      6.265717      2.395638
  H       3.393010      6.059974      2.345124
31
Coordinates from ORCA-job SL_m1_shell2_cation_opt E -1418.941023871911
  O       1.884110      0.687425      1.740977
  S       1.206086      0.625597      0.432756
  O       1.867611      1.366731     -0.700255
  C       0.906734     -1.103251     -0.110376
  C      -0.583491     -1.321244      0.147365
  C      -1.295811     -0.004741     -0.207650
  C      -0.561441      1.112505      0.529427
  H       1.159515     -1.135749     -1.174910
  H       1.580006     -1.745425      0.462706
  H      -0.953214     -2.155967     -0.454396
  H      -0.752044     -1.571077      1.201223
  H      -1.258342      0.166439     -1.289727
  H      -2.348282     -0.024589      0.088567
  H      -0.654092      2.111836      0.100348
  H      -0.795064      1.145246      1.598378
  Li      3.100880      2.706641     -0.451214
  O       3.334976      3.757418      1.042721
  S       2.262529      3.977842      2.077869
  O       0.875775      3.705982      1.655856
  C       2.714024      3.094762      3.623082
  C       3.320920      4.179844      4.509844
  C       2.512663      5.465952      4.266431
  C       2.456698      5.674085      2.753824
  H       1.772704      2.697110      4.015391
  H       3.377829      2.271598      3.352624
  H       3.284126      3.874155      5.559145
  H       4.373175      4.339028      4.247154
  H       1.499505      5.359992      4.671070
  H       2.974402      6.330823      4.750464
  H       1.612219      6.266654      2.393467
  H       3.397156      6.058718      2.346620
31
Coordinates from ORCA-job SL_m1_shell2_cation_opt E -1418.941024295226
  O       1.884397      0.687201      1.740868
  S       1.206014      0.625536      0.432984
  O       1.866744      1.367103     -0.700056
  C       0.906917     -1.103151     -0.110827
  C      -0.583182     -1.321690      0.147097
  C      -1.296025     -0.005068     -0.206815
  C      -0.561535      1.111954      0.530542
  H       1.159785     -1.135244     -1.175341
  H       1.580292     -1.745447      0.462029
  H      -0.952870     -2.155975     -0.455287
  H      -0.751535     -1.572284      1.200795
  H      -1.259144      0.166769     -1.288800
  H      -2.348313     -0.025252      0.090014
  H      -0.654605      2.111473      0.101953
  H      -0.794775      1.144216      1.599603
  Li      3.099525      2.707685     -0.452092
  O       3.335280      3.757488      1.041951
  S       2.263146      3.978566      2.077342
  O       0.876383      3.707321      1.655267
  C       2.713770      3.094895      3.622506
  C       3.319764      4.179548      4.510395
  C       2.512322      5.466131      4.266244
  C       2.458365      5.674455      2.753605
  H       1.772116      2.696843      4.013622
  H       3.377986      2.271983      3.352295
  H       3.281436      3.873572      5.559554
  H       4.372422      4.338483      4.249199
  H       1.498634      5.360532      4.669616
  H       2.974073      6.330666      4.750851
  H       1.614854      6.267834      2.392253
  H       3.399622      6.058193      2.347411
