31
Coordinates from ORCA-job SL_m1_shell2_cation_opt E -1418.941024295226
  O           1.88439721560035      0.68720147229135      1.74086776262269
  S           1.20601353305625      0.62553607276725      0.43298377656052
  O           1.86674390543896      1.36710307236739     -0.70005565699329
  C           0.90691720808305     -1.10315137859107     -0.11082674784724
  C          -0.58318166915775     -1.32168956900343      0.14709705833467
  C          -1.29602534366651     -0.00506754373602     -0.20681529809736
  C          -0.56153452834199      1.11195448883489      0.53054227716682
  H           1.15978456823883     -1.13524448937832     -1.17534059411945
  H           1.58029199594978     -1.74544685620399      0.46202856453024
  H          -0.95286995883576     -2.15597545578999     -0.45528725614465
  H          -0.75153516544063     -1.57228393337241      1.20079540564790
  H          -1.25914440492870      0.16676930097263     -1.28879997852087
  H          -2.34831275628404     -0.02525174811260      0.09001370844060
  H          -0.65460545768465      2.11147346278056      0.10195337589221
  H          -0.79477535259942      1.14421593891707      1.59960254596820
  Li          3.09952473007258      2.70768488664842     -0.45209177587175
  O           3.33528038030797      3.75748829137115      1.04195143786517
  S           2.26314579893122      3.97856584936187      2.07734201416636
  O           0.87638278235832      3.70732108419191      1.65526663173325
  C           2.71377004997105      3.09489476312496      3.62250631469267
  C           3.31976378334961      4.17954813615781      4.51039478986397
  C           2.51232188007292      5.46613119108862      4.26624415843688
  C           2.45836525457339      5.67445530199295      2.75360545528836
  H           1.77211609353812      2.69684314013278      4.01362242470368
  H           3.37798567431098      2.27198318451597      3.35229511148074
  H           3.28143552630476      3.87357160741210      5.55955432692719
  H           4.37242185464758      4.33848299538626      4.24919941170658
  H           1.49863389424115      5.36053184798286      4.66961625950189
  H           2.97407252627390      6.33066560811623      4.75085120416205
  H           1.61485407908433      6.26783376581629      2.39225283840060
  H           3.39962245593428      6.05819326945636      2.34741065950124
