31
C14 SL [Li(M)2]+ G2_Li2 r2SCAN-3c opt
O      1.8843970000     0.6872010000     1.7408680000
S      1.2060140000     0.6255360000     0.4329840000
O      1.8667440000     1.3671030000    -0.7000560000
C      0.9069170000    -1.1031510000    -0.1108270000
C     -0.5831820000    -1.3216900000     0.1470970000
C     -1.2960250000    -0.0050680000    -0.2068150000
C     -0.5615350000     1.1119540000     0.5305420000
H      1.1597850000    -1.1352440000    -1.1753410000
H      1.5802920000    -1.7454470000     0.4620290000
H     -0.9528700000    -2.1559750000    -0.4552870000
H     -0.7515350000    -1.5722840000     1.2007950000
H     -1.2591440000     0.1667690000    -1.2888000000
H     -2.3483130000    -0.0252520000     0.0900140000
H     -0.6546050000     2.1114730000     0.1019530000
H     -0.7947750000     1.1442160000     1.5996030000
Li     3.0995250000     2.7076850000    -0.4520920000
O      3.3352800000     3.7574880000     1.0419510000
S      2.2631460000     3.9785660000     2.0773420000
O      0.8763830000     3.7073210000     1.6552670000
C      2.7137700000     3.0948950000     3.6225060000
C      3.3197640000     4.1795480000     4.5103950000
C      2.5123220000     5.4661310000     4.2662440000
C      2.4583650000     5.6744550000     2.7536050000
H      1.7721160000     2.6968430000     4.0136220000
H      3.3779860000     2.2719830000     3.3522950000
H      3.2814360000     3.8735720000     5.5595540000
H      4.3724220000     4.3384830000     4.2491990000
H      1.4986340000     5.3605320000     4.6696160000
H      2.9740730000     6.3306660000     4.7508510000
H      1.6148540000     6.2678340000     2.3922530000
H      3.3996220000     6.0581930000     2.3474110000
