37
 energy: -53.025932651152 gnorm: 0.000835321352 xtb: 6.7.1pre (5071a88)
C            6.52290549663028        0.49033801031099        1.51990085665893
O            6.42209265550458       -0.09316380762287        0.24454809618734
C            5.11677086884624       -0.10676669822815       -0.29005208251726
C            4.17174717381533       -1.09210627865638        0.42419597696632
O            3.00954572183241       -1.37461392723330       -0.30807184599403
C            2.09227303554592       -0.29918028699923       -0.39345549432864
C            0.72107038426934       -0.83651449540519       -0.79433934747606
O           -0.14311066109575        0.25295531827599       -0.94113831106477
C           -1.48787758013491       -0.14395721703174       -1.17986804281608
C           -2.41556572223450        1.09314614598911       -1.27922312341375
O           -3.69504869333281        0.75641473000885       -1.48364258186329
C           -3.89467065242556       -0.92695857968050        1.81960205516793
C           -4.81234191452993       -0.40547435259616        0.81896832073135
O           -5.60384448737446        0.66486412079487        1.33862990959192
C           -6.27629274183891        1.35979141112353        0.32563481084874
H            6.06316331558252       -0.13223898051799        2.29500131559412
H            6.05632492895075        1.48292780924486        1.53958452960553
H            7.58769608894630        0.58793166893062        1.72717848979673
H            5.23141084884516       -0.42436028741661       -1.32932660791467
H            4.69071148877341        0.90685797680832       -0.26931852947369
H            4.68827608643014       -2.04970869841922        0.53985967361343
H            3.90589965083428       -0.70405556190032        1.42011159941879
H            2.00485752368738        0.20928597078946        0.57612974616385
H            2.41533229683017        0.43682491866642       -1.14140447334906
H            0.81144508163116       -1.40410765196210       -1.73563817411956
H            0.35490032624699       -1.52927529743788       -0.01987466922084
H           -1.54934638617702       -0.72264540444043       -2.11422502227385
H           -1.84464486099231       -0.78212653782893       -0.35998543203634
H           -2.02275073309707        1.72873425054768       -2.10995474143278
H           -2.25871196940072        1.68167919686025       -0.34203947923864
H           -3.32770367105428       -0.21870882627329        2.39979202974964
H           -3.40350271816224       -1.86077039976979        1.59456654629610
H           -4.27214012951139        0.01461865150201       -0.12312068686913
H           -5.47842188480045       -1.19791774506260        0.42885134409636
H           -6.68778326122863        2.26682811382356        0.77342721286367
H           -5.59090605098266        1.61334257372783       -0.49111671866295
H           -7.10175886476440        0.75811018706652       -0.08910060946288
