13
Coordinates from ORCA-job PC_anion_cpcm_40_default E -381.725136586019
  C           1.63482248094765     -0.33968177367899      0.18580935982285
  C           0.12982032357997     -0.43011530516366      0.34887716217374
  C          -0.56320708819842      0.93688337564674      0.45562622203006
  O          -1.82902352039955      0.73626601651288     -0.15761417730381
  C          -1.56529900285251     -0.14647001350123     -1.29579327350042
  O          -2.56243823361612     -0.70243516517631     -1.82897145508944
  O          -0.49079326697587     -1.03613846850206     -0.79352522765150
  H           2.08096177092696      0.14693672947063      1.06185361478657
  H           1.88685634771866      0.24775194276173     -0.70403495039871
  H           2.07906981786280     -1.33518603513056      0.08658654677890
  H          -0.11066302952573     -1.03998597518443      1.23549725205237
  H           0.01894934714235      1.70273690903499     -0.08550653105268
  H          -0.70905593661014      1.25943777291026      1.49119544735206
