13
 energy: -23.972716743015 gnorm: 0.000738263054 xtb: 6.7.1pre (5071a88)
C            1.65112781334297       -0.32413989648066        0.17853769080710
C            0.12631086948355       -0.43434757916611        0.22546944382393
C           -0.57436651733084        0.95014324760921        0.36701393289999
O           -1.35508472671250        1.08997866489430       -0.77163192016991
C           -1.62607580675337       -0.26590293044366       -1.28179257333875
O           -2.72672151788605       -0.82604310736449       -1.01272720773406
O           -0.36590605145347       -0.95653716163423       -0.96859753777111
H            2.03131480864859        0.08209696065963        1.11558649380481
H            1.94274931313818        0.32553125566850       -0.64368681423787
H            2.08346624197721       -1.30908276490901        0.01276321241504
H           -0.15983516161459       -1.08038775867478        1.08009464063137
H            0.15843782556818        1.77126510230267        0.41082408450737
H           -1.18541708040782        0.97742597753867        1.28814654436206
