10
 energy: -20.117657973248 gnorm: 0.000387551324 xtb: 6.7.1pre (5071a88)
C           -0.20926424554594       -0.94419530250275       -0.09883666130205
C           -0.87338979229174        0.42312492293163       -0.05855473999245
O            0.15308663599143        1.29756985129979        0.20616167628969
C            1.36450639809944        0.65631915887940        0.21894878483705
O            2.41538549358210        1.16484713312604        0.26692653221374
O            1.11816766566481       -0.69049412157113        0.14926495506007
H           -0.33624602486039       -1.48285519037441       -1.06200969018464
H           -0.57676344591826       -1.67602734504750        0.65379534783814
H           -1.39886278578597        0.70163364141716       -0.99665329073256
H           -1.65661989893549        0.55007725184177        0.72095709597304
