6
 energy: -8.739911786145 gnorm: 0.000190510872 xtb: 6.7.1pre (5071a88)
C           -0.44973186387013       -0.00006621554973        0.00827495854581
C            0.97818870540221        0.00013772717830       -0.01800836469918
N            2.21574293484099        0.00032702513589       -0.04076645608636
H           -0.92984419393417       -0.61940591753960       -0.80909069771524
H           -0.89720461582530       -0.40588737059638        0.96600884564821
H           -0.91715096661361        1.02489476137153       -0.10641829569325
