6
 energy: -8.097136592046 gnorm: 0.000277939023 xtb: 6.7.1pre (5071a88)
C           -0.47057935006619       -0.00006952433037        0.00865885710451
C            0.93252918851635        0.00013258827576       -0.01716173635961
N            2.07839569208289        0.00030506115038       -0.03824398830648
H           -0.86198037062607       -0.62314436671375       -0.81534330996276
H           -0.82915002150116       -0.40833109940881        0.97050413083514
H           -0.84921513840582        1.03110735102679       -0.10841396331082
