10
Coordinates from ORCA-job EC_cation_cpcm_20_default E -342.068341122267
  C          -0.21954934947016     -0.93036490790149     -0.10642283539748
  C          -0.86926222021957      0.40664981211264     -0.06345844957546
  O           0.16215288283309      1.31831473432516      0.13793594306391
  C           1.38409076149816      0.66554025941767      0.21520953212048
  O           2.43393082541783      1.17093379123326      0.37629892297137
  O           1.14052088781933     -0.69191877906704      0.06591815856944
  H          -0.38149139357206     -1.50964585015147     -1.04706742839409
  H          -0.57167153935833     -1.64897458454706      0.67364604533714
  H          -1.43749557686335      0.68328601877050     -0.98500525866817
  H          -1.64122527808496      0.53617950580783      0.73294537997290
