10
 energy: -20.117657547937 gnorm: 0.000753734720 xtb: 6.7.1pre (5071a88)
C           -0.20961823891144       -0.94435211870045       -0.09909545515047
C           -0.87319057069685        0.42333677366338       -0.05887191394817
O            0.15305706444765        1.29749514544647        0.20689841378129
C            1.36444367929697        0.65553880826653        0.21883352539731
O            2.41517096026254        1.16516177729158        0.26763194491762
O            1.11894728627683       -0.69025994188637        0.14800574434289
H           -0.33685152109105       -1.48400016651978       -1.06186321174093
H           -0.57620369270711       -1.67486504168774        0.65477761757074
H           -1.39902675444934        0.70256529281737       -0.99687524974080
H           -1.65672821242820        0.54937947130901        0.72055859457056
