18
 energy: -28.145418878471 gnorm: 0.000580788958 xtb: 6.7.1pre (5071a88)
C           -3.25411869751379        0.09117547888450        0.13492036577136
C           -1.95587676094597       -0.62235299060759       -0.26253572504526
O           -0.94258927540432       -0.44211472108625        0.66480210006536
C           -0.17170979223501        0.82898674317750        0.50040672157763
O           -0.40469021434678        1.53903805577191       -0.52769086008414
O            1.16546602877721        0.51131423142397        0.86497657367567
C            1.93071357723531       -0.05559496023939       -0.18420699699117
C            3.41068296766427       -0.04294707140968        0.17953834527482
H           -3.05242197711235        1.15778476787291        0.17479126837532
H           -3.58187787246024       -0.24368907747856        1.11784307876601
H           -4.03921489926645       -0.10587266223740       -0.59567638832412
H           -1.63730778459699       -0.23532359386473       -1.24364220160917
H           -2.13599634434151       -1.70778114156441       -0.34347011182988
H            1.59782912589019       -1.09131291682355       -0.37218302939282
H            1.75718366958695        0.53168922071242       -1.09940605770846
H            4.00627340798122       -0.46906425655600       -0.62895523562932
H            3.57260731555707       -0.62261524181523        1.08587144942722
H            3.73504753553015        0.97868014584021        0.36290028367920
