18
 energy: -27.516547622754 gnorm: 0.000389478433 xtb: 6.7.1pre (5071a88)
C           -2.93865707093637        0.41497385013690        0.26318321410407
C           -2.40312590344505       -0.91083321080234       -0.18434861249593
O           -1.01593051000737       -1.10809421681653        0.03434244718242
C           -0.15272367903901       -0.14160122286543       -0.23956084428626
O           -0.43211690280060        0.96495398205671       -0.63730026906048
O            1.07790396716585       -0.55959640916744       -0.01054479306375
C            2.12600850145840        0.33050168125980       -0.37414495413709
C            3.34041318166685        0.05721004122955        0.46226810076713
H           -2.40369946354770        1.22389590549637       -0.27094035220084
H           -2.74558357393416        0.60149694853514        1.32157143598405
H           -3.99946359740371        0.49661437595549        0.04180871359437
H           -2.62241432510369       -1.09579955655004       -1.24894582291541
H           -2.87240270920098       -1.74301577101912        0.36575213132176
H            2.35773858304834        0.18952074116593       -1.44331852145507
H            1.74476444575833        1.36704303104101       -0.29113013327294
H            4.16826103436998        0.68074194782522        0.13626688688612
H            3.64482594233914       -0.99088548762489        0.38351917649064
H            3.12620208961183        0.22287338014365        1.51980577655718
