18

C  -3.11179393  0.38482648  0.36486773
C  -2.38309399 -0.81856154 -0.20354103
O  -1.05265290 -0.88697185  0.32383366
C  -0.11577805 -0.17525139 -0.35052449
O  -0.30873487  0.50942525 -1.34357285
O   1.07664877 -0.35264040  0.27136323
C   2.16274988  0.35049604 -0.33837247
C   3.42103240  0.06199436  0.45720811
H  -2.61866415  1.31721547  0.07234308
H  -3.11034273  0.35346925  1.45937673
H  -4.14723067  0.41252966  0.01390782
H  -2.37875443 -0.80341679 -1.29960588
H  -2.89631954 -1.73633524  0.10190591
H   2.29284209  0.00840310 -1.37131338
H   1.95932537  1.42728094 -0.32921723
H   4.28226215  0.58061079  0.02683808
H   3.62805286 -1.01315745  0.47471805
H   3.30045175  0.38008333  1.49806851
