12
Coordinates from ORCA-job DMC_cation_cpcm_5_moread E -343.251952606999
  C          -2.39995682285534     -0.08082648232669      0.11521700727652
  O          -1.06033283864720     -0.71347733599662      0.31121033105416
  C           0.00371042832711     -0.09222142001848     -0.02950410024474
  O          -0.05156870078027      1.08163999009699     -0.54504712919940
  O           1.12340521182245     -0.67906235926160      0.15969281598588
  C           2.40422683340101      0.00245839536623     -0.19787986779752
  H          -3.08578867951187     -0.83217654895704      0.49595382273579
  H          -2.54286300262981      0.09612721967915     -0.95093429407804
  H          -2.43557372605062      0.83627817092564      0.70374069168041
  H           2.48683860296977      0.91013695254813      0.40022879109227
  H           2.39979536493786      0.20240501434757     -1.26955436718515
  H           3.15810733901688     -0.73128160640329      0.07291983867984
