12
Coordinates from ORCA-job DMC_cation_cpcm_5_moread E -343.241927326334
  C      -2.318878     -0.114206      0.123037
  O      -1.049280     -0.725197      0.316030
  C      -0.000232      0.005054     -0.063354
  O      -0.050600      1.103204     -0.539542
  O       1.114073     -0.687469      0.174210
  C       2.325639     -0.033210     -0.181440
  H      -3.050859     -0.833872      0.479389
  H      -2.479981      0.106427     -0.933950
  H      -2.385824      0.815479      0.691419
  H       2.433862      0.899546      0.375435
  H       2.339669      0.190449     -1.249913
  H       3.122410     -0.726204      0.074721
12
Coordinates from ORCA-job DMC_cation_cpcm_5_moread E -343.244745618551
  C      -2.345840     -0.133001      0.124385
  O      -1.044039     -0.676346      0.356669
  C      -0.001012      0.050903     -0.062996
  O      -0.052651      1.151045     -0.556230
  O       1.112394     -0.639724      0.213317
  C       2.353228     -0.051114     -0.183734
  H      -3.051214     -0.890613      0.460494
  H      -2.471461      0.101534     -0.946842
  H      -2.469335      0.798721      0.696165
  H       2.517717      0.883815      0.372196
  H       2.330010      0.188690     -1.260969
  H       3.122203     -0.783909      0.053590
12
Coordinates from ORCA-job DMC_cation_cpcm_5_moread E -343.246098203181
  C      -2.357262     -0.157817      0.105492
  O      -1.034071     -0.602429      0.440201
  C       0.002824      0.131792      0.015029
  O      -0.052963      1.202896     -0.547938
  O       1.110798     -0.566156      0.297975
  C       2.362830     -0.075502     -0.203814
  H      -3.025439     -0.965569      0.399311
  H      -2.404983      0.095051     -0.970647
  H      -2.578112      0.764364      0.674089
  H       2.624257      0.852980      0.336431
  H       2.261103      0.180438     -1.275528
  H       3.091017     -0.860047     -0.004557
12
Coordinates from ORCA-job DMC_cation_cpcm_5_moread E -343.246964827513
  C      -2.360123     -0.169507      0.097385
  O      -1.027895     -0.556195      0.477983
  C       0.001785      0.152889      0.003942
  O      -0.053610      1.226522     -0.554414
  O       1.107926     -0.519887      0.337196
  C       2.364876     -0.087112     -0.212201
  H      -2.997520     -1.004947      0.380609
  H      -2.377179      0.103055     -0.970862
  H      -2.626960      0.739040      0.671343
  H       2.673002      0.830129      0.326037
  H       2.233349      0.185973     -1.272278
  H       3.062348     -0.899961     -0.018696
12
Coordinates from ORCA-job DMC_cation_cpcm_5_moread E -343.247533810316
  C      -2.353987     -0.174441      0.084395
  O      -1.027056     -0.513666      0.529456
  C       0.003824      0.179997      0.042844
  O      -0.053697      1.229381     -0.555719
  O       1.112321     -0.476786      0.389252
  C       2.357272     -0.092329     -0.224298
  H      -2.969729     -1.034769      0.340992
  H      -2.334439      0.106973     -0.977044
  H      -2.680207      0.712889      0.658143
  H       2.724640      0.806818      0.304392
  H       2.190216      0.186213     -1.273437
  H       3.030843     -0.930279     -0.052933
12
Coordinates from ORCA-job DMC_cation_cpcm_5_moread E -343.247958204337
  C      -2.345975     -0.172478      0.073281
  O      -1.028880     -0.467540      0.581453
  C       0.006000      0.198128      0.076404
  O      -0.053672      1.218155     -0.568527
  O       1.119644     -0.430426      0.441193
  C       2.347697     -0.090476     -0.234100
  H      -2.937451     -1.059570      0.299472
  H      -2.297886      0.111795     -0.981196
  H      -2.738232      0.681350      0.650923
  H       2.782640      0.777132      0.289977
  H       2.152208      0.190249     -1.272379
  H       2.993907     -0.956319     -0.090457
12
Coordinates from ORCA-job DMC_cation_cpcm_5_moread E -343.248093502912
  C      -2.347160     -0.169398      0.072424
  O      -1.030173     -0.452777      0.591896
  C       0.006312      0.200739      0.080426
  O      -0.054176      1.215179     -0.577455
  O       1.122050     -0.414845      0.452464
  C       2.348684     -0.087413     -0.234916
  H      -2.929334     -1.066306      0.288243
  H      -2.297028      0.112271     -0.981914
  H      -2.759098      0.669585      0.656156
  H       2.804698      0.766723      0.291172
  H       2.150461      0.189475     -1.272911
  H       2.984763     -0.963234     -0.099542
12
Coordinates from ORCA-job DMC_cation_cpcm_5_moread E -343.248293415713
  C      -2.354947     -0.163622      0.073653
  O      -1.032021     -0.433483      0.596698
  C       0.006329      0.202457      0.081399
  O      -0.055122      1.218200     -0.587167
  O       1.124230     -0.393954      0.458785
  C       2.356495     -0.081567     -0.234488
  H      -2.922336     -1.074555      0.277057
  H      -2.309205      0.107741     -0.983306
  H      -2.787515      0.654035      0.669141
  H       2.835610      0.753546      0.297676
  H       2.161492      0.182737     -1.276044
  H       2.976990     -0.971534     -0.107362
12
Coordinates from ORCA-job DMC_cation_cpcm_5_moread E -343.248480222039
  C      -2.365883     -0.158620      0.075575
  O      -1.033382     -0.424666      0.591222
  C       0.006264      0.199406      0.081911
  O      -0.055413      1.225748     -0.584907
  O       1.124853     -0.383813      0.454388
  C       2.367498     -0.076325     -0.233988
  H      -2.923307     -1.077419      0.273900
  H      -2.327045      0.098934     -0.985039
  H      -2.801814      0.648696      0.678718
  H       2.851651      0.749765      0.303338
  H       2.178844      0.172568     -1.280410
  H       2.977735     -0.974273     -0.108665
12
Coordinates from ORCA-job DMC_cation_cpcm_5_moread E -343.248920614881
  C      -2.404276     -0.140249      0.083205
  O      -1.037941     -0.422708      0.557439
  C       0.006151      0.168660      0.083274
  O      -0.055285      1.240734     -0.561914
  O       1.125737     -0.377533      0.423760
  C       2.406103     -0.056974     -0.231802
  H      -2.945186     -1.069998      0.274892
  H      -2.390712      0.069280     -0.988285
  H      -2.817297      0.655602      0.703280
  H       2.870975      0.760991      0.319252
  H       2.242279      0.137819     -1.293454
  H       2.999454     -0.965624     -0.103605
12
Coordinates from ORCA-job DMC_cation_cpcm_5_moread E -343.249578485904
  C      -2.407168     -0.135815      0.090672
  O      -1.039742     -0.465624      0.528311
  C       0.005460      0.137946      0.067707
  O      -0.054973      1.218610     -0.566448
  O       1.124874     -0.420508      0.394741
  C       2.409764     -0.052341     -0.224771
  H      -2.976047     -1.043675      0.295921
  H      -2.407113      0.076107     -0.982157
  H      -2.770266      0.687317      0.708208
  H       2.823714      0.791154      0.330408
  H       2.259817      0.144903     -1.289797
  H       3.031679     -0.938074     -0.086751
12
Coordinates from ORCA-job DMC_cation_cpcm_5_moread E -343.250857125473
  C      -2.426430     -0.111529      0.114213
  O      -1.047756     -0.565334      0.440714
  C       0.003642      0.033241      0.028544
  O      -0.055325      1.144936     -0.599197
  O       1.124140     -0.517413      0.309433
  C       2.431113     -0.026876     -0.204043
  H      -3.042338     -0.973615      0.350371
  H      -2.472933      0.099758     -0.958323
  H      -2.652182      0.756679      0.732078
  H       2.708378      0.858451      0.366956
  H       2.328857      0.166975     -1.276029
  H       3.100833     -0.865273     -0.038674
12
Coordinates from ORCA-job DMC_cation_cpcm_5_moread E -343.251336364836
  C      -2.405102     -0.098719      0.115567
  O      -1.051883     -0.646473      0.409130
  C       0.003476     -0.042113      0.010008
  O      -0.055466      1.058833     -0.637201
  O       1.125884     -0.598746      0.276258
  C       2.409676     -0.014108     -0.198950
  H      -3.066270     -0.911662      0.392866
  H      -2.457715      0.147719     -0.943961
  H      -2.537985      0.796958      0.724971
  H       2.595210      0.891133      0.381631
  H       2.313655      0.221281     -1.257928
  H       3.126519     -0.804105     -0.006348
12
Coordinates from ORCA-job DMC_cation_cpcm_5_moread E -343.251689710209
  C      -2.406974     -0.088519      0.121549
  O      -1.056085     -0.668688      0.374161
  C       0.002566     -0.065915     -0.009731
  O      -0.054976      1.057640     -0.625109
  O       1.126103     -0.620969      0.242515
  C       2.412088     -0.004005     -0.193171
  H      -3.078984     -0.887307      0.417995
  H      -2.495950      0.137005     -0.942336
  H      -2.508063      0.807510      0.732195
  H       2.566670      0.901316      0.391838
  H       2.351791      0.211177     -1.261155
  H       3.141814     -0.779246      0.017294
12
Coordinates from ORCA-job DMC_cation_cpcm_5_moread E -343.251846018628
  C      -2.402570     -0.084650      0.116425
  O      -1.058135     -0.683730      0.358434
  C       0.002894     -0.074372     -0.012849
  O      -0.053598      1.067030     -0.591648
  O       1.126686     -0.637701      0.225477
  C       2.407115     -0.000377     -0.196989
  H      -3.084931     -0.867421      0.436566
  H      -2.511127      0.121509     -0.950022
  H      -2.488203      0.814165      0.725963
  H       2.547440      0.904101      0.393471
  H       2.364864      0.202378     -1.268751
  H       3.149565     -0.760930      0.029967
12
Coordinates from ORCA-job DMC_cation_cpcm_5_moread E -343.251914633908
  C      -2.397453     -0.078102      0.117201
  O      -1.060804     -0.713681      0.323504
  C       0.002583     -0.099352     -0.027775
  O      -0.053491      1.059910     -0.578447
  O       1.125689     -0.669319      0.188297
  C       2.402146      0.006086     -0.194765
  H      -3.089514     -0.836524      0.472405
  H      -2.533201      0.115992     -0.947831
  H      -2.439448      0.828786      0.720380
  H       2.500029      0.912418      0.402334
  H       2.385636      0.206451     -1.267140
  H       3.157829     -0.732665      0.057880
12
Coordinates from ORCA-job DMC_cation_cpcm_5_moread E -343.251939394402
  C      -2.396990     -0.079435      0.114235
  O      -1.060442     -0.716150      0.319248
  C       0.003131     -0.097044     -0.025954
  O      -0.052852      1.068970     -0.561720
  O       1.125001     -0.674049      0.180591
  C       2.401398      0.004643     -0.197348
  H      -3.088888     -0.831950      0.481914
  H      -2.533479      0.107187     -0.951358
  H      -2.434807      0.831838      0.712010
  H       2.494348      0.910942      0.401606
  H       2.385178      0.205407     -1.269028
  H       3.158403     -0.730359      0.061847
12
Coordinates from ORCA-job DMC_cation_cpcm_5_moread E -343.251947655610
  C      -2.398132     -0.080393      0.113961
  O      -1.060235     -0.716140      0.314700
  C       0.003425     -0.094702     -0.026610
  O      -0.052417      1.075929     -0.552332
  O       1.124218     -0.676313      0.172453
  C       2.402504      0.003542     -0.197775
  H      -3.087823     -0.830834      0.489483
  H      -2.536490      0.100553     -0.952135
  H      -2.433547      0.834383      0.706424
  H       2.491407      0.910039      0.401459
  H       2.388583      0.204680     -1.269182
  H       3.158509     -0.730744      0.065598
12
Coordinates from ORCA-job DMC_cation_cpcm_5_moread E -343.251950710789
  C      -2.399228     -0.080912      0.114245
  O      -1.060253     -0.715361      0.311380
  C       0.003599     -0.092901     -0.027766
  O      -0.052020      1.080634     -0.545979
  O       1.123697     -0.677634      0.165734
  C       2.403579      0.002857     -0.197772
  H      -3.086748     -0.830749      0.494826
  H      -2.540293      0.095766     -0.952189
  H      -2.433735      0.836284      0.702777
  H       2.489759      0.909559      0.401356
  H       2.393266      0.203970     -1.269195
  H       3.158378     -0.731511      0.068625
12
Coordinates from ORCA-job DMC_cation_cpcm_5_moread E -343.251951818701
  C      -2.399884     -0.081091      0.114581
  O      -1.060323     -0.714301      0.310405
  C       0.003696     -0.091945     -0.028492
  O      -0.051736      1.082382     -0.543657
  O       1.123497     -0.678082      0.162296
  C       2.404194      0.002528     -0.197748
  H      -3.086023     -0.831358      0.496843
  H      -2.542584      0.093996     -0.951912
  H      -2.434768      0.837019      0.701544
  H       2.489187      0.909413      0.401184
  H       2.396607      0.203609     -1.269212
  H       3.158135     -0.732172      0.070213
12
Coordinates from ORCA-job DMC_cation_cpcm_5_moread E -343.251951572497
  C      -2.400274     -0.080919      0.115124
  O      -1.060617     -0.715195      0.305920
  C       0.003766     -0.092420     -0.031042
  O      -0.051252      1.084564     -0.539029
  O       1.123107     -0.681054      0.154222
  C       2.404537      0.002483     -0.197581
  H      -3.085046     -0.829866      0.502462
  H      -2.548060      0.091442     -0.951126
  H      -2.432010      0.838817      0.699704
  H       2.484079      0.909997      0.401129
  H       2.403618      0.202844     -1.269216
  H       3.158152     -0.730694      0.075476
12
Coordinates from ORCA-job DMC_cation_cpcm_5_moread E -343.251952207544
  C      -2.400046     -0.080946      0.114959
  O      -1.060470     -0.714537      0.308551
  C       0.003727     -0.092279     -0.029892
  O      -0.051410      1.083090     -0.541961
  O       1.123309     -0.679669      0.158111
  C       2.404310      0.002493     -0.197733
  H      -3.085517     -0.830919      0.499060
  H      -2.545266      0.093579     -0.951283
  H      -2.433623      0.837569      0.701396
  H       2.486181      0.909942      0.400813
  H       2.400679      0.202884     -1.269341
  H       3.158127     -0.731206      0.073363
12
Coordinates from ORCA-job DMC_cation_cpcm_5_moread E -343.251948762221
  C      -2.399531     -0.081143      0.114593
  O      -1.059708     -0.709434      0.322312
  C       0.003639     -0.090575     -0.024657
  O      -0.052212      1.076301     -0.556454
  O       1.124193     -0.672507      0.175086
  C       2.403794      0.002303     -0.198423
  H      -3.086980     -0.837286      0.482724
  H      -2.532178      0.103262     -0.951614
  H      -2.444051      0.831595      0.709364
  H       2.497244      0.909133      0.399466
  H       2.388352      0.203285     -1.269761
  H       3.157437     -0.734933      0.063406
12
Coordinates from ORCA-job DMC_cation_cpcm_5_moread E -343.251952446464
  C      -2.399921     -0.080933      0.115023
  O      -1.060233     -0.712807      0.312967
  C       0.003705     -0.091847     -0.028571
  O      -0.051650      1.080911     -0.546682
  O       1.123545     -0.677819      0.162543
  C       2.404182      0.002422     -0.197961
  H      -3.085978     -0.832988      0.493965
  H      -2.541220      0.096919     -0.951195
  H      -2.436984      0.835643      0.704286
  H       2.488952      0.909830      0.400267
  H       2.397623      0.202772     -1.269547
  H       3.157980     -0.732103      0.070949
12
Coordinates from ORCA-job DMC_cation_cpcm_5_moread E -343.251952606999
  C      -2.399957     -0.080826      0.115217
  O      -1.060333     -0.713477      0.311210
  C       0.003710     -0.092221     -0.029504
  O      -0.051569      1.081640     -0.545047
  O       1.123405     -0.679062      0.159693
  C       2.404227      0.002458     -0.197880
  H      -3.085789     -0.832177      0.495954
  H      -2.542863      0.096127     -0.950934
  H      -2.435574      0.836278      0.703741
  H       2.486839      0.910137      0.400229
  H       2.399795      0.202405     -1.269554
  H       3.158107     -0.731282      0.072920
