13
Coordinates from ORCA-job PC_optfreq E -381.660923530137
  C       1.583626     -0.338288      0.054397
  C       0.119798     -0.420765      0.465192
  C      -0.580686      0.955929      0.520491
  O      -1.536891      0.900638     -0.517985
  C      -1.543081     -0.317687     -1.088214
  O      -2.261602     -0.637900     -1.974707
  O      -0.631599     -1.120046     -0.518743
  H       2.151951      0.180080      0.821850
  H       1.681034      0.194200     -0.889025
  H       1.984583     -1.340186     -0.070884
  H       0.020096     -0.969659      1.408167
  H       0.108962      1.780275      0.321121
  H      -1.096192      1.133408      1.468342
13
Coordinates from ORCA-job PC_optfreq E -381.662106072595
  C       1.585080     -0.341162      0.055909
  C       0.125301     -0.417523      0.469399
  C      -0.579309      0.959483      0.526459
  O      -1.542278      0.906277     -0.525998
  C      -1.554674     -0.321998     -1.100603
  O      -2.279289     -0.645627     -1.990734
  O      -0.633070     -1.126395     -0.521982
  H       2.160622      0.181749      0.825737
  H       1.682475      0.196506     -0.892470
  H       1.992793     -1.347626     -0.069170
  H       0.024889     -0.964121      1.414501
  H       0.113902      1.785518      0.332558
  H      -1.096441      1.134919      1.476393
13
Coordinates from ORCA-job PC_optfreq E -381.662262371523
  C       1.583168     -0.343258      0.054138
  C       0.128391     -0.414426      0.472923
  C      -0.578343      0.960049      0.530072
  O      -1.539249      0.912021     -0.532349
  C      -1.555377     -0.322934     -1.103308
  O      -2.280678     -0.647421     -1.993342
  O      -0.632944     -1.131112     -0.519705
  H       2.163898      0.181519      0.820815
  H       1.679773      0.195411     -0.894886
  H       1.994510     -1.349071     -0.069745
  H       0.025458     -0.960119      1.417914
  H       0.114514      1.787365      0.341591
  H      -1.103122      1.131976      1.475881
13
Coordinates from ORCA-job PC_optfreq E -381.662303157921
  C       1.580915     -0.344183      0.051500
  C       0.129767     -0.412339      0.476399
  C      -0.577502      0.959521      0.532493
  O      -1.531337      0.916408     -0.539479
  C      -1.552590     -0.322930     -1.104055
  O      -2.278194     -0.647971     -1.992776
  O      -0.635329     -1.134584     -0.514024
  H       2.166722      0.181137      0.814191
  H       1.675621      0.194821     -0.897367
  H       1.993835     -1.348943     -0.072447
  H       0.025482     -0.956688      1.421854
  H       0.114998      1.788262      0.350736
  H      -1.112388      1.127488      1.472976
13
Coordinates from ORCA-job PC_optfreq E -381.662332114369
  C       1.577893     -0.344803      0.047333
  C       0.130488     -0.410623      0.481342
  C      -0.577057      0.958966      0.535285
  O      -1.518067      0.921158     -0.549534
  C      -1.548657     -0.323308     -1.102966
  O      -2.270939     -0.647853     -1.993801
  O      -0.640537     -1.138434     -0.503529
  H       2.170308      0.180927      0.804541
  H       1.668332      0.194010     -0.901782
  H       1.991203     -1.348865     -0.077706
  H       0.027402     -0.952507      1.428172
  H       0.115570      1.789516      0.364192
  H      -1.125939      1.121815      1.468452
13
Coordinates from ORCA-job PC_optfreq E -381.662401077861
  C       1.567438     -0.346811      0.032626
  C       0.132084     -0.405619      0.498340
  C      -0.577117      0.957736      0.544786
  O      -1.468937      0.935854     -0.584052
  C      -1.527588     -0.322069     -1.104623
  O      -2.247941     -0.649075     -1.994613
  O      -0.659945     -1.149670     -0.464783
  H       2.181416      0.180259      0.771227
  H       1.641349      0.190270     -0.918316
  H       1.979679     -1.349858     -0.096933
  H       0.037665     -0.937822      1.450994
  H       0.115375      1.794647      0.413903
  H      -1.173477      1.102158      1.451445
13
Coordinates from ORCA-job PC_optfreq E -381.662512561195
  C       1.553134     -0.348989      0.012920
  C       0.133062     -0.400197      0.520107
  C      -0.578614      0.956945      0.556894
  O      -1.402042      0.950684     -0.624725
  C      -1.503633     -0.322208     -1.100913
  O      -2.208653     -0.648463     -2.002712
  O      -0.686925     -1.160838     -0.411745
  H       2.193047      0.179952      0.727516
  H       1.603085      0.184415     -0.941364
  H       1.961167     -1.352319     -0.123206
  H       0.056281     -0.918864      1.481127
  H       0.112182      1.800808      0.479048
  H      -1.232092      1.079073      1.427052
13
Coordinates from ORCA-job PC_optfreq E -381.662655269789
  C       1.538137     -0.350433     -0.007153
  C       0.132216     -0.396372      0.541546
  C      -0.581913      0.956996      0.567927
  O      -1.333596      0.961068     -0.660265
  C      -1.476117     -0.321360     -1.098320
  O      -2.163761     -0.648337     -2.013980
  O      -0.715662     -1.166791     -0.356498
  H       2.200595      0.180366      0.684869
  H       1.561139      0.177203     -0.965925
  H       1.937655     -1.356350     -0.150407
  H       0.081279     -0.899970      1.511871
  H       0.105487      1.806290      0.544413
  H      -1.285456      1.057690      1.401921
13
Coordinates from ORCA-job PC_optfreq E -381.662771920071
  C       1.538914     -0.348111     -0.007174
  C       0.127508     -0.401659      0.541563
  C      -0.584728      0.959223      0.564677
  O      -1.341592      0.958026     -0.656056
  C      -1.476377     -0.321328     -1.100260
  O      -2.153600     -0.649374     -2.026205
  O      -0.717606     -1.163207     -0.354051
  H       2.194220      0.184565      0.690115
  H       1.555720      0.174361     -0.969945
  H       1.931325     -1.358305     -0.150749
  H       0.092705     -0.901747      1.514819
  H       0.108308      1.804853      0.542593
  H      -1.274797      1.062702      1.410672
13
Coordinates from ORCA-job PC_optfreq E -381.662801355682
  C       1.535263     -0.349289     -0.011865
  C       0.127904     -0.399349      0.545907
  C      -0.585362      0.959573      0.567906
  O      -1.327325      0.961689     -0.663509
  C      -1.466316     -0.320523     -1.103805
  O      -2.147175     -0.650194     -2.025897
  O      -0.722845     -1.165581     -0.342435
  H       2.195515      0.183849      0.680653
  H       1.547263      0.171745     -0.975457
  H       1.926251     -1.359895     -0.156020
  H       0.098411     -0.895530      1.520987
  H       0.105597      1.806767      0.558654
  H      -1.287180      1.056738      1.404882
13
Coordinates from ORCA-job PC_optfreq E -381.662806583354
  C       1.536946     -0.349179     -0.009776
  C       0.127818     -0.399565      0.543315
  C      -0.584972      0.959581      0.566758
  O      -1.336253      0.961143     -0.659345
  C      -1.470319     -0.320698     -1.104293
  O      -2.151613     -0.649909     -2.025715
  O      -0.719289     -1.165944     -0.348636
  H       2.194008      0.184155      0.685699
  H       1.552179      0.171888     -0.973251
  H       1.928941     -1.359538     -0.152508
  H       0.096379     -0.896793      1.517834
  H       0.107000      1.805876      0.551631
  H      -1.280824      1.058983      1.408287
13
Coordinates from ORCA-job PC_optfreq E -381.662807754272
  C       1.536292     -0.349199     -0.010817
  C       0.127540     -0.399295      0.544021
  C      -0.585158      0.959487      0.567178
  O      -1.334166      0.961729     -0.660290
  C      -1.469723     -0.320649     -1.104113
  O      -2.148744     -0.649719     -2.026990
  O      -0.720451     -1.166368     -0.346168
  H       2.193690      0.184387      0.684101
  H       1.550491      0.171107     -0.974701
  H       1.927661     -1.359800     -0.153373
  H       0.098213     -0.895390      1.519231
  H       0.106950      1.805695      0.554396
  H      -1.282596      1.058015      1.407527
13
Coordinates from ORCA-job PC_optfreq E -381.662807832674
  C       1.536274     -0.349163     -0.010940
  C       0.127449     -0.399283      0.544029
  C      -0.585204      0.959384      0.567186
  O      -1.334121      0.961745     -0.660240
  C      -1.469595     -0.320548     -1.104184
  O      -2.148474     -0.649655     -2.027078
  O      -0.720598     -1.166334     -0.345897
  H       2.193588      0.184446      0.684002
  H       1.550461      0.170980     -0.974891
  H       1.927510     -1.359820     -0.153366
  H       0.098479     -0.895210      1.519364
  H       0.106974      1.805555      0.554549
  H      -1.282743      1.057903      1.407465
