13
Coordinates from ORCA-job PC_optfreq E -381.662807832674
  C           1.53627376210172     -0.34916333928305     -0.01093971723467
  C           0.12744883853804     -0.39928304841336      0.54402933741336
  C          -0.58520415513528      0.95938424450624      0.56718605489785
  O          -1.33412072086281      0.96174463004312     -0.66024006465162
  C          -1.46959522139361     -0.32054784163256     -1.10418404990776
  O          -2.14847379943495     -0.64965530020701     -2.02707822582938
  O          -0.72059824229105     -1.16633424685345     -0.34589692395415
  H           2.19358797595193      0.18444619703219      0.68400226840906
  H           1.55046148424759      0.17098005546618     -0.97489106472544
  H           1.92751012768681     -1.35981955140454     -0.15336634525540
  H           0.09847876052271     -0.89521047433187      1.51936400683719
  H           0.10697442079850      1.80555522199659      0.55454931440037
  H          -1.28274322072956      1.05790346308154      1.40746539960059
