18
 energy: -28.145393012492 gnorm: 0.000559945578 xtb: 6.7.1pre (5071a88)
C           -3.24607035195915        0.07006582178405        0.08605932245569
C           -1.90432838049675       -0.60887889329661       -0.21374898635691
O           -0.93316889612944       -0.31090199591877        0.72974297200544
C           -0.16791875193085        0.94225632427839        0.46578322569029
O           -0.42025586437591        1.58294984561997       -0.60237894137429
O            1.17814989628259        0.64984419412135        0.82649139944851
C            1.90560936203080       -0.03109219837065       -0.17929610886029
C            3.37879851219042       -0.10960199595571        0.20238023704539
H           -3.09765332202079        1.14530898809331        0.04675454549344
H           -3.59013579186193       -0.20261948489325        1.08277494771083
H           -3.99594137145594       -0.22335631914406       -0.64893988999488
H           -1.56817123884264       -0.28282802579008       -1.21071068653410
H           -2.03433793231155       -1.70478723700641       -0.21675370632016
H            1.49711126573253       -1.04807640390828       -0.30994587374544
H            1.78550397972933        0.50975388970396       -1.13130328854771
H            3.94868805767137       -0.61662226162300       -0.57712998340185
H            3.48843088489081       -0.65468337134738        1.13722765464735
H            3.77568995285631        0.89326913365212        0.34127674063884
