16
DME conformer 1/5 rel=+0.00 kJ/mol from 5; GFN2-xTB opt; T6 conformer ensemble
C   2.23456481  0.78802461 -0.07401280
O   1.02375082  0.15149447 -0.38450495
C   0.44393969 -0.50210441  0.72244075
C  -0.84094663 -1.21656983  0.28650997
O  -1.98280453 -0.40086432  0.30488776
C  -2.02286262  0.55755917 -0.72758023
H   2.97873549  0.06886665  0.29153526
H   2.09417481  1.56407418  0.68937500
H   2.59246659  1.24485597 -0.99435940
H   0.20727011  0.22193563  1.51699414
H   1.15152298 -1.24124545  1.12921071
H  -0.67896966 -1.63610941 -0.71652443
H  -1.05544967 -2.02532525  0.98889001
H  -2.95986439  1.09757464 -0.60528294
H  -2.00255400  0.07288894 -1.71117539
H  -1.18297381  1.25494444 -0.66659649
