16
DME conformer 0/5 rel=+9.08 kJ/mol from g1_reference; GFN2-xTB opt; T6 conformer ensemble
C   2.43980851  0.75175266 -0.58715153
O   1.33043086 -0.06219096 -0.85695833
C   0.55647263 -0.33820588  0.28367845
C  -0.65010472 -1.19095040 -0.12210959
O  -1.62092200 -0.52581564 -0.88627692
C  -2.39675414  0.40917248 -0.18034112
H   2.95241959  0.90122642 -1.53485199
H   2.13448147  1.72442506 -0.17981266
H   3.12197200  0.27257263  0.12738328
H   0.22805648  0.59944493  0.75833600
H   1.15223544 -0.89867467  1.02326197
H  -0.29529128 -2.00335453 -0.75952349
H  -1.10390725 -1.60898975  0.79065568
H  -2.84711979 -0.04379007  0.71261509
H  -1.81770716  1.28814999  0.12341255
H  -3.18407063  0.72522774 -0.86233222
