16
DME conformer 4/5 rel=+2.90 kJ/mol from 4; GFN2-xTB opt; T6 conformer ensemble
C  -2.95901808 -0.33257136 -0.59310772
O  -1.67583998 -0.51708346 -0.05250391
C  -0.67156655  0.13222506 -0.79445324
C   0.67155105 -0.13211660 -0.12423988
O   1.67584003  0.51708403 -0.86626254
C   2.95902972  0.33248991 -0.32571424
H  -3.02350304 -0.73304256 -1.61263810
H  -3.23300564  0.72967976 -0.61613092
H  -3.64882285 -0.87146890  0.05289052
H  -0.64450088 -0.24377120 -1.82814722
H  -0.85360959  1.21665812 -0.83311027
H   0.64453049  0.24395695  0.90942695
H   0.85353881 -1.21655640 -0.08550774
H   3.02360964  0.73303044  0.69378263
H   3.23291571 -0.72978627 -0.30262728
H   3.64885114  0.87127246 -0.97179066
