16
DME conformer 2/5 rel=+2.49 kJ/mol from 1; GFN2-xTB opt; T6 conformer ensemble
C  -2.71322389  0.47998746  0.22180069
O  -1.56614112  0.49067932 -0.58868449
C  -0.47067462 -0.16754931  0.00097121
C   0.69513475 -0.11963769 -0.99375500
O   1.81617169 -0.86537673 -0.59358928
C   2.56396337 -0.29186832  0.45180958
H  -3.05312074 -0.54485087  0.41754812
H  -3.48370154  1.02066017 -0.32393206
H  -2.52797173  0.97750833  1.18256886
H  -0.19908249  0.32838296  0.94663569
H  -0.71972686 -1.21699681  0.22275267
H   0.36343235 -0.56246995 -1.93549066
H   0.96594981  0.93011121 -1.17512504
H   3.47817956 -0.87771393  0.52839052
H   2.03291611 -0.33199736  1.40864926
H   2.81789533  0.75113151  0.22944993
