16
DME conformer 3/5 rel=+2.49 kJ/mol from 3; GFN2-xTB opt; T6 conformer ensemble
C  -2.75842889  0.21610136 -0.12521753
O  -1.62040370 -0.38095912  0.44154245
C  -0.42942549 -0.03506311 -0.22398940
C   0.72314464 -0.77754793  0.46243985
O   1.95954623 -0.63650078 -0.18901957
C   2.56341843  0.62630545 -0.04197195
H  -2.89765412 -0.10068240 -1.16656480
H  -2.69021412  1.31133044 -0.09801326
H  -3.60869636 -0.10918911  0.47061622
H  -0.47525798 -0.33018228 -1.28387531
H  -0.27592522  1.05500003 -0.17716256
H   0.50034783 -1.84675820  0.45044561
H   0.78954150 -0.44406770  1.50771066
H   3.57197318  0.52903636 -0.43974995
H   2.03277066  1.40451342 -0.60051329
H   2.61526343  0.91860417  1.01332284
