13
Coordinates from ORCA-job PC_anion_cpcm_5_default E -381.704271284715
  C           1.63349611021701     -0.33823002016260      0.18612312515933
  C           0.12699714322367     -0.43427019906527      0.35025220002485
  C          -0.56848169077874      0.93431057968648      0.45592155498057
  O          -1.83080686815672      0.73585543790592     -0.15158049563986
  C          -1.56387417961293     -0.14432008346764     -1.30333407317270
  O          -2.55329337458144     -0.69257379755522     -1.84246854548308
  O          -0.48839038015999     -1.04529730462489     -0.78287281385697
  H           2.08272935636735      0.15592044995266      1.05714428339181
  H           1.87922503497186      0.24260299866384     -0.70980712928464
  H           2.08018034322442     -1.33314248975371      0.08968653853341
  H          -0.10735077449330     -1.03812395004683      1.24433820502380
  H           0.01803610270223      1.69831904214363     -0.08614080230406
  H          -0.70846681292338      1.25894934632364      1.49273794262754
