13
 energy: -23.972715420694 gnorm: 0.000604834471 xtb: 6.7.1pre (5071a88)
C            1.65109417422481       -0.32509528272059        0.18270050450013
C            0.12605413062116       -0.43306562001248        0.22051320939268
C           -0.57325206433483        0.95172591603361        0.36509381057209
O           -1.36383220337568        1.08898423739912       -0.76704473486124
C           -1.62819999428192       -0.26605908903007       -1.28220313759373
O           -2.72321264305521       -0.83414244250542       -1.00890866201525
O           -0.36204785413996       -0.94977710080724       -0.97740681834959
H            2.02548070248249        0.07986000856326        1.12267694118364
H            1.94886479300774        0.32512891639850       -0.63678214889212
H            2.08350630927485       -1.31017258966141        0.01889336959767
H           -0.16572244387240       -1.08156856736585        1.07115942146434
H            0.15901845793483        1.77341180209120        0.40164471231641
H           -1.17775135448586        0.98076982161742        1.28966352268500
