17
Coordinates from ORCA-job TMP_cation_cpcm_10_moread E -761.701102118724
  C           2.10544431347886     -1.28865604204011      0.15387426039709
  O           1.34996052283659     -0.05027769711992      0.13596463899864
  P           0.01765030469985      0.19462365296036     -0.72070651037586
  O           0.62107725117081      0.61707107944556     -2.05678122468767
  O          -0.84208897815680     -1.09104542942671     -0.85490840631199
  C          -1.89049964726847     -1.48900944910555      0.10750691972307
  O          -0.82059613249689      1.24577917292087      0.06015640286488
  C          -0.32735909479400      2.60546072909837      0.36081939619850
  H           3.15213710265715     -1.01588627193593      0.01017076188925
  H           1.73981696287889     -1.98964060212874     -0.59859497962466
  H           1.96714742367051     -1.69943545752179      1.16366718200301
  H          -2.18623624674774     -2.48747221234588     -0.20694629941344
  H          -2.71978990447707     -0.78524560919366      0.02736413581701
  H          -1.47110929718950     -1.49846348712379      1.11531546062758
  H           0.42984579181724      2.53291469425164      1.14310012141876
  H          -1.20378118800935      3.14750902852714      0.70889544651645
  H           0.07838080592994      3.05177391073793     -0.54889731604069
