17
Coordinates from ORCA-job TMP_cation_cpcm_7_moread E -761.697372519773
  C           2.12222371380140     -1.28588420012027      0.14922867653360
  O           1.35277851806627     -0.05477131941654      0.14713469870058
  P           0.02029829548200      0.18699688732419     -0.70838070845299
  O           0.62340546302627      0.60594567192377     -2.04677040013643
  O          -0.83843165250612     -1.09967157952644     -0.83976850089649
  C          -1.90867978811937     -1.48312647864337      0.10396431849535
  O          -0.81879421823689      1.23921706162871      0.06969301554475
  C          -0.32808816000993      2.60190128984733      0.36217057013794
  H           3.16346393137466     -1.00159209649813     -0.01130638956744
  H           1.75266462498702     -1.98787026160908     -0.60029460008494
  H           2.00521240436792     -1.70069437778180      1.15956160894478
  H          -2.20478704921549     -2.48196816326131     -0.20894849964867
  H          -2.73158479999266     -0.77467378438665      0.00188150266072
  H          -1.50999743031860     -1.48732881597681      1.12014808445249
  H           0.43144208390512      2.53530590197051      1.14270863270999
  H          -1.20493426731124      3.14347268787321      0.70993448703745
  H           0.07380832069967      3.04474158665253     -0.55095650643078
