17
Coordinates from ORCA-job TMP_cation_cpcm_200_moread E -761.683383547462
  C       2.322150     -1.110107     -0.121247
  O       1.446904     -0.246841      0.586848
  P      -0.001093      0.003392     -0.032977
  O      -0.049654      0.153953     -1.490261
  O      -0.851133     -1.206662      0.564270
  C      -2.124125     -1.458547     -0.009074
  O      -0.530506      1.251111      0.807508
  C      -0.191013      2.546951      0.340395
  H       3.337969     -0.827674      0.154216
  H       2.176116     -0.993877     -1.196468
  H       2.136428     -2.148361      0.159357
  H      -2.350663     -2.509116      0.170324
  H      -2.100650     -1.254852     -1.080809
  H      -2.881254     -0.829776      0.462504
  H       0.789643      2.839662      0.719716
  H      -0.952799      3.229495      0.716423
  H      -0.176319      2.561249     -0.750724
17
Coordinates from ORCA-job TMP_cation_cpcm_200_moread E -761.692030485911
  C       2.378327     -1.165796     -0.099460
  O       1.484557     -0.213927      0.509791
  P       0.026389      0.032673     -0.096209
  O      -0.021487      0.230870     -1.560915
  O      -0.814860     -1.207319      0.459587
  C      -2.156291     -1.460793     -0.014563
  O      -0.518327      1.248218      0.785917
  C      -0.235759      2.585447      0.351637
  H       3.390491     -0.868022      0.174155
  H       2.256794     -1.167847     -1.187044
  H       2.168787     -2.174731      0.285267
  H      -2.345525     -2.523446      0.141946
  H      -2.255058     -1.209621     -1.072283
  H      -2.875197     -0.871022      0.569643
  H       0.762124      2.880253      0.712406
  H      -0.997859      3.232597      0.785843
  H      -0.247106      2.652466     -0.745717
17
Coordinates from ORCA-job TMP_cation_cpcm_200_moread E -761.697092135580
  C       2.402024     -1.212519     -0.075588
  O       1.508005     -0.183587      0.428880
  P       0.042820      0.058956     -0.154323
  O       0.006615      0.294918     -1.630352
  O      -0.780315     -1.208045      0.352345
  C      -2.169808     -1.468468     -0.018566
  O      -0.506882      1.248109      0.757048
  C      -0.263555      2.619898      0.360655
  H       3.411223     -0.892559      0.177673
  H       2.275583     -1.331235     -1.157673
  H       2.165629     -2.167726      0.417118
  H      -2.311896     -2.542244      0.095406
  H      -2.369126     -1.155386     -1.045766
  H      -2.830669     -0.928280      0.670538
  H       0.740289      2.908346      0.712119
  H      -1.026647      3.228975      0.842768
  H      -0.293290      2.730847     -0.732283
17
Coordinates from ORCA-job TMP_cation_cpcm_200_moread E -761.701642388947
  C       2.405042     -1.267024     -0.037805
  O       1.534871     -0.148061      0.317942
  P       0.062760      0.088598     -0.231037
  O       0.056964      0.376879     -1.717263
  O      -0.728745     -1.210614      0.196192
  C      -2.164196     -1.468080     -0.018419
  O      -0.495604      1.239489      0.708468
  C      -0.295197      2.648606      0.368895
  H       3.418438     -0.925086      0.158400
  H       2.246611     -1.542090     -1.086290
  H       2.138146     -2.120801      0.600514
  H      -2.260605     -2.551512     -0.003865
  H      -2.490100     -1.047340     -0.971490
  H      -2.715862     -1.015135      0.810502
  H       0.705333      2.936342      0.718631
  H      -1.067801      3.200069      0.900340
  H      -0.350055      2.805761     -0.713715
17
Coordinates from ORCA-job TMP_cation_cpcm_200_moread E -761.704372063949
  C       2.391837     -1.308172      0.002358
  O       1.558894     -0.124797      0.217979
  P       0.083013      0.105971     -0.305017
  O       0.127753      0.452231     -1.790883
  O      -0.680701     -1.217149      0.029643
  C      -2.139975     -1.449862     -0.006706
  O      -0.496231      1.216557      0.648848
  C      -0.329313      2.652471      0.368744
  H       3.414975     -0.966395      0.136387
  H       2.199254     -1.715237     -0.995188
  H       2.102466     -2.048153      0.758819
  H      -2.241162     -2.525010     -0.133910
  H      -2.580713     -0.895944     -0.837089
  H      -2.546065     -1.115184      0.949718
  H       0.658606      2.948004      0.733649
  H      -1.121134      3.146812      0.926852
  H      -0.401503      2.843856     -0.704203
17
Coordinates from ORCA-job TMP_cation_cpcm_200_moread E -761.705668749025
  C       2.374312     -1.326145      0.027311
  O       1.573971     -0.112018      0.161219
  P       0.096664      0.110176     -0.355232
  O       0.197619      0.499479     -1.831157
  O      -0.652268     -1.226216     -0.092672
  C      -2.110766     -1.427220      0.010653
  O      -0.515605      1.192503      0.595007
  C      -0.357157      2.640105      0.363649
  H       3.407508     -1.001289      0.122017
  H       2.160954     -1.804596     -0.932656
  H       2.076677     -1.992136      0.845758
  H      -2.259492     -2.478757     -0.222898
  H      -2.617406     -0.775858     -0.703135
  H      -2.398740     -1.192067      1.036463
  H       0.613960      2.937975      0.764429
  H      -1.172621      3.101984      0.915893
  H      -0.417609      2.854083     -0.704649
17
Coordinates from ORCA-job TMP_cation_cpcm_200_moread E -761.706617849288
  C       2.356210     -1.333449      0.045757
  O       1.582382     -0.101720      0.120482
  P       0.105543      0.108386     -0.406922
  O       0.285816      0.536934     -1.864567
  O      -0.638623     -1.236820     -0.216260
  C      -2.079829     -1.402791      0.037028
  O      -0.557472      1.165890      0.524210
  C      -0.385057      2.620462      0.355128
  H       3.398070     -1.029510      0.117376
  H       2.134670     -1.861422     -0.885495
  H       2.054589     -1.945878      0.903632
  H      -2.305871     -2.416066     -0.287185
  H      -2.637078     -0.663458     -0.540999
  H      -2.243073     -1.273920      1.107851
  H       0.558107      2.905018      0.823907
  H      -1.233544      3.062322      0.873519
  H      -0.394841      2.866024     -0.707461
17
Coordinates from ORCA-job TMP_cation_cpcm_200_moread E -761.707168272840
  C       2.335975     -1.330997      0.057804
  O       1.577255     -0.091430      0.095742
  P       0.105154      0.107388     -0.461088
  O       0.377655      0.560836     -1.896512
  O      -0.643856     -1.241768     -0.330176
  C      -2.053009     -1.390515      0.067349
  O      -0.614052      1.148144      0.438825
  C      -0.403123      2.604723      0.347375
  H       3.382854     -1.041959      0.123835
  H       2.117064     -1.887532     -0.857260
  H       2.028880     -1.913729      0.934895
  H      -2.353327     -2.365457     -0.310485
  H      -2.647976     -0.593472     -0.382310
  H      -2.099916     -1.351337      1.156449
  H       0.501853      2.850841      0.904130
  H      -1.283680      3.042996      0.812939
  H      -0.327751      2.893267     -0.701510
17
Coordinates from ORCA-job TMP_cation_cpcm_200_moread E -761.707537147941
  C       2.317621     -1.323121      0.065084
  O       1.560393     -0.083167      0.090669
  P       0.098264      0.109836     -0.508097
  O       0.457827      0.568670     -1.923007
  O      -0.664613     -1.237711     -0.420641
  C      -2.036041     -1.391176      0.095248
  O      -0.667532      1.144483      0.356964
  C      -0.409520      2.596794      0.340796
  H       3.365175     -1.037900      0.139407
  H       2.107783     -1.886320     -0.848155
  H       2.003015     -1.901207      0.943316
  H      -2.385546     -2.340226     -0.305923
  H      -2.659072     -0.566506     -0.254060
  H      -1.988358     -1.414024      1.184939
  H       0.455551      2.792333      0.975603
  H      -1.310743      3.045137      0.754187
  H      -0.244202      2.924105     -0.686328
17
Coordinates from ORCA-job TMP_cation_cpcm_200_moread E -761.707845487727
  C       2.279646     -1.307994      0.077765
  O       1.521299     -0.068110      0.091319
  P       0.079974      0.122550     -0.575379
  O       0.552425      0.570268     -1.961360
  O      -0.707113     -1.217288     -0.539642
  C      -2.008150     -1.408797      0.130382
  O      -0.735431      1.158760      0.240082
  C      -0.404946      2.594201      0.333341
  H       3.326394     -1.023915      0.167164
  H       2.081526     -1.874282     -0.836369
  H       1.952042     -1.885139      0.952611
  H      -2.405058     -2.331437     -0.288322
  H      -2.666712     -0.567402     -0.085453
  H      -1.830437     -1.505520      1.202688
  H       0.399863      2.706408      1.061291
  H      -1.319831      3.070131      0.680030
  H      -0.115490      2.967566     -0.650149
17
Coordinates from ORCA-job TMP_cation_cpcm_200_moread E -761.708129309911
  C       2.260394     -1.294432      0.085611
  O       1.495335     -0.057695      0.099139
  P       0.066544      0.130914     -0.603899
  O       0.571278      0.563505     -1.982789
  O      -0.732684     -1.204255     -0.585085
  C      -2.000811     -1.425244      0.139707
  O      -0.759977      1.171281      0.198271
  C      -0.389973      2.593652      0.333547
  H       3.304872     -1.004338      0.181068
  H       2.066116     -1.859409     -0.830117
  H       1.929943     -1.875477      0.957009
  H      -2.394993     -2.351934     -0.272389
  H      -2.681315     -0.593622     -0.041814
  H      -1.775468     -1.528410      1.202544
  H       0.396207      2.665597      1.086867
  H      -1.300315      3.089699      0.663016
  H      -0.055151      2.980168     -0.630686
17
Coordinates from ORCA-job TMP_cation_cpcm_200_moread E -761.708770618170
  C       2.182411     -1.262813      0.118802
  O       1.418791     -0.023482      0.109162
  P       0.026622      0.165635     -0.682424
  O       0.593114      0.559775     -2.045534
  O      -0.802804     -1.151537     -0.715406
  C      -1.953814     -1.479572      0.152868
  O      -0.810798      1.216467      0.102134
  C      -0.343117      2.596898      0.335708
  H       3.226329     -0.970207      0.211770
  H       1.979761     -1.846997     -0.782612
  H       1.845156     -1.823191      1.001652
  H      -2.332022     -2.415321     -0.252870
  H      -2.693895     -0.682803      0.082740
  H      -1.591318     -1.603491      1.174845
  H       0.408665      2.570575      1.126487
  H      -1.230099      3.143096      0.647759
  H       0.077017      3.006968     -0.585082
17
Coordinates from ORCA-job TMP_cation_cpcm_200_moread E -761.709024222213
  C       2.133978     -1.256689      0.140068
  O       1.386552     -0.009089      0.105176
  P       0.010440      0.185200     -0.716426
  O       0.587991      0.570361     -2.074457
  O      -0.829170     -1.120708     -0.778522
  C      -1.914363     -1.503148      0.148729
  O      -0.823204      1.237233      0.072669
  C      -0.323707      2.601044      0.338761
  H       3.182863     -0.975625      0.213734
  H       1.910754     -1.866330     -0.739133
  H       1.799353     -1.783581      1.044795
  H      -2.284784     -2.443704     -0.252666
  H      -2.680012     -0.727500      0.133004
  H      -1.489899     -1.631230      1.146032
  H       0.425955      2.542568      1.129754
  H      -1.199064      3.159889      0.661147
  H       0.106319      3.021311     -0.572667
17
Coordinates from ORCA-job TMP_cation_cpcm_200_moread E -761.709225152708
  C       2.104126     -1.266075      0.153553
  O       1.376518     -0.010756      0.098664
  P       0.009103      0.195195     -0.729626
  O       0.577487      0.594596     -2.084327
  O      -0.831487     -1.103466     -0.816999
  C      -1.881885     -1.507437      0.138217
  O      -0.817971      1.240587      0.074340
  C      -0.321017      2.605590      0.341177
  H       3.159285     -1.002634      0.207698
  H       1.860585     -1.897560     -0.704452
  H       1.775917     -1.760667      1.079385
  H      -2.251488     -2.453493     -0.250736
  H      -2.660489     -0.744112      0.145019
  H      -1.429784     -1.628845      1.124154
  H       0.443726      2.548992      1.117364
  H      -1.193711      3.156068      0.685250
  H       0.081087      3.034017     -0.578683
17
Coordinates from ORCA-job TMP_cation_cpcm_200_moread E -761.709297939200
  C       2.064759     -1.277065      0.164681
  O       1.359416     -0.013096      0.092543
  P       0.004050      0.210277     -0.748467
  O       0.595221      0.616812     -2.089872
  O      -0.848466     -1.077141     -0.863517
  C      -1.839802     -1.518019      0.137328
  O      -0.823745      1.259171      0.047370
  C      -0.321520      2.617377      0.339338
  H       3.126073     -1.035094      0.206211
  H       1.804305     -1.924434     -0.676315
  H       1.739519     -1.744410      1.106439
  H      -2.219436     -2.461474     -0.248432
  H      -2.629167     -0.768601      0.202641
  H      -1.337188     -1.653696      1.096820
  H       0.433779      2.545625      1.123197
  H      -1.194718      3.167748      0.682757
  H       0.086920      3.056020     -0.572723
17
Coordinates from ORCA-job TMP_cation_cpcm_200_moread E -761.709332087417
  C       2.093016     -1.293002      0.155275
  O       1.379367     -0.034888      0.097404
  P       0.021739      0.198001     -0.727802
  O       0.589341      0.631830     -2.070600
  O      -0.823023     -1.095314     -0.842993
  C      -1.857536     -1.493197      0.131788
  O      -0.805222      1.237542      0.080105
  C      -0.338650      2.614491      0.339201
  H       3.153412     -1.046551      0.199586
  H       1.838932     -1.933849     -0.692726
  H       1.775161     -1.772668      1.093656
  H      -2.235554     -2.445319     -0.233933
  H      -2.642350     -0.735909      0.143829
  H      -1.395880     -1.602158      1.115208
  H       0.439101      2.576819      1.103265
  H      -1.218725      3.142503      0.700190
  H       0.026870      3.051668     -0.591454
17
Coordinates from ORCA-job TMP_cation_cpcm_200_moread E -761.709373455004
  C       2.085997     -1.288200      0.157472
  O       1.369740     -0.030753      0.098341
  P       0.015772      0.201935     -0.735599
  O       0.593818      0.627050     -2.077410
  O      -0.834686     -1.089642     -0.850962
  C      -1.854833     -1.500612      0.134704
  O      -0.813070      1.246482      0.064710
  C      -0.332933      2.615625      0.339778
  H       3.145740     -1.038882      0.199128
  H       1.829949     -1.930757     -0.688524
  H       1.770309     -1.766943      1.096933
  H      -2.225619     -2.455013     -0.232455
  H      -2.646116     -0.750497      0.156918
  H      -1.381029     -1.609003      1.112369
  H       0.435687      2.562025      1.112293
  H      -1.210641      3.151697      0.694232
  H       0.051915      3.055489     -0.581928
17
Coordinates from ORCA-job TMP_cation_cpcm_200_moread E -761.709399854350
  C       2.080241     -1.287886      0.159550
  O       1.360494     -0.032304      0.099522
  P       0.012712      0.205054     -0.742651
  O       0.595732      0.628532     -2.083406
  O      -0.843703     -1.084659     -0.861464
  C      -1.851919     -1.502968      0.134726
  O      -0.817576      1.252728      0.052909
  C      -0.329449      2.615857      0.342234
  H       3.139654     -1.035415      0.191454
  H       1.817430     -1.935823     -0.680063
  H       1.774172     -1.761751      1.104633
  H      -2.206030     -2.467549     -0.222173
  H      -2.655635     -0.766128      0.151656
  H      -1.371963     -1.593152      1.111274
  H       0.435450      2.549715      1.117721
  H      -1.205073      3.154937      0.696979
  H       0.065464      3.060812     -0.572900
17
Coordinates from ORCA-job TMP_cation_cpcm_200_moread E -761.709415177126
  C       2.080187     -1.289866      0.159742
  O       1.356899     -0.036286      0.099449
  P       0.013022      0.205460     -0.745381
  O       0.594729      0.632064     -2.086324
  O      -0.846038     -1.083817     -0.866419
  C      -1.853526     -1.500303      0.132329
  O      -0.818080      1.253502      0.049338
  C      -0.328295      2.614142      0.346225
  H       3.139347     -1.034313      0.177075
  H       1.807781     -1.944733     -0.671200
  H       1.787819     -1.756441      1.112669
  H      -2.186485     -2.478388     -0.207798
  H      -2.670167     -0.777648      0.127369
  H      -1.379596     -1.561718      1.114053
  H       0.438221      2.542658      1.119786
  H      -1.202856      3.151787      0.705545
  H       0.067037      3.063900     -0.566459
17
Coordinates from ORCA-job TMP_cation_cpcm_200_moread E -761.709424382440
  C       2.080887     -1.292214      0.159314
  O       1.356460     -0.039258      0.098375
  P       0.014333      0.205207     -0.745968
  O       0.593898      0.635568     -2.087097
  O      -0.845220     -1.083821     -0.868956
  C      -1.855502     -1.496793      0.128870
  O      -0.817462      1.252397      0.049264
  C      -0.327905      2.611920      0.350530
  H       3.140186     -1.035952      0.159216
  H       1.796575     -1.954694     -0.661366
  H       1.803252     -1.748906      1.121247
  H      -2.168428     -2.487250     -0.194003
  H      -2.683519     -0.787754      0.099546
  H      -1.391630     -1.529672      1.116726
  H       0.441433      2.538447      1.121121
  H      -1.201854      3.147230      0.714729
  H       0.064494      3.065543     -0.561547
17
Coordinates from ORCA-job TMP_cation_cpcm_200_moread E -761.709430730738
  C       2.081637     -1.293340      0.158548
  O       1.357736     -0.039835      0.097836
  P       0.015334      0.204814     -0.744767
  O       0.595008      0.636609     -2.085672
  O      -0.843524     -1.083884     -0.868855
  C      -1.857330     -1.494828      0.126114
  O      -0.817174      1.251259      0.050534
  C      -0.327722      2.610355      0.353377
  H       3.141189     -1.038070      0.143841
  H       1.787122     -1.961087     -0.654103
  H       1.815459     -1.741894      1.127362
  H      -2.157983     -2.492410     -0.186337
  H      -2.691817     -0.794244      0.080370
  H      -1.402167     -1.510429      1.118376
  H       0.443145      2.536708      1.122353
  H      -1.201345      3.144645      0.719867
  H       0.062431      3.065630     -0.558844
17
Coordinates from ORCA-job TMP_cation_cpcm_200_moread E -761.709435509290
  C       2.081769     -1.293788      0.157811
  O       1.358849     -0.039169      0.098708
  P       0.015822      0.204739     -0.742640
  O       0.598104      0.636334     -2.082723
  O      -0.842336     -1.083120     -0.868375
  C      -1.859208     -1.494167      0.122951
  O      -0.817626      1.250943      0.051831
  C      -0.326975      2.609284      0.355951
  H       3.141504     -1.040496      0.124868
  H       1.774514     -1.967081     -0.645341
  H       1.829929     -1.733003      1.134495
  H      -2.147906     -2.497964     -0.180751
  H      -2.699972     -0.802201      0.062482
  H      -1.412940     -1.494636      1.119278
  H       0.444546      2.535025      1.124118
  H      -1.199942      3.143841      0.723681
  H       0.061868      3.065458     -0.556344
17
Coordinates from ORCA-job TMP_cation_cpcm_200_moread E -761.709437029175
  C       2.082092     -1.293206      0.157526
  O       1.358629     -0.038573      0.100809
  P       0.015555      0.204659     -0.741259
  O       0.600145      0.634934     -2.080767
  O      -0.842596     -1.082820     -0.867533
  C      -1.860349     -1.494843      0.122182
  O      -0.818204      1.251314      0.052325
  C      -0.326468      2.609442      0.355977
  H       3.141711     -1.040008      0.119250
  H       1.771386     -1.967219     -0.643636
  H       1.835090     -1.731102      1.135983
  H      -2.147775     -2.498943     -0.181770
  H      -2.701722     -0.803717      0.060371
  H      -1.415818     -1.494838      1.119268
  H       0.444513      2.534903      1.124637
  H      -1.199092      3.145042      0.723042
  H       0.062903      3.064975     -0.556405
17
Coordinates from ORCA-job TMP_cation_cpcm_200_moread E -761.709438484845
  C       2.082461     -1.292468      0.157407
  O       1.357382     -0.038484      0.104408
  P       0.015027      0.204594     -0.739753
  O       0.602838      0.633295     -2.078341
  O      -0.843526     -1.082406     -0.867056
  C      -1.861669     -1.495864      0.121366
  O      -0.818957      1.252046      0.052565
  C      -0.325871      2.609994      0.355574
  H       3.141751     -1.038588      0.113071
  H       1.768135     -1.967225     -0.641639
  H       1.841846     -1.729587      1.137776
  H      -2.149221     -2.499400     -0.184362
  H      -2.703030     -0.804625      0.060448
  H      -1.417676     -1.497670      1.118696
  H       0.444139      2.534918      1.125146
  H      -1.198158      3.146922      0.721535
  H       0.064531      3.064549     -0.556839
17
Coordinates from ORCA-job TMP_cation_cpcm_200_moread E -761.709439811017
  C       2.082817     -1.291960      0.157548
  O       1.355439     -0.039177      0.108535
  P       0.014561      0.204532     -0.738533
  O       0.605743      0.632170     -2.075987
  O      -0.844549     -1.081992     -0.867401
  C      -1.863108     -1.496529      0.119959
  O      -0.819697      1.252711      0.052460
  C      -0.325338      2.610379      0.355545
  H       3.141513     -1.036973      0.103375
  H       1.762551     -1.969164     -0.636941
  H       1.852389     -1.726390      1.141532
  H      -2.150093     -2.499940     -0.186738
  H      -2.704830     -0.805711      0.059089
  H      -1.419825     -1.498975      1.117610
  H       0.443561      2.534401      1.126126
  H      -1.197418      3.148362      0.720477
  H       0.066284      3.064257     -0.556654
17
Coordinates from ORCA-job TMP_cation_cpcm_200_moread E -761.709441403201
  C       2.083270     -1.291595      0.158107
  O       1.353038     -0.040592      0.112956
  P       0.014247      0.204397     -0.737691
  O       0.608968      0.631478     -2.073767
  O      -0.845330     -1.081765     -0.868472
  C      -1.864622     -1.496777      0.117880
  O      -0.820381      1.253069      0.051984
  C      -0.325146      2.610489      0.355864
  H       3.140994     -1.035279      0.089188
  H       1.754036     -1.973631     -0.628393
  H       1.867745     -1.720446      1.147882
  H      -2.152214     -2.499554     -0.190342
  H      -2.705936     -0.805399      0.057700
  H      -1.421670     -1.500920      1.115671
  H       0.442150      2.533491      1.127912
  H      -1.197415      3.149180      0.719302
  H       0.068265      3.063854     -0.555783
17
Coordinates from ORCA-job TMP_cation_cpcm_200_moread E -761.709443015734
  C       2.083328     -1.291596      0.159190
  O       1.351298     -0.042043      0.115209
  P       0.014303      0.204373     -0.738056
  O       0.611229      0.631810     -2.073034
  O      -0.845372     -1.081702     -0.870374
  C      -1.865248     -1.496436      0.115652
  O      -0.820765      1.252934      0.050887
  C      -0.325556      2.610094      0.356723
  H       3.140003     -1.034951      0.073889
  H       1.743839     -1.980344     -0.616892
  H       1.883380     -1.711941      1.155851
  H      -2.154827     -2.498092     -0.194344
  H      -2.705290     -0.803397      0.057057
  H      -1.421744     -1.503196      1.113171
  H       0.439905      2.532129      1.130452
  H      -1.198532      3.148747      0.718484
  H       0.070048      3.063610     -0.553864
17
Coordinates from ORCA-job TMP_cation_cpcm_200_moread E -761.709444153246
  C       2.083535     -1.291549      0.160455
  O       1.350638     -0.042998      0.115488
  P       0.014723      0.204229     -0.739186
  O       0.612478      0.632221     -2.073521
  O      -0.844670     -1.082029     -0.872169
  C      -1.865644     -1.495584      0.113485
  O      -0.820982      1.252182      0.049600
  C      -0.326427      2.609000      0.358008
  H       3.139093     -1.035497      0.058668
  H       1.733584     -1.987787     -0.604077
  H       1.898430     -1.701725      1.164174
  H      -2.158272     -2.495728     -0.198474
  H      -2.703526     -0.799838      0.056551
  H      -1.421523     -1.505605      1.110685
  H       0.437094      2.530280      1.133564
  H      -1.200389      3.147310      0.717861
  H       0.071857      3.063117     -0.551111
17
Coordinates from ORCA-job TMP_cation_cpcm_200_moread E -761.709444590351
  C       2.083291     -1.291564      0.161173
  O       1.351045     -0.042843      0.113936
  P       0.015013      0.204289     -0.740351
  O       0.612337      0.632598     -2.074666
  O      -0.844249     -1.082013     -0.873215
  C      -1.865250     -1.495208      0.112738
  O      -0.820996      1.251816      0.048716
  C      -0.326953      2.608310      0.358759
  H       3.138593     -1.036718      0.053270
  H       1.729173     -1.991207     -0.598273
  H       1.902862     -1.696531      1.167852
  H      -2.159492     -2.494579     -0.200144
  H      -2.702077     -0.798110      0.057106
  H      -1.420347     -1.506955      1.109562
  H       0.435673      2.529214      1.135162
  H      -1.201395      3.146386      0.717774
  H       0.072772      3.063114     -0.549400
17
Coordinates from ORCA-job TMP_cation_cpcm_200_moread E -761.709444794457
  C       2.083005     -1.291533      0.161705
  O       1.351577     -0.042395      0.112302
  P       0.015181      0.204408     -0.741291
  O       0.611931      0.632853     -2.075701
  O      -0.844171     -1.081787     -0.873971
  C      -1.864877     -1.495160      0.112310
  O      -0.820959      1.251710      0.048142
  C      -0.327198      2.607873      0.359271
  H       3.138261     -1.037876      0.050429
  H       1.726456     -1.993314     -0.594603
  H       1.904708     -1.692912      1.170202
  H      -2.159920     -2.494093     -0.201204
  H      -2.701234     -0.797428      0.057735
  H      -1.419321     -1.508012      1.108829
  H       0.434881      2.528480      1.136205
  H      -1.201846      3.145925      0.717819
  H       0.073523      3.063262     -0.548179
