17
Coordinates from ORCA-job TMP_cation_cpcm_10_moread E -761.675327279567
  C       2.322150     -1.110107     -0.121247
  O       1.446904     -0.246841      0.586848
  P      -0.001093      0.003392     -0.032977
  O      -0.049654      0.153953     -1.490261
  O      -0.851133     -1.206662      0.564270
  C      -2.124125     -1.458547     -0.009074
  O      -0.530506      1.251111      0.807508
  C      -0.191013      2.546951      0.340395
  H       3.337969     -0.827674      0.154216
  H       2.176116     -0.993877     -1.196468
  H       2.136428     -2.148361      0.159357
  H      -2.350663     -2.509116      0.170324
  H      -2.100650     -1.254852     -1.080809
  H      -2.881254     -0.829776      0.462504
  H       0.789643      2.839662      0.719716
  H      -0.952799      3.229495      0.716423
  H      -0.176319      2.561249     -0.750724
17
Coordinates from ORCA-job TMP_cation_cpcm_10_moread E -761.684052588627
  C       2.378699     -1.165909     -0.099614
  O       1.484513     -0.214103      0.509838
  P       0.026260      0.032670     -0.095819
  O      -0.021389      0.230725     -1.560646
  O      -0.815169     -1.207384      0.459491
  C      -2.156879     -1.461076     -0.014539
  O      -0.518538      1.248459      0.785823
  C      -0.235468      2.585825      0.351612
  H       3.390841     -0.867883      0.173858
  H       2.257339     -1.167964     -1.187270
  H       2.169756     -2.174859      0.285207
  H      -2.345974     -2.523778      0.141742
  H      -2.256005     -1.209823     -1.072278
  H      -2.875887     -0.871743      0.569990
  H       0.761964      2.880905      0.713240
  H      -0.997863      3.233083      0.785198
  H      -0.246199      2.652855     -0.745834
17
Coordinates from ORCA-job TMP_cation_cpcm_10_moread E -761.689148931560
  C       2.402798     -1.212690     -0.075976
  O       1.507872     -0.184098      0.429156
  P       0.042640      0.058665     -0.153397
  O       0.007227      0.293974     -1.629883
  O      -0.781060     -1.208255      0.352120
  C      -2.171101     -1.468809     -0.018392
  O      -0.507479      1.248485      0.756590
  C      -0.263060      2.620555      0.360467
  H       3.411886     -0.892060      0.177027
  H       2.276749     -1.330871     -1.158192
  H       2.167655     -2.168047      0.416731
  H      -2.313002     -2.542682      0.094853
  H      -2.371093     -1.155378     -1.045431
  H      -2.831784     -0.929535      0.671563
  H       0.739796      2.909429      0.714250
  H      -1.027016      3.229754      0.841128
  H      -0.291029      2.731562     -0.732615
17
Coordinates from ORCA-job TMP_cation_cpcm_10_moread E -761.693709675115
  C       2.406230     -1.266892     -0.038656
  O       1.534278     -0.148772      0.318828
  P       0.062251      0.087880     -0.229103
  O       0.058099      0.374492     -1.716434
  O      -0.730290     -1.210992      0.195986
  C      -2.166482     -1.468617     -0.017852
  O      -0.497134      1.240045      0.707511
  C      -0.294140      2.649487      0.368416
  H       3.419242     -0.923609      0.157468
  H       2.248796     -1.540249     -1.087697
  H       2.141240     -2.121345      0.599154
  H      -2.262652     -2.552095     -0.004765
  H      -2.493206     -1.047239     -0.970419
  H      -2.717457     -1.017221      0.812289
  H       0.704594      2.937118      0.723128
  H      -1.068664      3.201407      0.896624
  H      -0.344704      2.806601     -0.714477
17
Coordinates from ORCA-job TMP_cation_cpcm_10_moread E -761.696390802781
  C       2.393596     -1.306848      0.000224
  O       1.557142     -0.125748      0.221538
  P       0.081727      0.104536     -0.300790
  O       0.129019      0.446992     -1.788644
  O      -0.683888     -1.217562      0.032097
  C      -2.143712     -1.451016     -0.005645
  O      -0.499337      1.217586      0.647950
  C      -0.326977      2.653548      0.368054
  H       3.415838     -0.962739      0.135564
  H       2.203384     -1.708672     -0.999784
  H       2.106888     -2.050668      0.753517
  H      -2.244298     -2.526291     -0.132405
  H      -2.583837     -0.898637     -0.837388
  H      -2.550890     -1.116233      0.950212
  H       0.658166      2.947560      0.741386
  H      -1.122139      3.149808      0.919693
  H      -0.390682      2.844385     -0.705580
17
Coordinates from ORCA-job TMP_cation_cpcm_10_moread E -761.697657145980
  C       2.376998     -1.323916      0.024005
  O       1.571123     -0.113164      0.167622
  P       0.094908      0.108024     -0.349346
  O       0.199654      0.491943     -1.828061
  O      -0.656717     -1.226835     -0.088089
  C      -2.115976     -1.428632      0.012547
  O      -0.520268      1.193702      0.593758
  C      -0.354041      2.641247      0.362697
  H       3.408712     -0.995399      0.122639
  H       2.168381     -1.793495     -0.941247
  H       2.081596     -1.997981      0.836175
  H      -2.263392     -2.480811     -0.219011
  H      -2.621603     -0.780144     -0.704535
  H      -2.406354     -1.191470      1.037142
  H       0.613025      2.936264      0.774962
  H      -1.174213      3.106328      0.905200
  H      -0.401833      2.854339     -0.706459
17
Coordinates from ORCA-job TMP_cation_cpcm_10_moread E -761.698573056719
  C       2.360530     -1.330210      0.040402
  O       1.578236     -0.103438      0.132509
  P       0.103564      0.105135     -0.397593
  O       0.288189      0.525553     -1.859075
  O      -0.644157     -1.238050     -0.206202
  C      -2.087108     -1.404223      0.039688
  O      -0.563315      1.167613      0.523869
  C      -0.381246      2.621683      0.353787
  H       3.400148     -1.020650      0.120314
  H       2.147103     -1.842435     -0.901391
  H       2.060318     -1.958805      0.886499
  H      -2.309747     -2.420042     -0.278920
  H      -2.642037     -0.670463     -0.547519
  H      -2.257259     -1.268040      1.108499
  H       0.556128      2.902690      0.835992
  H      -1.235047      3.068929      0.858634
  H      -0.374299      2.864754     -0.709490
17
Coordinates from ORCA-job TMP_cation_cpcm_10_moread E -761.699110422803
  C       2.342173     -1.327512      0.050849
  O       1.572234     -0.093977      0.113303
  P       0.103582      0.102872     -0.448637
  O       0.382043      0.546210     -1.888358
  O      -0.649687     -1.244017     -0.316430
  C      -2.062044     -1.390810      0.070994
  O      -0.620740      1.149838      0.438856
  C      -0.399834      2.605569      0.345140
  H       3.386110     -1.030936      0.128988
  H       2.134801     -1.861982     -0.879888
  H       2.036035     -1.934156      0.911254
  H      -2.358260     -2.369360     -0.300744
  H      -2.654284     -0.598886     -0.391092
  H      -2.118528     -1.341811      1.159248
  H       0.496887      2.848676      0.916265
  H      -1.285590      3.050876      0.793820
  H      -0.304897      2.889405     -0.703569
17
Coordinates from ORCA-job TMP_cation_cpcm_10_moread E -761.699431666402
  C       2.327618     -1.319545      0.056653
  O       1.556114     -0.086956      0.111749
  P       0.097293      0.103696     -0.490027
  O       0.456264      0.550324     -1.911355
  O      -0.669090     -1.241748     -0.396866
  C      -2.049304     -1.390499      0.096561
  O      -0.670119      1.145889      0.364143
  C      -0.405431      2.597627      0.339001
  H       3.371381     -1.024104      0.143111
  H       2.130215     -1.857308     -0.874450
  H       2.016346     -1.925914      0.915941
  H      -2.389113     -2.346847     -0.295483
  H      -2.667690     -0.573194     -0.277664
  H      -2.021802     -1.395184      1.187213
  H       0.453545      2.794543      0.981536
  H      -1.309071      3.053285      0.738849
  H      -0.227156      2.915937     -0.688913
17
Coordinates from ORCA-job TMP_cation_cpcm_10_moread E -761.699706180747
  C       2.295615     -1.304532      0.068487
  O       1.519408     -0.073426      0.113237
  P       0.080465      0.113525     -0.553064
  O       0.545676      0.549893     -1.947511
  O      -0.708627     -1.225028     -0.508646
  C      -2.027445     -1.404867      0.128790
  O      -0.733836      1.156652      0.254946
  C      -0.400955      2.593229      0.332655
  H       3.337834     -1.006808      0.165834
  H       2.108650     -1.846314     -0.862501
  H       1.976656     -1.910235      0.925990
  H      -2.410079     -2.338139     -0.279420
  H      -2.681239     -0.570197     -0.125007
  H      -1.880247     -1.475768      1.207729
  H       0.401666      2.712620      1.061823
  H      -1.316174      3.074633      0.670770
  H      -0.107369      2.954762     -0.654111
17
Coordinates from ORCA-job TMP_cation_cpcm_10_moread E -761.699936538807
  C       2.283740     -1.292429      0.075052
  O       1.499038     -0.065657      0.120707
  P       0.069777      0.118854     -0.574518
  O       0.556980      0.543602     -1.964367
  O      -0.728875     -1.216306     -0.542745
  C      -2.026440     -1.417348      0.133647
  O      -0.751640      1.164492      0.226655
  C      -0.387326      2.591394      0.333992
  H       3.323568     -0.986782      0.172641
  H       2.096825     -1.835043     -0.855400
  H       1.967421     -1.900252      0.932197
  H      -2.402386     -2.356911     -0.266057
  H      -2.698698     -0.592294     -0.101763
  H      -1.846735     -1.487066      1.207868
  H       0.405605      2.680354      1.078324
  H      -1.297005      3.088485      0.663750
  H      -0.063849      2.962907     -0.639985
17
Coordinates from ORCA-job TMP_cation_cpcm_10_moread E -761.700470757133
  C       2.229149     -1.264380      0.103165
  O       1.436313     -0.040798      0.134226
  P       0.038357      0.143595     -0.637999
  O       0.574336      0.542269     -2.013850
  O      -0.785516     -1.176963     -0.655035
  C      -1.999979     -1.457715      0.139553
  O      -0.791875      1.192627      0.157439
  C      -0.347057      2.588882      0.337962
  H       3.267014     -0.948214      0.187088
  H       2.029022     -1.828081     -0.811478
  H       1.920306     -1.853504      0.976524
  H      -2.355077     -2.410735     -0.246349
  H      -2.727088     -0.661994     -0.022942
  H      -1.715539     -1.532547      1.190670
  H       0.432432      2.600533      1.101866
  H      -1.234438      3.124253      0.667438
  H       0.029639      2.982772     -0.608279
17
Coordinates from ORCA-job TMP_cation_cpcm_10_moread E -761.700706088275
  C       2.167925     -1.256348      0.128729
  O       1.391674     -0.022691      0.131463
  P       0.016390      0.170455     -0.684913
  O       0.589208      0.556111     -2.046674
  O      -0.824631     -1.134641     -0.746005
  C      -1.952385     -1.490977      0.140325
  O      -0.815171      1.223476      0.105111
  C      -0.323484      2.596686      0.339350
  H       3.211398     -0.952251      0.187670
  H       1.943715     -1.851933     -0.759475
  H       1.864185     -1.806063      1.029758
  H      -2.303213     -2.443840     -0.249431
  H      -2.716600     -0.717143      0.065195
  H      -1.576592     -1.588165      1.160464
  H       0.444005      2.558564      1.114298
  H      -1.197155      3.151864      0.672497
  H       0.080731      3.006896     -0.588362
17
Coordinates from ORCA-job TMP_cation_cpcm_10_moread E -761.700876082247
  C       2.134470     -1.264036      0.143376
  O       1.379989     -0.020143      0.121431
  P       0.012787      0.183150     -0.702384
  O       0.581783      0.579334     -2.060152
  O      -0.828274     -1.115481     -0.788362
  C      -1.917941     -1.499002      0.130919
  O      -0.813526      1.231022      0.098598
  C      -0.319188      2.602066      0.342865
  H       3.185067     -0.979133      0.173886
  H       1.884485     -1.888171     -0.717717
  H       1.841309     -1.774524      1.071141
  H      -2.267903     -2.455563     -0.250414
  H      -2.697542     -0.738053      0.084432
  H      -1.509841     -1.594111      1.138674
  H       0.457739      2.558385      1.107707
  H      -1.189315      3.152068      0.694087
  H       0.065902      3.022194     -0.588089
17
Coordinates from ORCA-job TMP_cation_cpcm_10_moread E -761.700970592334
  C       2.113340     -1.274568      0.149306
  O       1.373909     -0.025015      0.115259
  P       0.013806      0.190491     -0.713365
  O       0.592101      0.597680     -2.062961
  O      -0.831294     -1.103006     -0.817762
  C      -1.891825     -1.499271      0.128784
  O      -0.814340      1.237902      0.083917
  C      -0.324273      2.607769      0.343307
  H       3.168787     -1.005130      0.165168
  H       1.849488     -1.912911     -0.697087
  H       1.827671     -1.763930      1.091274
  H      -2.250184     -2.455864     -0.244821
  H      -2.678747     -0.744598      0.109290
  H      -1.458331     -1.597711      1.125698
  H       0.448446      2.559005      1.111895
  H      -1.197285      3.152319      0.696363
  H       0.058731      3.036837     -0.584264
17
Coordinates from ORCA-job TMP_cation_cpcm_10_moread E -761.701021431206
  C       2.101202     -1.283409      0.152095
  O       1.367393     -0.032873      0.114604
  P       0.015568      0.194796     -0.720903
  O       0.601640      0.610950     -2.064185
  O      -0.835025     -1.095283     -0.838121
  C      -1.875906     -1.496965      0.128051
  O      -0.815373      1.243259      0.071043
  C      -0.329267      2.611730      0.343850
  H       3.158861     -1.021064      0.157274
  H       1.828231     -1.929540     -0.685429
  H       1.824936     -1.762427      1.102609
  H      -2.234242     -2.458109     -0.233918
  H      -2.670862     -0.750379      0.119526
  H      -1.427109     -1.588502      1.119040
  H       0.439306      2.557400      1.116253
  H      -1.204821      3.151864      0.697570
  H       0.055468      3.048551     -0.579360
17
Coordinates from ORCA-job TMP_cation_cpcm_10_moread E -761.701052638824
  C       2.099337     -1.289154      0.152538
  O       1.362703     -0.041059      0.116921
  P       0.017661      0.195722     -0.724046
  O       0.605212      0.618479     -2.065113
  O      -0.837132     -1.093248     -0.847204
  C      -1.872616     -1.492856      0.126850
  O      -0.815066      1.244877      0.065225
  C      -0.332165      2.612685      0.345678
  H       3.156842     -1.025387      0.147116
  H       1.819513     -1.940194     -0.678807
  H       1.835088     -1.763919      1.108739
  H      -2.220445     -2.463121     -0.220865
  H      -2.676376     -0.755843      0.108499
  H      -1.422674     -1.565851      1.118994
  H       0.436197      2.554943      1.118197
  H      -1.208921      3.148968      0.702142
  H       0.052841      3.054959     -0.574863
17
Coordinates from ORCA-job TMP_cation_cpcm_10_moread E -761.701072101268
  C       2.095367     -1.291262      0.154334
  O       1.354826     -0.045274      0.118721
  P       0.016576      0.198140     -0.729555
  O       0.607687      0.622509     -2.069394
  O      -0.843576     -1.088941     -0.857495
  C      -1.870846     -1.492809      0.125161
  O      -0.817374      1.249177      0.056458
  C      -0.330436      2.612779      0.349047
  H       3.151992     -1.024299      0.131348
  H       1.803871     -1.950605     -0.666161
  H       1.847430     -1.757037      1.119197
  H      -2.199621     -2.474547     -0.208599
  H      -2.687500     -0.770567      0.095292
  H      -1.419082     -1.542844      1.117932
  H       0.436236      2.545896      1.122694
  H      -1.206254      3.149153      0.707369
  H       0.060704      3.060531     -0.566348
17
Coordinates from ORCA-job TMP_cation_cpcm_10_moread E -761.701078962547
  C       2.104806     -1.292082      0.151916
  O       1.357996     -0.048885      0.120768
  P       0.019320      0.194753     -0.724936
  O       0.603841      0.622273     -2.067436
  O      -0.839308     -1.094340     -0.849746
  C      -1.881331     -1.487606      0.122365
  O      -0.814786      1.244041      0.063780
  C      -0.330960      2.609365      0.352159
  H       3.159624     -1.019159      0.116869
  H       1.806964     -1.954187     -0.663923
  H       1.869078     -1.755874      1.120472
  H      -2.195412     -2.478182     -0.199173
  H      -2.701975     -0.771771      0.062872
  H      -1.447122     -1.514911      1.123752
  H       0.440778      2.546294      1.121171
  H      -1.206653      3.143116      0.714511
  H       0.055137      3.057153     -0.565423
17
Coordinates from ORCA-job TMP_cation_cpcm_10_moread E -761.701085324826
  C       2.099765     -1.290916      0.153670
  O       1.354035     -0.046438      0.120415
  P       0.016969      0.197331     -0.728000
  O       0.606179      0.622346     -2.069594
  O      -0.843593     -1.090020     -0.855324
  C      -1.879396     -1.490931      0.120595
  O      -0.817764      1.247764      0.058643
  C      -0.327625      2.609084      0.354587
  H       3.154268     -1.019108      0.102161
  H       1.790012     -1.960142     -0.651677
  H       1.875797     -1.743871      1.129903
  H      -2.181810     -2.486503     -0.196610
  H      -2.707460     -0.784065      0.057791
  H      -1.443815     -1.508484      1.121520
  H       0.441603      2.539392      1.125546
  H      -1.201774      3.145948      0.715962
  H       0.064608      3.058613     -0.559588
17
Coordinates from ORCA-job TMP_cation_cpcm_10_moread E -761.701090494269
  C       2.098844     -1.290751      0.153638
  O       1.354259     -0.045090      0.120947
  P       0.016838      0.197794     -0.726888
  O       0.608153      0.622371     -2.067819
  O      -0.843171     -1.088960     -0.855564
  C      -1.880105     -1.491472      0.118181
  O      -0.818667      1.248053      0.059150
  C      -0.326576      2.608231      0.356489
  H       3.153025     -1.020684      0.086734
  H       1.778325     -1.965065     -0.643087
  H       1.886556     -1.735167      1.136209
  H      -2.174637     -2.490838     -0.194446
  H      -2.712194     -0.790129      0.047103
  H      -1.449373     -1.500118      1.121246
  H       0.442097      2.537516      1.127862
  H      -1.200116      3.146418      0.717408
  H       0.066743      3.057889     -0.557163
17
Coordinates from ORCA-job TMP_cation_cpcm_10_moread E -761.701094310197
  C       2.099969     -1.291423      0.152704
  O       1.355414     -0.045340      0.123137
  P       0.017774      0.197241     -0.723889
  O       0.611221      0.622624     -2.063705
  O      -0.841317     -1.089108     -0.854339
  C      -1.882309     -1.490426      0.115087
  O      -0.818884      1.247185      0.061319
  C      -0.326695      2.607318      0.358366
  H       3.153363     -1.022854      0.067494
  H       1.767427     -1.971031     -0.634395
  H       1.903284     -1.727342      1.142160
  H      -2.169329     -2.493942     -0.191191
  H      -2.717954     -0.794547      0.032290
  H      -1.459606     -1.488479      1.121560
  H       0.441531      2.537236      1.130182
  H      -1.200188      3.146048      0.718695
  H       0.066298      3.056840     -0.555473
17
Coordinates from ORCA-job TMP_cation_cpcm_10_moread E -761.701095816612
  C       2.101325     -1.291647      0.152096
  O       1.355324     -0.046365      0.125493
  P       0.018233      0.196574     -0.722231
  O       0.613213      0.622271     -2.061282
  O      -0.840819     -1.089530     -0.853727
  C      -1.884092     -1.489573      0.113569
  O      -0.819008      1.246717      0.062113
  C      -0.326914      2.606978      0.359046
  H       3.153961     -1.022788      0.057569
  H       1.763307     -1.973855     -0.630333
  H       1.913856     -1.724241      1.144766
  H      -2.168617     -2.494650     -0.189959
  H      -2.720935     -0.795702      0.025726
  H      -1.465154     -1.483472      1.121599
  H       0.440461      2.536974      1.131699
  H      -1.200588      3.146000      0.718561
  H       0.066448      3.056308     -0.554707
17
Coordinates from ORCA-job TMP_cation_cpcm_10_moread E -761.701097713929
  C       2.103749     -1.291278      0.151422
  O       1.354362     -0.048124      0.129643
  P       0.018476      0.195385     -0.720168
  O       0.615927      0.620769     -2.058215
  O      -0.840826     -1.090422     -0.852782
  C      -1.887147     -1.488596      0.111740
  O      -0.819308      1.246130      0.062755
  C      -0.327032      2.606571      0.359584
  H       3.154969     -1.020748      0.044823
  H       1.759310     -1.976982     -0.625024
  H       1.929328     -1.720328      1.147987
  H      -2.170927     -2.494322     -0.190411
  H      -2.724130     -0.795352      0.019916
  H      -1.471918     -1.480474      1.121294
  H       0.438358      2.536290      1.134154
  H      -1.201118      3.146312      0.717084
  H       0.067928      3.055169     -0.553802
17
Coordinates from ORCA-job TMP_cation_cpcm_10_moread E -761.701099332469
  C       2.105805     -1.290330      0.151313
  O       1.352712     -0.049687      0.133637
  P       0.018290      0.194372     -0.718930
  O       0.618177      0.618816     -2.056161
  O      -0.841354     -1.091229     -0.852317
  C      -1.889974     -1.488092      0.110073
  O      -0.819746      1.245713      0.062748
  C      -0.326869      2.606108      0.360014
  H       3.155350     -1.017660      0.032563
  H       1.755085     -1.980140     -0.618559
  H       1.944594     -1.715371      1.151807
  H      -2.175130     -2.493118     -0.193169
  H      -2.725839     -0.793575      0.017480
  H      -1.476432     -1.481411      1.120337
  H       0.436015      2.535084      1.136954
  H      -1.201468      3.146789      0.714856
  H       0.070783      3.053731     -0.552646
17
Coordinates from ORCA-job TMP_cation_cpcm_10_moread E -761.701100773181
  C       2.106344     -1.289384      0.152032
  O       1.351059     -0.050450      0.135771
  P       0.017844      0.194111     -0.719139
  O       0.619663      0.617522     -2.055801
  O      -0.842049     -1.091406     -0.852992
  C      -1.891088     -1.488318      0.108913
  O      -0.820183      1.245743      0.061783
  C      -0.326740      2.605866      0.360308
  H       3.154525     -1.015617      0.022894
  H       1.749904     -1.983534     -0.611205
  H       1.955629     -1.709580      1.156195
  H      -2.179809     -2.491183     -0.198078
  H      -2.724762     -0.790717      0.020009
  H      -1.476105     -1.486952      1.118603
  H       0.433548      2.533875      1.139655
  H      -1.202004      3.147311      0.712299
  H       0.074225      3.052713     -0.551248
17
Coordinates from ORCA-job TMP_cation_cpcm_10_moread E -761.701101798984
  C       2.106092     -1.288597      0.153210
  O       1.349923     -0.050564      0.136578
  P       0.017541      0.194278     -0.720014
  O       0.620777      0.616749     -2.056254
  O      -0.842320     -1.091329     -0.854089
  C      -1.891216     -1.488784      0.107865
  O      -0.820553      1.245761      0.060631
  C      -0.326942      2.605558      0.360654
  H       3.153046     -1.014865      0.013484
  H       1.743288     -1.987571     -0.602517
  H       1.964971     -1.702587      1.161315
  H      -2.184777     -2.488616     -0.204317
  H      -2.721837     -0.786905      0.024714
  H      -1.473483     -1.494847      1.116391
  H       0.430890      2.532929      1.142306
  H      -1.203010      3.147599      0.709656
  H       0.077608      3.051791     -0.549613
17
Coordinates from ORCA-job TMP_cation_cpcm_10_moread E -761.701102118724
  C       2.105444     -1.288656      0.153874
  O       1.349961     -0.050278      0.135965
  P       0.017650      0.194624     -0.720707
  O       0.621077      0.617071     -2.056781
  O      -0.842089     -1.091045     -0.854908
  C      -1.890500     -1.489009      0.107507
  O      -0.820596      1.245779      0.060156
  C      -0.327359      2.605461      0.360819
  H       3.152137     -1.015886      0.010171
  H       1.739817     -1.989641     -0.598595
  H       1.967147     -1.699435      1.163667
  H      -2.186236     -2.487472     -0.206946
  H      -2.719790     -0.785246      0.027364
  H      -1.471109     -1.498463      1.115315
  H       0.429846      2.532915      1.143100
  H      -1.203781      3.147509      0.708895
  H       0.078381      3.051774     -0.548897
