17
Coordinates from ORCA-job TMP_cation_cpcm_14_moread E -761.677748487884
  C       2.322150     -1.110107     -0.121247
  O       1.446904     -0.246841      0.586848
  P      -0.001093      0.003392     -0.032977
  O      -0.049654      0.153953     -1.490261
  O      -0.851133     -1.206662      0.564270
  C      -2.124125     -1.458547     -0.009074
  O      -0.530506      1.251111      0.807508
  C      -0.191013      2.546951      0.340395
  H       3.337969     -0.827674      0.154216
  H       2.176116     -0.993877     -1.196468
  H       2.136428     -2.148361      0.159357
  H      -2.350663     -2.509116      0.170324
  H      -2.100650     -1.254852     -1.080809
  H      -2.881254     -0.829776      0.462504
  H       0.789643      2.839662      0.719716
  H      -0.952799      3.229495      0.716423
  H      -0.176319      2.561249     -0.750724
17
Coordinates from ORCA-job TMP_cation_cpcm_14_moread E -761.686450107482
  C       2.378588     -1.165876     -0.099568
  O       1.484527     -0.214053      0.509828
  P       0.026301      0.032670     -0.095932
  O      -0.021412      0.230768     -1.560723
  O      -0.815076     -1.207366      0.459519
  C      -2.156704     -1.460989     -0.014546
  O      -0.518474      1.248385      0.785854
  C      -0.235556      2.585710      0.351618
  H       3.390738     -0.867927      0.173948
  H       2.257177     -1.167924     -1.187202
  H       2.169467     -2.174823      0.285221
  H      -2.345841     -2.523676      0.141799
  H      -2.255724     -1.209754     -1.072278
  H      -2.875679     -0.871527      0.569891
  H       0.762008      2.880712      0.712987
  H      -0.997866      3.232935      0.785387
  H      -0.246474      2.652734     -0.745801
17
Coordinates from ORCA-job TMP_cation_cpcm_14_moread E -761.691535805480
  C       2.402568     -1.212643     -0.075861
  O       1.507913     -0.183946      0.429075
  P       0.042697      0.058751     -0.153668
  O       0.007047      0.294257     -1.630017
  O      -0.780836     -1.208193      0.352189
  C      -2.170713     -1.468704     -0.018445
  O      -0.507300      1.248372      0.756732
  C      -0.263212      2.620357      0.360521
  H       3.411689     -0.892212      0.177214
  H       2.276401     -1.330979     -1.158038
  H       2.167051     -2.167953      0.416846
  H      -2.312674     -2.542547      0.095013
  H      -2.370503     -1.155371     -1.045530
  H      -2.831447     -0.929158      0.671258
  H       0.739938      2.909108      0.713613
  H      -1.026912      3.229519      0.841613
  H      -0.291706      2.731340     -0.732519
17
Coordinates from ORCA-job TMP_cation_cpcm_14_moread E -761.696093041214
  C       2.405878     -1.266937     -0.038402
  O       1.534458     -0.148564      0.318575
  P       0.062412      0.088090     -0.229668
  O       0.057774      0.375206     -1.716670
  O      -0.729826     -1.210884      0.196046
  C      -2.165801     -1.468447     -0.018020
  O      -0.496676      1.239875      0.707805
  C      -0.294466      2.649217      0.368553
  H       3.419005     -0.924056      0.157745
  H       2.248152     -1.540784     -1.087283
  H       2.140320     -2.121191      0.599551
  H      -2.262052     -2.551910     -0.004512
  H      -2.492280     -1.047240     -0.970729
  H      -2.716972     -1.016595      0.811768
  H       0.704805      2.936890      0.721778
  H      -1.068422      3.201000      0.897722
  H      -0.346310      2.806330     -0.714260
17
Coordinates from ORCA-job TMP_cation_cpcm_14_moread E -761.698788024000
  C       2.393083     -1.307250      0.000854
  O       1.557665     -0.125476      0.220514
  P       0.082122      0.104952     -0.302023
  O       0.128669      0.448541     -1.789288
  O      -0.682939     -1.217448      0.031371
  C      -2.142605     -1.450655     -0.005952
  O      -0.498417      1.217273      0.648231
  C      -0.327690      2.653219      0.368245
  H       3.415589     -0.963833      0.135823
  H       2.202187     -1.710584     -0.998447
  H       2.105577     -2.049957      0.755058
  H      -2.243391     -2.525886     -0.132875
  H      -2.582905     -0.897784     -0.837272
  H      -2.549444     -1.115921      0.950085
  H       0.658280      2.947700      0.739077
  H      -1.121874      3.148909      0.921794
  H      -0.393906      2.844199     -0.705196
17
Coordinates from ORCA-job TMP_cation_cpcm_14_moread E -761.700062772910
  C       2.376216     -1.324592      0.024976
  O       1.571967     -0.112836      0.165781
  P       0.095444      0.108651     -0.351055
  O       0.199085      0.494159     -1.828951
  O      -0.655397     -1.226660     -0.089433
  C      -2.114436     -1.428192      0.012001
  O      -0.518896      1.193342      0.594147
  C      -0.354989      2.640905      0.362958
  H       3.408366     -0.997152      0.122484
  H       2.166234     -1.796730     -0.938766
  H       2.080134     -1.996326      0.838957
  H      -2.262266     -2.480170     -0.220184
  H      -2.620349     -0.778815     -0.704083
  H      -2.404088     -1.191650      1.036966
  H       0.613280      2.936788      0.771838
  H      -1.173796      3.105038      0.908325
  H      -0.406509      2.854240     -0.705963
17
Coordinates from ORCA-job TMP_cation_cpcm_14_moread E -761.700987741492
  C       2.359301     -1.331189      0.041938
  O       1.579456     -0.102952      0.129113
  P       0.104170      0.106076     -0.400232
  O       0.287514      0.528843     -1.860608
  O      -0.642525     -1.237699     -0.209043
  C      -2.084990     -1.403774      0.038920
  O      -0.561601      1.167117      0.524043
  C      -0.382399      2.621334      0.354151
  H       3.399572     -1.023245      0.119486
  H       2.143554     -1.847905     -0.896893
  H       2.058647     -1.955204      0.891405
  H      -2.308622     -2.418853     -0.281329
  H      -2.640547     -0.668373     -0.545657
  H      -2.253188     -1.269702      1.108317
  H       0.556685      2.903428      0.832417
  H      -1.234682      3.067015      0.862938
  H      -0.380344      2.865083     -0.708965
17
Coordinates from ORCA-job TMP_cation_cpcm_14_moread E -761.701529198836
  C       2.340360     -1.328597      0.052868
  O       1.573713     -0.093218      0.108261
  P       0.104076      0.104204     -0.452222
  O       0.380884      0.550501     -1.890687
  O      -0.647951     -1.243356     -0.320464
  C      -2.059368     -1.390689      0.069967
  O      -0.618829      1.149353      0.438849
  C      -0.400866      2.605346      0.345752
  H       3.385170     -1.034200      0.127471
  H       2.129654     -1.869486     -0.873410
  H       2.033909     -1.928360      0.918155
  H      -2.356842     -2.368136     -0.303650
  H      -2.652399     -0.597180     -0.388383
  H      -2.112997     -1.344671      1.158493
  H       0.498243      2.849357      0.912753
  H      -1.285186      3.048593      0.799291
  H      -0.311570      2.890540     -0.703045
17
Coordinates from ORCA-job TMP_cation_cpcm_14_moread E -761.701863974742
  C       2.324708     -1.320679      0.059098
  O       1.557359     -0.085837      0.105730
  P       0.097621      0.105497     -0.495233
  O       0.456939      0.555698     -1.914670
  O      -0.667750     -1.240564     -0.403854
  C      -2.045412     -1.390651      0.096223
  O      -0.669426      1.145491      0.362012
  C      -0.406716      2.597422      0.339476
  H       3.369593     -1.028160      0.141950
  H       2.123711     -1.865859     -0.866925
  H       2.012484     -1.918925      0.923954
  H      -2.388109     -2.344819     -0.298618
  H      -2.665185     -0.571073     -0.270603
  H      -2.011943     -1.400777      1.186663
  H       0.453972      2.793955      0.979854
  H      -1.309731      3.050945      0.743165
  H      -0.232114      2.918336     -0.688223
17
Coordinates from ORCA-job TMP_cation_cpcm_14_moread E -761.702146510768
  C       2.290780     -1.305659      0.071283
  O       1.519853     -0.071806      0.106869
  P       0.080336      0.116252     -0.559768
  O       0.548261      0.555993     -1.951578
  O      -0.708256     -1.222637     -0.518274
  C      -2.021627     -1.406029      0.129391
  O      -0.734533      1.157346      0.250138
  C      -0.402245      2.593578      0.332777
  H       3.334377     -1.011921      0.166018
  H       2.100449     -1.854793     -0.854753
  H       1.969397     -1.902923      0.934082
  H      -2.408720     -2.335960     -0.282252
  H      -2.676975     -0.569112     -0.112520
  H      -1.864902     -1.485095      1.206414
  H       0.400716      2.710658      1.061954
  H      -1.317477      3.073412      0.673090
  H      -0.109433      2.958697     -0.652871
17
Coordinates from ORCA-job TMP_cation_cpcm_14_moread E -761.702389104544
  C       2.277740     -1.293205      0.077924
  O       1.498466     -0.063577      0.114708
  P       0.069158      0.122044     -0.582205
  O       0.560535      0.549306     -1.969171
  O      -0.729417     -1.213257     -0.553805
  C      -2.019665     -1.419227      0.135083
  O      -0.753489      1.166047      0.219674
  C      -0.388289      2.591980      0.333895
  H       3.318908     -0.991821      0.174508
  H       2.088570     -1.842201     -0.848378
  H       1.957746     -1.893536      0.939280
  H      -2.400462     -2.355303     -0.268219
  H      -2.694081     -0.592115     -0.086280
  H      -1.828214     -1.497962      1.206639
  H       0.403379      2.676978      1.080044
  H      -1.298158      3.088388      0.664154
  H      -0.062726      2.967461     -0.637852
17
Coordinates from ORCA-job TMP_cation_cpcm_14_moread E -761.702956430083
  C       2.217203     -1.263881      0.107352
  O       1.431681     -0.036219      0.127729
  P       0.035356      0.149302     -0.649870
  O       0.579074      0.547208     -2.022358
  O      -0.789843     -1.170463     -0.671408
  C      -1.988310     -1.463325      0.143043
  O      -0.796844      1.198446      0.143188
  C      -0.345916      2.590755      0.337412
  H       3.256641     -0.953657      0.193768
  H       2.016671     -1.832974     -0.803925
  H       1.900863     -1.845673      0.983240
  H      -2.348978     -2.412103     -0.248118
  H      -2.719598     -0.667069      0.004186
  H      -1.683430     -1.550808      1.187409
  H       0.426930      2.592569      1.108109
  H      -1.233177      3.128772      0.662786
  H       0.041676      2.989119     -0.602543
17
Coordinates from ORCA-job TMP_cation_cpcm_14_moread E -761.703197086166
  C       2.158892     -1.256521      0.131832
  O       1.390443     -0.018931      0.124205
  P       0.014798      0.174471     -0.693294
  O       0.588283      0.560389     -2.054161
  O      -0.825627     -1.130924     -0.754793
  C      -1.942331     -1.494361      0.142447
  O      -0.817064      1.227052      0.096981
  C      -0.323395      2.597938      0.339248
  H       3.203921     -0.958713      0.194755
  H       1.935026     -1.855989     -0.753928
  H       1.846697     -1.800025      1.034002
  H      -2.297818     -2.444210     -0.250442
  H      -2.707489     -0.720179      0.082624
  H      -1.553782     -1.599430      1.156987
  H       0.439854      2.554694      1.118104
  H      -1.197492      3.153912      0.669940
  H       0.087085      3.010829     -0.584507
17
Coordinates from ORCA-job TMP_cation_cpcm_14_moread E -761.703374077141
  C       2.126175     -1.264592      0.146366
  O       1.379394     -0.017286      0.114443
  P       0.011782      0.186463     -0.709954
  O       0.579113      0.584103     -2.067265
  O      -0.828584     -1.112403     -0.796311
  C      -1.908159     -1.501237      0.132366
  O      -0.814304      1.233260      0.092857
  C      -0.319406      2.602805      0.342837
  H       3.178261     -0.985920      0.182192
  H       1.877149     -1.891722     -0.712926
  H       1.823989     -1.769543      1.074582
  H      -2.262203     -2.455798     -0.250206
  H      -2.688374     -0.740249      0.098485
  H      -1.488957     -1.601756      1.135024
  H       0.455047      2.555872      1.109996
  H      -1.190065      3.152623      0.693066
  H       0.069142      3.025381     -0.585551
17
Coordinates from ORCA-job TMP_cation_cpcm_14_moread E -761.703469124820
  C       2.099240     -1.274935      0.153812
  O       1.369506     -0.021044      0.108301
  P       0.010713      0.196348     -0.724023
  O       0.592907      0.603183     -2.071244
  O      -0.836407     -1.095461     -0.831770
  C      -1.877165     -1.504881      0.131069
  O      -0.817424      1.244165      0.072844
  C      -0.322982      2.610245      0.342622
  H       3.156570     -1.013451      0.175456
  H       1.835382     -1.916747     -0.690054
  H       1.803292     -1.757006      1.096754
  H      -2.239995     -2.458642     -0.245432
  H      -2.666442     -0.752467      0.134743
  H      -1.423895     -1.612513      1.118216
  H       0.444525      2.553899      1.115882
  H      -1.195824      3.156814      0.692954
  H       0.067999      3.042492     -0.580130
17
Coordinates from ORCA-job TMP_cation_cpcm_14_moread E -761.703517754089
  C       2.098100     -1.286003      0.152885
  O       1.370307     -0.032995      0.109681
  P       0.016920      0.196180     -0.723332
  O       0.598545      0.616792     -2.066473
  O      -0.832085     -1.094918     -0.839752
  C      -1.870157     -1.496479      0.129577
  O      -0.813218      1.242353      0.072639
  C      -0.331680      2.612707      0.342596
  H       3.156724     -1.028330      0.169754
  H       1.830560     -1.929990     -0.688184
  H       1.809266     -1.765697      1.099640
  H      -2.232956     -2.455626     -0.233234
  H      -2.663126     -0.747708      0.127051
  H      -1.416871     -1.592159      1.118157
  H       0.438498      2.562068      1.113628
  H      -1.208482      3.150178      0.697307
  H       0.049654      3.049627     -0.581939
17
Coordinates from ORCA-job TMP_cation_cpcm_14_moread E -761.703545754796
  C       2.084509     -1.290195      0.156753
  O       1.358086     -0.037327      0.110608
  P       0.014380      0.202197     -0.733740
  O       0.607131      0.624794     -2.071736
  O      -0.843179     -1.084633     -0.860642
  C      -1.857180     -1.499451      0.129875
  O      -0.818039      1.252108      0.054876
  C      -0.330963      2.616468      0.343852
  H       3.144009     -1.034822      0.161646
  H       1.807220     -1.941998     -0.674934
  H       1.806427     -1.760454      1.111670
  H      -2.209718     -2.466209     -0.222803
  H      -2.662946     -0.764521      0.137766
  H      -1.386197     -1.583990      1.111319
  H       0.432577      2.552050      1.120604
  H      -1.207456      3.155069      0.697429
  H       0.061339      3.060916     -0.572542
17
Coordinates from ORCA-job TMP_cation_cpcm_14_moread E -761.703566245938
  C       2.098012     -1.293536      0.153185
  O       1.359773     -0.046875      0.114793
  P       0.019010      0.197334     -0.729485
  O       0.602980      0.626911     -2.070217
  O      -0.839156     -1.092120     -0.853787
  C      -1.870499     -1.489966      0.127518
  O      -0.814289      1.245891      0.060983
  C      -0.333571      2.612656      0.347454
  H       3.155049     -1.027779      0.147932
  H       1.817269     -1.947074     -0.675824
  H       1.834620     -1.766496      1.110754
  H      -2.202929     -2.470719     -0.205530
  H      -2.683977     -0.764224      0.095697
  H      -1.420255     -1.540898      1.120988
  H       0.436280      2.551525      1.118494
  H      -1.210701      3.145687      0.707535
  H       0.052384      3.059682     -0.570491
17
Coordinates from ORCA-job TMP_cation_cpcm_14_moread E -761.703575801970
  C       2.094301     -1.291700      0.154933
  O       1.356281     -0.044396      0.113784
  P       0.016617      0.199259     -0.732709
  O       0.602300      0.626156     -2.073852
  O      -0.842855     -1.089147     -0.857828
  C      -1.869715     -1.492830      0.126095
  O      -0.816560      1.248573      0.057163
  C      -0.329908      2.611865      0.349792
  H       3.151179     -1.025636      0.138267
  H       1.805195     -1.950989     -0.666471
  H       1.838663     -1.756564      1.118352
  H      -2.191443     -2.478402     -0.203135
  H      -2.689577     -0.774591      0.089937
  H      -1.418615     -1.534376      1.119521
  H       0.438800      2.544856      1.121502
  H      -1.205298      3.147477      0.710158
  H       0.060634      3.060445     -0.565508
17
Coordinates from ORCA-job TMP_cation_cpcm_14_moread E -761.703583796661
  C       2.092184     -1.290571      0.155791
  O       1.354894     -0.042148      0.112754
  P       0.015375      0.200436     -0.733868
  O       0.602143      0.625875     -2.075393
  O      -0.844150     -1.087222     -0.859838
  C      -1.870734     -1.494144      0.123094
  O      -0.818163      1.249696      0.055857
  C      -0.326833      2.610054      0.353370
  H       3.148823     -1.025087      0.119852
  H       1.789358     -1.957767     -0.654017
  H       1.850463     -1.743458      1.128168
  H      -2.177168     -2.487240     -0.197921
  H      -2.698652     -0.786088      0.073423
  H      -1.424981     -1.518925      1.119374
  H       0.441750      2.538921      1.124813
  H      -1.200643      3.147555      0.714671
  H       0.066334      3.060113     -0.560128
17
Coordinates from ORCA-job TMP_cation_cpcm_14_moread E -761.703588677826
  C       2.092025     -1.291043      0.155452
  O       1.355149     -0.041862      0.113162
  P       0.015692      0.200642     -0.732776
  O       0.604074      0.626498     -2.073767
  O      -0.843556     -1.086463     -0.860263
  C      -1.872364     -1.493612      0.120148
  O      -0.818790      1.249674      0.056262
  C      -0.325945      2.608787      0.356154
  H       3.148295     -1.026737      0.101177
  H       1.776582     -1.964514     -0.644121
  H       1.864815     -1.734093      1.135618
  H      -2.166536     -2.493167     -0.192158
  H      -2.706597     -0.794139      0.056338
  H      -1.434084     -1.502981      1.119937
  H       0.442671      2.536247      1.127396
  H      -1.199173      3.146839      0.718044
  H       0.067740      3.059923     -0.556603
17
Coordinates from ORCA-job TMP_cation_cpcm_14_moread E -761.703591945539
  C       2.093164     -1.292090      0.154477
  O       1.355720     -0.042874      0.115409
  P       0.016658      0.200188     -0.730334
  O       0.607452      0.627031     -2.070126
  O      -0.842445     -1.086369     -0.859803
  C      -1.874470     -1.492316      0.117489
  O      -0.819020      1.249216      0.057445
  C      -0.326217      2.608130      0.357959
  H       3.148831     -1.028681      0.083828
  H       1.767025     -1.970201     -0.636707
  H       1.880345     -1.728005      1.140933
  H      -2.160097     -2.496643     -0.187416
  H      -2.713104     -0.799269      0.041678
  H      -1.443721     -1.489767      1.120557
  H       0.442114      2.535571      1.129455
  H      -1.199412      3.146302      0.719816
  H       0.067178      3.059777     -0.554661
17
Coordinates from ORCA-job TMP_cation_cpcm_14_moread E -761.703593600122
  C       2.094647     -1.292575      0.153735
  O       1.355657     -0.044172      0.118249
  P       0.017261      0.199512     -0.728317
  O       0.610052      0.626782     -2.067112
  O      -0.841968     -1.086701     -0.859099
  C      -1.876259     -1.491427      0.116079
  O      -0.819080      1.248821      0.058388
  C      -0.326680      2.608077      0.358363
  H       3.149726     -1.028863      0.074364
  H       1.763379     -1.972697     -0.633511
  H       1.890723     -1.725977      1.143154
  H      -2.159695     -2.497162     -0.186295
  H      -2.716030     -0.800226      0.035571
  H      -1.449263     -1.485174      1.120736
  H       0.441004      2.535917      1.130527
  H      -1.200089      3.146390      0.719565
  H       0.066615      3.059474     -0.554399
17
Coordinates from ORCA-job TMP_cation_cpcm_14_moread E -761.703595202593
  C       2.096412     -1.292473      0.153226
  O       1.354830     -0.045645      0.122042
  P       0.017498      0.198678     -0.726389
  O       0.612712      0.625747     -2.064152
  O      -0.841995     -1.087212     -0.858342
  C      -1.878390     -1.490874      0.114787
  O      -0.819275      1.248503      0.059101
  C      -0.326966      2.608152      0.358342
  H       3.150632     -1.027528      0.065275
  H       1.760555     -1.974637     -0.630223
  H       1.902047     -1.723993      1.145392
  H      -2.162371     -2.496461     -0.187633
  H      -2.717798     -0.799361      0.032739
  H      -1.453638     -1.484806      1.120408
  H       0.439383      2.536199      1.131831
  H      -1.200707      3.146964      0.718057
  H       0.067073      3.058745     -0.554460
17
Coordinates from ORCA-job TMP_cation_cpcm_14_moread E -761.703596913186
  C       2.098074     -1.291729      0.153225
  O       1.353061     -0.047146      0.126480
  P       0.017324      0.197864     -0.724933
  O       0.615413      0.624116     -2.061636
  O      -0.842483     -1.087734     -0.858043
  C      -1.880765     -1.490668      0.113135
  O      -0.819743      1.248280      0.059268
  C      -0.326909      2.608036      0.358425
  H       3.150938     -1.024899      0.053401
  H       1.755830     -1.977553     -0.624133
  H       1.916587     -1.719644      1.149382
  H      -2.166858     -2.495074     -0.191252
  H      -2.718814     -0.797409      0.031677
  H      -1.457070     -1.487376      1.119226
  H       0.437231      2.535658      1.134024
  H      -1.201093      3.147773      0.715712
  H       0.069276      3.057507     -0.553958
17
Coordinates from ORCA-job TMP_cation_cpcm_14_moread E -761.703598529396
  C       2.098352     -1.290823      0.154097
  O       1.351078     -0.047925      0.129140
  P       0.016828      0.197709     -0.725039
  O       0.617298      0.623032     -2.060950
  O      -0.843192     -1.087718     -0.859051
  C      -1.881802     -1.491044      0.111564
  O      -0.820350      1.248440      0.058264
  C      -0.326684      2.607820      0.358806
  H       3.149850     -1.023005      0.041464
  H       1.748711     -1.981758     -0.615299
  H       1.929532     -1.712738      1.155015
  H      -2.171135     -2.493408     -0.196459
  H      -2.717903     -0.795046      0.033683
  H      -1.456779     -1.492827      1.117093
  H       0.434798      2.534289      1.136857
  H      -1.201442      3.148471      0.713272
  H       0.072840      3.056531     -0.552457
17
Coordinates from ORCA-job TMP_cation_cpcm_14_moread E -761.703599773565
  C       2.097887     -1.289865      0.155496
  O       1.349521     -0.047980      0.130147
  P       0.016368      0.197930     -0.726158
  O       0.618554      0.622274     -2.061545
  O      -0.843606     -1.087527     -0.860632
  C      -1.882008     -1.491595      0.110031
  O      -0.821002      1.248576      0.056693
  C      -0.326638      2.607287      0.359499
  H       3.147998     -1.022102      0.029138
  H       1.739843     -1.986941     -0.604329
  H       1.941473     -1.703707      1.161745
  H      -2.175499     -2.491274     -0.202687
  H      -2.715446     -0.791918      0.037316
  H      -1.454428     -1.499972      1.114428
  H       0.432034      2.532460      1.140140
  H      -1.202107      3.148783      0.710847
  H       0.077056      3.055570     -0.550129
17
Coordinates from ORCA-job TMP_cation_cpcm_14_moread E -761.703600197501
  C       2.097261     -1.289773      0.156307
  O       1.349388     -0.047710      0.129350
  P       0.016417      0.198252     -0.727189
  O       0.618777      0.622523     -2.062442
  O      -0.843474     -1.087275     -0.861769
  C      -1.881473     -1.491714      0.109378
  O      -0.821179      1.248570      0.055807
  C      -0.326947      2.606896      0.360031
  H       3.146905     -1.022971      0.023763
  H       1.735040     -1.989964     -0.598608
  H       1.945646     -1.698903      1.165190
  H      -2.176642     -2.490322     -0.205130
  H      -2.713787     -0.790504      0.038997
  H      -1.452439     -1.502711      1.113119
  H       0.430735      2.531634      1.141604
  H      -1.202798      3.148486      0.710246
  H       0.078572      3.055486     -0.548656
17
Coordinates from ORCA-job TMP_cation_cpcm_14_moread E -761.703600389553
  C       2.096924     -1.290022      0.156728
  O       1.349802     -0.047499      0.128296
  P       0.016682      0.198447     -0.727810
  O       0.618737      0.623035     -2.063018
  O      -0.843184     -1.087089     -0.862450
  C      -1.881004     -1.491613      0.109033
  O      -0.821102      1.248459      0.055503
  C      -0.327368      2.606653      0.360378
  H       3.146463     -1.024248      0.021181
  H       1.732477     -1.991879     -0.595550
  H       1.947218     -1.696292      1.167049
  H      -2.176831     -2.489845     -0.206025
  H      -2.712867     -0.789800      0.039530
  H      -1.451355     -1.503529      1.112498
  H       0.430096      2.531459      1.142192
  H      -1.203437      3.148066      0.710305
  H       0.078748      3.055697     -0.547840
