17
Coordinates from ORCA-job TMP_cation_cpcm_1000_moread E -761.683723124995
  C       2.322150     -1.110107     -0.121247
  O       1.446904     -0.246841      0.586848
  P      -0.001093      0.003392     -0.032977
  O      -0.049654      0.153953     -1.490261
  O      -0.851133     -1.206662      0.564270
  C      -2.124125     -1.458547     -0.009074
  O      -0.530506      1.251111      0.807508
  C      -0.191013      2.546951      0.340395
  H       3.337969     -0.827674      0.154216
  H       2.176116     -0.993877     -1.196468
  H       2.136428     -2.148361      0.159357
  H      -2.350663     -2.509116      0.170324
  H      -2.100650     -1.254852     -1.080809
  H      -2.881254     -0.829776      0.462504
  H       0.789643      2.839662      0.719716
  H      -0.952799      3.229495      0.716423
  H      -0.176319      2.561249     -0.750724
17
Coordinates from ORCA-job TMP_cation_cpcm_1000_moread E -761.692366792468
  C       2.378311     -1.165791     -0.099453
  O       1.484558     -0.213919      0.509788
  P       0.026394      0.032673     -0.096226
  O      -0.021492      0.230876     -1.560927
  O      -0.814847     -1.207315      0.459592
  C      -2.156266     -1.460782     -0.014564
  O      -0.518318      1.248208      0.785921
  C      -0.235771      2.585431      0.351638
  H       3.390476     -0.868027      0.174168
  H       2.256770     -1.167843     -1.187034
  H       2.168745     -2.174725      0.285271
  H      -2.345506     -2.523432      0.141955
  H      -2.255017     -1.209614     -1.072284
  H      -2.875168     -0.870991      0.569627
  H       0.762132      2.880225      0.712371
  H      -0.997858      3.232576      0.785871
  H      -0.247143      2.652451     -0.745712
17
Coordinates from ORCA-job TMP_cation_cpcm_1000_moread E -761.697426856262
  C       2.401987     -1.212513     -0.075573
  O       1.508005     -0.183549      0.428836
  P       0.042814      0.058967     -0.154371
  O       0.006548      0.294966     -1.630378
  O      -0.780288     -1.208030      0.352372
  C      -2.169746     -1.468461     -0.018580
  O      -0.506859      1.248101      0.757065
  C      -0.263569      2.619875      0.360675
  H       3.411192     -0.892566      0.177677
  H       2.275524     -1.331290     -1.157648
  H       2.165547     -2.167696      0.417168
  H      -2.311842     -2.542230      0.095452
  H      -2.369017     -1.155427     -1.045799
  H      -2.830631     -0.928220      0.670460
  H       0.740320      2.908293      0.712050
  H      -1.026621      3.228950      0.842852
  H      -0.293365      2.730829     -0.732258
17
Coordinates from ORCA-job TMP_cation_cpcm_1000_moread E -761.701976677930
  C       2.404993     -1.267023     -0.037769
  O       1.534889     -0.148017      0.317861
  P       0.062763      0.088620     -0.231133
  O       0.056866      0.376995     -1.717306
  O      -0.728686     -1.210594      0.196222
  C      -2.164102     -1.468068     -0.018452
  O      -0.495535      1.239471      0.708508
  C      -0.295228      2.648569      0.368931
  H       3.418403     -0.925118      0.158409
  H       2.246508     -1.542210     -1.086216
  H       2.138030     -2.120744      0.600614
  H      -2.260517     -2.551498     -0.003791
  H      -2.489947     -1.047404     -0.971574
  H      -2.715823     -1.015027      0.810381
  H       0.705385      2.936292      0.718455
  H      -1.067739      3.200018      0.900524
  H      -0.350260      2.805738     -0.713666
17
Coordinates from ORCA-job TMP_cation_cpcm_1000_moread E -761.704708486196
  C       2.391756     -1.308214      0.002449
  O       1.558962     -0.124730      0.217749
  P       0.083037      0.106028     -0.305214
  O       0.127612      0.452483     -1.790989
  O      -0.680570     -1.217128      0.029577
  C      -2.139818     -1.449839     -0.006773
  O      -0.496090      1.216522      0.648895
  C      -0.329382      2.652428      0.368804
  H       3.414934     -0.966514      0.136349
  H       2.199029     -1.715594     -0.994946
  H       2.102303     -2.047963      0.759123
  H      -2.241001     -2.524995     -0.133909
  H      -2.580547     -0.895944     -0.837175
  H      -2.545922     -1.115094      0.949622
  H       0.658666      2.948000      0.733342
  H      -1.121039      3.146698      0.927205
  H      -0.401929      2.843855     -0.704109
17
Coordinates from ORCA-job TMP_cation_cpcm_1000_moread E -761.706006671828
  C       2.374182     -1.326217      0.027453
  O       1.574091     -0.111928      0.160821
  P       0.096697      0.110270     -0.355508
  O       0.197409      0.499841     -1.831309
  O      -0.652075     -1.226187     -0.092816
  C      -2.110546     -1.427202      0.010536
  O      -0.515392      1.192463      0.595074
  C      -0.357240      2.640061      0.363737
  H       3.407448     -1.001507      0.121868
  H       2.160539     -1.805190     -0.932196
  H       2.076502     -1.991737      0.846289
  H      -2.259263     -2.478749     -0.222977
  H      -2.617198     -0.775838     -0.703241
  H      -2.398507     -1.192018      1.036343
  H       0.614061      2.938017      0.764021
  H      -1.172477      3.101817      0.916420
  H      -0.418231      2.854105     -0.704514
17
Coordinates from ORCA-job TMP_cation_cpcm_1000_moread E -761.706957339384
  C       2.355997     -1.333550      0.045993
  O       1.582573     -0.101583      0.119758
  P       0.105572      0.108535     -0.407370
  O       0.285540      0.537478     -1.864851
  O      -0.638369     -1.236771     -0.216634
  C      -2.079519     -1.402790      0.036859
  O      -0.557203      1.165824      0.524237
  C      -0.385146      2.620412      0.355261
  H       3.397967     -1.029865      0.117065
  H       2.133977     -1.862424     -0.884637
  H       2.054395     -1.945059      0.904555
  H      -2.305599     -2.416030     -0.287436
  H      -2.636859     -0.663371     -0.540971
  H      -2.242584     -1.274054      1.107725
  H       0.558280      2.905064      0.823461
  H      -1.233372      3.062055      0.874265
  H      -0.395650      2.866127     -0.707281
17
Coordinates from ORCA-job TMP_cation_cpcm_1000_moread E -761.707507963794
  C       2.335704     -1.331093      0.058094
  O       1.577511     -0.091256      0.094750
  P       0.105167      0.107584     -0.461651
  O       0.377215      0.561503     -1.896911
  O      -0.643566     -1.241696     -0.330619
  C      -2.052647     -1.390555      0.067116
  O      -0.613721      1.148070      0.438886
  C      -0.403178      2.604675      0.347571
  H       3.382725     -1.042407      0.123398
  H       2.116142     -1.888808     -0.856098
  H       2.028661     -1.912547      0.936084
  H      -2.352966     -2.365480     -0.310757
  H      -2.647721     -0.593490     -0.382365
  H      -2.099360     -1.351488      1.156226
  H       0.502180      2.850877      0.903674
  H      -1.283467      3.042662      0.813911
  H      -0.328678      2.893450     -0.701308
17
Coordinates from ORCA-job TMP_cation_cpcm_1000_moread E -761.707878461560
  C       2.317249     -1.323220      0.065401
  O       1.560669     -0.082957      0.089548
  P       0.098272      0.110081     -0.508823
  O       0.457524      0.569464     -1.923523
  O      -0.664332     -1.237604     -0.421334
  C      -2.035550     -1.391224      0.095082
  O      -0.667319      1.144398      0.356851
  C      -0.409612      2.596727      0.340990
  H       3.364978     -1.038461      0.139036
  H       2.106732     -1.887685     -0.846903
  H       2.002583     -1.899894      0.944584
  H      -2.385195     -2.340189     -0.306170
  H      -2.658750     -0.566493     -0.253772
  H      -1.987402     -1.414344      1.184744
  H       0.455805      2.792235      0.975342
  H      -1.310673      3.044765      0.755071
  H      -0.244980      2.924401     -0.686124
17
Coordinates from ORCA-job TMP_cation_cpcm_1000_moread E -761.708188718119
  C       2.279064     -1.308093      0.078077
  O       1.521486     -0.067869      0.090241
  P       0.079949      0.122890     -0.576297
  O       0.552476      0.571120     -1.961967
  O      -0.706950     -1.217063     -0.540666
  C      -2.007415     -1.408906      0.130400
  O      -0.735466      1.158777      0.239582
  C      -0.405096      2.594163      0.333468
  H       3.326003     -1.024609      0.167131
  H       2.080435     -1.875472     -0.835279
  H       1.951098     -1.883968      0.953677
  H      -2.404687     -2.331340     -0.288415
  H      -2.666189     -0.567430     -0.084451
  H      -1.828756     -1.506176      1.202498
  H       0.399836      2.706074      1.061333
  H      -1.319950      3.069865      0.680554
  H      -0.115839      2.968036     -0.649885
17
Coordinates from ORCA-job TMP_cation_cpcm_1000_moread E -761.708475007119
  C       2.259427     -1.294519      0.085988
  O       1.495271     -0.057358      0.098081
  P       0.066410      0.131425     -0.605145
  O       0.571781      0.564399     -1.983575
  O      -0.732765     -1.203790     -0.586703
  C      -1.999713     -1.425537      0.139952
  O      -0.760316      1.171537      0.197126
  C      -0.390108      2.593712      0.333593
  H       3.304108     -1.005148      0.181407
  H       2.064824     -1.860473     -0.829079
  H       1.928307     -1.874374      0.957981
  H      -2.394509     -2.351854     -0.272399
  H      -2.680577     -0.593811     -0.039682
  H      -1.772628     -1.529726      1.202316
  H       0.395769      2.664935      1.087300
  H      -1.300488      3.089702      0.663044
  H      -0.054792      2.980881     -0.630205
17
Coordinates from ORCA-job TMP_cation_cpcm_1000_moread E -761.709121681439
  C       2.180385     -1.262899      0.119418
  O       1.418227     -0.022824      0.107947
  P       0.026168      0.166630     -0.684194
  O       0.593887      0.560705     -2.046748
  O      -0.803445     -1.150420     -0.717759
  C      -1.951731     -1.480502      0.153385
  O      -0.811461      1.217515      0.100002
  C      -0.343053      2.597347      0.335637
  H       3.224586     -0.971446      0.212757
  H       1.977517     -1.847993     -0.781369
  H       1.841832     -1.821915      1.002682
  H      -2.330802     -2.415604     -0.253038
  H      -2.692290     -0.683876      0.086966
  H      -1.586081     -1.606250      1.174008
  H       0.407624      2.569594      1.127407
  H      -1.230057      3.143886      0.647033
  H       0.078695      3.008052     -0.584134
17
Coordinates from ORCA-job TMP_cation_cpcm_1000_moread E -761.709376763999
  C       2.132763     -1.256769      0.140443
  O       1.386477     -0.008671      0.104228
  P       0.010291      0.185758     -0.717513
  O       0.587787      0.571020     -2.075443
  O      -0.829194     -1.120241     -0.779555
  C      -1.912933     -1.503548      0.149019
  O      -0.823385      1.237650      0.071761
  C      -0.323788      2.601216      0.338745
  H       3.181822     -0.976596      0.214954
  H       1.909710     -1.866761     -0.738576
  H       1.796751     -1.782981      1.045098
  H      -2.283892     -2.443787     -0.252623
  H      -2.678647     -0.727938      0.135128
  H      -1.486864     -1.632448      1.145529
  H       0.425442      2.542201      1.130113
  H      -1.199214      3.160074      0.660918
  H       0.106875      3.021821     -0.572225
17
Coordinates from ORCA-job TMP_cation_cpcm_1000_moread E -761.709579364409
  C       2.102376     -1.266072      0.154011
  O       1.375990     -0.010243      0.097843
  P       0.008740      0.195947     -0.731040
  O       0.577880      0.595137     -2.085389
  O      -0.832134     -1.102567     -0.818624
  C      -1.879983     -1.508144      0.138746
  O      -0.818494      1.241442      0.072631
  C      -0.320992      2.605912      0.341013
  H       3.157699     -1.003593      0.209533
  H       1.859284     -1.897659     -0.704072
  H       1.772374     -1.760198      1.079516
  H      -2.250502     -2.453625     -0.250735
  H      -2.658643     -0.744925      0.148837
  H      -1.425208     -1.631092      1.123267
  H       0.442762      2.548244      1.118097
  H      -1.193747      3.156719      0.684389
  H       0.082598      3.034717     -0.578022
17
Coordinates from ORCA-job TMP_cation_cpcm_1000_moread E -761.709652439682
  C       2.064221     -1.277238      0.164807
  O       1.359618     -0.013021      0.091949
  P       0.004138      0.210507     -0.749023
  O       0.594916      0.617374     -2.090398
  O      -0.848272     -1.077044     -0.863826
  C      -1.838917     -1.518064      0.137679
  O      -0.823644      1.259181      0.047161
  C      -0.321802      2.617481      0.339153
  H       3.125565     -1.035788      0.208279
  H       1.804777     -1.924207     -0.676837
  H       1.737027     -1.744898      1.105788
  H      -2.219323     -2.461127     -0.248280
  H      -2.627888     -0.768339      0.204239
  H      -1.335376     -1.654556      1.096576
  H       0.433429      2.545885      1.123096
  H      -1.195166      3.167646      0.682475
  H       0.086697      3.056211     -0.572838
17
Coordinates from ORCA-job TMP_cation_cpcm_1000_moread E -761.709680646022
  C       2.093345     -1.293844      0.155290
  O       1.380370     -0.035599      0.096777
  P       0.022522      0.197801     -0.727631
  O       0.588161      0.633300     -2.070536
  O      -0.821710     -1.095802     -0.842814
  C      -1.857118     -1.492275      0.131582
  O      -0.804089      1.236547      0.081684
  C      -0.339453      2.614408      0.339107
  H       3.153808     -1.047972      0.201203
  H       1.840117     -1.934493     -0.693136
  H       1.774023     -1.773628      1.093185
  H      -2.235663     -2.444463     -0.233417
  H      -2.641505     -0.734505      0.142635
  H      -1.396152     -1.600732      1.115391
  H       0.439713      2.578538      1.101812
  H      -1.219780      3.141110      0.701424
  H       0.023412      3.051609     -0.592558
17
Coordinates from ORCA-job TMP_cation_cpcm_1000_moread E -761.709726313117
  C       2.085153     -1.288222      0.157787
  O       1.369899     -0.030366      0.097459
  P       0.015679      0.202299     -0.736321
  O       0.593358      0.627618     -2.078105
  O      -0.834651     -1.089343     -0.851511
  C      -1.853766     -1.500970      0.134969
  O      -0.813002      1.246642      0.064449
  C      -0.332981      2.615778      0.339611
  H       3.144987     -1.039641      0.201137
  H       1.829864     -1.930705     -0.688517
  H       1.767493     -1.766770      1.096736
  H      -2.225408     -2.454808     -0.232779
  H      -2.644680     -0.750528      0.159043
  H      -1.378693     -1.610649      1.111874
  H       0.435622      2.562179      1.112138
  H      -1.210741      3.151757      0.694080
  H       0.051866      3.055731     -0.582050
17
Coordinates from ORCA-job TMP_cation_cpcm_1000_moread E -761.709751191485
  C       2.079602     -1.287746      0.159760
  O       1.361266     -0.031526      0.098465
  P       0.012677      0.205277     -0.742963
  O       0.595262      0.628765     -2.083731
  O      -0.843216     -1.084588     -0.861303
  C      -1.850908     -1.503409      0.135092
  O      -0.817374      1.252626      0.053225
  C      -0.329633      2.616038      0.341823
  H       3.139166     -1.036353      0.194301
  H       1.818155     -1.935152     -0.680728
  H       1.770554     -1.761793      1.103835
  H      -2.207463     -2.466422     -0.223594
  H      -2.653194     -0.765093      0.155060
  H      -1.369697     -1.596892      1.110708
  H       0.435246      2.550556      1.117361
  H      -1.205419      3.155058      0.696286
  H       0.064977      3.060653     -0.573596
17
Coordinates from ORCA-job TMP_cation_cpcm_1000_moread E -761.709768234001
  C       2.079168     -1.289714      0.160083
  O       1.356830     -0.035750      0.098593
  P       0.012740      0.205898     -0.746274
  O       0.594390      0.632400     -2.087120
  O      -0.846359     -1.083378     -0.867129
  C      -1.852363     -1.500844      0.132700
  O      -0.818265      1.253914      0.048655
  C      -0.328194      2.614303      0.346020
  H       3.138448     -1.034845      0.179419
  H       1.807742     -1.944393     -0.671358
  H       1.784619     -1.756300      1.112396
  H      -2.186140     -2.478389     -0.208154
  H      -2.668781     -0.777942      0.130035
  H      -1.376790     -1.563672      1.113538
  H       0.438064      2.542393      1.119802
  H      -1.202701      3.152129      0.705203
  H       0.067593      3.064192     -0.566409
17
Coordinates from ORCA-job TMP_cation_cpcm_1000_moread E -761.709777421693
  C       2.080186     -1.291980      0.159582
  O       1.356529     -0.038752      0.097605
  P       0.014089      0.205521     -0.746703
  O       0.593444      0.635734     -2.087804
  O      -0.845452     -1.083601     -0.869292
  C      -1.854559     -1.497315      0.129415
  O      -0.817549      1.252686      0.048801
  C      -0.327882      2.612130      0.350115
  H       3.139576     -1.036223      0.162631
  H       1.797697     -1.953761     -0.662324
  H       1.799545     -1.749473      1.120329
  H      -2.169135     -2.486791     -0.194865
  H      -2.681838     -0.787307      0.102972
  H      -1.388929     -1.532654      1.116366
  H       0.441275      2.538488      1.120877
  H      -1.201813      3.147584      0.714149
  H       0.064815      3.065716     -0.561855
17
Coordinates from ORCA-job TMP_cation_cpcm_1000_moread E -761.709784104510
  C       2.080775     -1.293567      0.158886
  O       1.357763     -0.039759      0.096742
  P       0.015295      0.205207     -0.745698
  O       0.594286      0.637577     -2.086596
  O      -0.843623     -1.083519     -0.869791
  C      -1.856337     -1.494925      0.126146
  O      -0.817080      1.251454      0.050081
  C      -0.327670      2.610382      0.353524
  H       3.140497     -1.038983      0.145020
  H       1.786428     -1.961750     -0.653475
  H       1.813452     -1.741347      1.127791
  H      -2.156003     -2.493086     -0.185391
  H      -2.691642     -0.795317      0.080365
  H      -1.400566     -1.509288      1.118155
  H       0.443536      2.536355      1.122132
  H      -1.201197      3.144359      0.720694
  H       0.062089      3.066207     -0.558585
17
Coordinates from ORCA-job TMP_cation_cpcm_1000_moread E -761.709788685222
  C       2.081238     -1.293843      0.158120
  O       1.359119     -0.039045      0.097450
  P       0.015819      0.204979     -0.743598
  O       0.596874      0.637077     -2.083892
  O      -0.842257     -1.083157     -0.868757
  C      -1.858187     -1.494295      0.123573
  O      -0.817352      1.250921      0.051588
  C      -0.327165      2.609422      0.355574
  H       3.141164     -1.040935      0.129513
  H       1.776563     -1.966324     -0.646738
  H       1.825386     -1.734193      1.133333
  H      -2.148563     -2.497301     -0.181152
  H      -2.698204     -0.801219      0.065533
  H      -1.410177     -1.496772      1.119131
  H       0.444666      2.535326      1.123460
  H      -1.200213      3.143588      0.723670
  H       0.061289      3.065768     -0.556810
17
Coordinates from ORCA-job TMP_cation_cpcm_1000_moread E -761.709790579079
  C       2.081347     -1.293286      0.157783
  O       1.358931     -0.038255      0.099669
  P       0.015529      0.204985     -0.742033
  O       0.599458      0.635595     -2.081592
  O      -0.842504     -1.082608     -0.868006
  C      -1.859354     -1.495039      0.122473
  O      -0.818085      1.251405      0.052065
  C      -0.326523      2.609524      0.355866
  H       3.141205     -1.040831      0.121732
  H       1.771687     -1.967102     -0.643976
  H       1.831925     -1.731188      1.135683
  H      -2.147088     -2.499003     -0.181631
  H      -2.700761     -0.803855      0.061775
  H      -1.413846     -1.495492      1.119127
  H       0.444733      2.534947      1.124249
  H      -1.199127      3.144868      0.723353
  H       0.062474      3.065335     -0.556537
17
Coordinates from ORCA-job TMP_cation_cpcm_1000_moread E -761.709791852657
  C       2.081592     -1.292644      0.157647
  O       1.357842     -0.038097      0.102747
  P       0.015040      0.204963     -0.740726
  O       0.601918      0.634127     -2.079465
  O      -0.843347     -1.082169     -0.867641
  C      -1.860507     -1.495935      0.121710
  O      -0.818810      1.252093      0.052199
  C      -0.325941      2.609958      0.355625
  H       3.141179     -1.039672      0.115927
  H       1.768473     -1.967225     -0.642053
  H       1.837972     -1.729629      1.137390
  H      -2.147734     -2.499714     -0.183507
  H      -2.702240     -0.805116      0.061219
  H      -1.415716     -1.497226      1.118684
  H       0.444476      2.534784      1.124782
  H      -1.198202      3.146504      0.722205
  H       0.064005      3.064999     -0.556741
17
Coordinates from ORCA-job TMP_cation_cpcm_1000_moread E -761.709793212238
  C       2.081918     -1.292077      0.157755
  O       1.355861     -0.038698      0.106905
  P       0.014511      0.204911     -0.739495
  O       0.604834      0.632879     -2.077111
  O      -0.844469     -1.081721     -0.867958
  C      -1.861935     -1.496676      0.120400
  O      -0.819595      1.252822      0.052072
  C      -0.325349      2.610373      0.355538
  H       3.140949     -1.037963      0.106819
  H       1.763256     -1.968804     -0.637822
  H       1.847933     -1.726778      1.140834
  H      -2.148541     -2.500338     -0.185809
  H      -2.704074     -0.806330      0.060049
  H      -1.417766     -1.498614      1.117658
  H       0.443989      2.534255      1.125671
  H      -1.197342      3.148047      0.721123
  H       0.065821      3.064714     -0.556627
17
Coordinates from ORCA-job TMP_cation_cpcm_1000_moread E -761.709794756688
  C       2.082395     -1.291662      0.158236
  O       1.353434     -0.040042      0.111423
  P       0.014129      0.204767     -0.738564
  O       0.608086      0.632040     -2.074809
  O      -0.845380     -1.081476     -0.868925
  C      -1.863467     -1.497019      0.118493
  O      -0.820303      1.253258      0.051636
  C      -0.325100      2.610572      0.355716
  H       3.140532     -1.036112      0.093717
  H       1.755525     -1.972649     -0.630199
  H       1.862328     -1.721587      1.146601
  H      -2.150720     -2.500009     -0.189335
  H      -2.705212     -0.806111      0.059027
  H      -1.419509     -1.500784      1.115839
  H       0.442719      2.533456      1.127239
  H      -1.197209      3.149025      0.719884
  H       0.067752      3.064335     -0.555979
17
Coordinates from ORCA-job TMP_cation_cpcm_1000_moread E -761.709796348557
  C       2.082560     -1.291613      0.159224
  O       1.351640     -0.041497      0.113944
  P       0.014134      0.204699     -0.738742
  O       0.610391      0.632223     -2.073885
  O      -0.845526     -1.081438     -0.870657
  C      -1.864215     -1.496745      0.116380
  O      -0.820687      1.253164      0.050685
  C      -0.325442      2.610272      0.356424
  H       3.139730     -1.035519      0.079283
  H       1.746084     -1.978771     -0.619623
  H       1.877346     -1.713876      1.154061
  H      -2.153445     -2.498608     -0.193269
  H      -2.704714     -0.804201      0.058521
  H      -1.419741     -1.503172      1.113474
  H       0.440679      2.532260      1.129503
  H      -1.198177      3.148743      0.719039
  H       0.069381      3.064079     -0.554362
17
Coordinates from ORCA-job TMP_cation_cpcm_1000_moread E -761.709797614688
  C       2.082943     -1.291538      0.160503
  O       1.350772     -0.042671      0.114791
  P       0.014563      0.204480     -0.739678
  O       0.611949      0.632543     -2.074054
  O      -0.844815     -1.081847     -0.872428
  C      -1.864866     -1.495845      0.114009
  O      -0.820927      1.252361      0.049484
  C      -0.326327      2.609183      0.357701
  H       3.138919     -1.035774      0.062793
  H       1.735260     -1.986545     -0.606215
  H       1.893976     -1.703324      1.162899
  H      -2.157313     -2.496105     -0.197749
  H      -2.703074     -0.800435      0.057751
  H      -1.419945     -1.505728      1.110858
  H       0.437805      2.530431      1.132654
  H      -1.200071      3.147316      0.718351
  H       0.071150      3.063498     -0.551673
17
Coordinates from ORCA-job TMP_cation_cpcm_1000_moread E -761.709798120812
  C       2.082711     -1.291578      0.161263
  O       1.351147     -0.042595      0.113314
  P       0.014892      0.204534     -0.740849
  O       0.611885      0.632973     -2.075173
  O      -0.844310     -1.081860     -0.873522
  C      -1.864499     -1.495407      0.113136
  O      -0.820943      1.251948      0.048575
  C      -0.326896      2.608453      0.358520
  H       3.138387     -1.037036      0.056571
  H       1.730303     -1.990347     -0.599810
  H       1.899224     -1.697681      1.166989
  H      -2.158600     -2.494886     -0.199538
  H      -2.701606     -0.798597      0.058083
  H      -1.418885     -1.507009      1.109647
  H       0.436291      2.529308      1.134367
  H      -1.201166      3.146304      0.718291
  H       0.072062      3.063478     -0.549861
17
Coordinates from ORCA-job TMP_cation_cpcm_1000_moread E -761.709798373737
  C       2.082371     -1.291552      0.161894
  O       1.351703     -0.042143      0.111543
  P       0.015104      0.204673     -0.741928
  O       0.611506      0.633292     -2.076331
  O      -0.844142     -1.081629     -0.874417
  C      -1.864090     -1.495303      0.112543
  O      -0.820928      1.251798      0.047866
  C      -0.327192      2.607914      0.359176
  H       3.137940     -1.038376      0.052608
  H       1.726711     -1.993044     -0.595118
  H       1.902025     -1.693183      1.169982
  H      -2.159043     -2.494323     -0.200774
  H      -2.700668     -0.797795      0.058515
  H      -1.417846     -1.508036      1.108756
  H       0.435320      2.528376      1.135667
  H      -1.201730      3.145707      0.718377
  H       0.072960      3.063626     -0.548360
