17
Coordinates from ORCA-job TMP_cation_cpcm_5_moread E -761.666864361568
  C       2.322150     -1.110107     -0.121247
  O       1.446904     -0.246841      0.586848
  P      -0.001093      0.003392     -0.032977
  O      -0.049654      0.153953     -1.490261
  O      -0.851133     -1.206662      0.564270
  C      -2.124125     -1.458547     -0.009074
  O      -0.530506      1.251111      0.807508
  C      -0.191013      2.546951      0.340395
  H       3.337969     -0.827674      0.154216
  H       2.176116     -0.993877     -1.196468
  H       2.136428     -2.148361      0.159357
  H      -2.350663     -2.509116      0.170324
  H      -2.100650     -1.254852     -1.080809
  H      -2.881254     -0.829776      0.462504
  H       0.789643      2.839662      0.719716
  H      -0.952799      3.229495      0.716423
  H      -0.176319      2.561249     -0.750724
17
Coordinates from ORCA-job TMP_cation_cpcm_5_moread E -761.675673332845
  C       2.379074     -1.166017     -0.099774
  O       1.484456     -0.214262      0.509846
  P       0.026102      0.032672     -0.095449
  O      -0.021349      0.230574     -1.560399
  O      -0.815493     -1.207438      0.459401
  C      -2.157481     -1.461390     -0.014517
  O      -0.518763      1.248722      0.785704
  C      -0.235149      2.586232      0.351606
  H       3.391191     -0.867716      0.173549
  H       2.257891     -1.168131     -1.187504
  H       2.170753     -2.174976      0.285185
  H      -2.346420     -2.524141      0.141576
  H      -2.256958     -1.210114     -1.072292
  H      -2.876618     -0.872496      0.570299
  H       0.761828      2.881564      0.714131
  H      -0.997834      3.233609      0.784570
  H      -0.245229      2.653309     -0.745933
17
Coordinates from ORCA-job TMP_cation_cpcm_5_moread E -761.680807833091
  C       2.403588     -1.212835     -0.076371
  O       1.507714     -0.184601      0.429374
  P       0.042409      0.058372     -0.152514
  O       0.007766      0.292998     -1.629467
  O      -0.781842     -1.208450      0.351895
  C      -2.172435     -1.469206     -0.018215
  O      -0.508099      1.248888      0.756072
  C      -0.262505      2.621260      0.360307
  H       3.412553     -0.891496      0.176375
  H       2.277936     -1.330564     -1.158714
  H       2.169740     -2.168341      0.416389
  H      -2.314115     -2.543176      0.094365
  H      -2.373106     -1.155519     -1.045123
  H      -2.832980     -0.930840      0.672547
  H       0.739345      2.910516      0.716482
  H      -1.027319      3.230592      0.839510
  H      -0.288653      2.732401     -0.732911
17
Coordinates from ORCA-job TMP_cation_cpcm_5_moread E -761.685382770522
  C       2.407426     -1.266698     -0.039524
  O       1.533632     -0.149446      0.319572
  P       0.061628      0.087170     -0.227243
  O       0.059068      0.372050     -1.715700
  O      -0.731915     -1.211329      0.195818
  C      -2.168827     -1.469274     -0.017298
  O      -0.498709      1.240659      0.706445
  C      -0.292947      2.650451      0.368007
  H       3.420039     -0.921994      0.156468
  H       2.250962     -1.538545     -1.089073
  H       2.144422     -2.121779      0.597901
  H      -2.264661     -2.552805     -0.005497
  H      -2.496359     -1.047489     -0.969469
  H      -2.719224     -1.019351      0.813947
  H       0.703949      2.937865      0.727833
  H      -1.069376      3.202854      0.892951
  H      -0.339108      2.807662     -0.715138
17
Coordinates from ORCA-job TMP_cation_cpcm_5_moread E -761.688019652272
  C       2.395302     -1.305401     -0.001913
  O       1.555325     -0.126597      0.224766
  P       0.080262      0.103156     -0.296722
  O       0.129961      0.441771     -1.786569
  O      -0.687160     -1.217899      0.034609
  C      -2.147495     -1.452389     -0.004662
  O      -0.502462      1.218704      0.646913
  C      -0.324395      2.654722      0.367520
  H       3.416647     -0.958893      0.134517
  H       2.207279     -1.702428     -1.004148
  H       2.111391     -2.052801      0.748519
  H      -2.247236     -2.527865     -0.130580
  H      -2.587015     -0.901990     -0.838050
  H      -2.555993     -1.117242      0.950440
  H       0.657925      2.947001      0.749361
  H      -1.122786      3.152952      0.912708
  H      -0.379551      2.845199     -0.706707
17
Coordinates from ORCA-job TMP_cation_cpcm_5_moread E -761.689260383066
  C       2.379578     -1.321508      0.020745
  O       1.568250     -0.114170      0.173462
  P       0.092958      0.105947     -0.343727
  O       0.201255      0.484512     -1.825200
  O      -0.661229     -1.227374     -0.083498
  C      -2.121215     -1.430294      0.014283
  O      -0.524865      1.194972      0.592356
  C      -0.350629      2.642434      0.361976
  H       3.409830     -0.989342      0.122882
  H       2.175322     -1.782880     -0.949278
  H       2.086645     -2.003064      0.827119
  H      -2.266997     -2.483263     -0.214797
  H      -2.625896     -0.785186     -0.706476
  H      -2.414255     -1.190740      1.037491
  H       0.612342      2.934360      0.785641
  H      -1.175240      3.110762      0.894876
  H      -0.385854      2.854835     -0.707854
17
Coordinates from ORCA-job TMP_cation_cpcm_5_moread E -761.690149676883
  C       2.364421     -1.326757      0.035434
  O       1.574152     -0.104904      0.143006
  P       0.101366      0.102062     -0.389284
  O       0.290150      0.514828     -1.854383
  O      -0.649643     -1.239167     -0.197160
  C      -2.094111     -1.405938      0.042134
  O      -0.569020      1.169250      0.522932
  C      -0.377136      2.622806      0.352800
  H       3.401898     -1.011960      0.122730
  H       2.158335     -1.824817     -0.915462
  H       2.065914     -1.969649      0.870871
  H      -2.313327     -2.424272     -0.270827
  H      -2.647189     -0.677874     -0.553774
  H      -2.270587     -1.262663      1.108954
  H       0.554466      2.899903      0.848148
  H      -1.235752      3.075247      0.844665
  H      -0.353937      2.863905     -0.710785
17
Coordinates from ORCA-job TMP_cation_cpcm_5_moread E -761.690672227512
  C       2.348142     -1.323531      0.044247
  O       1.567305     -0.096482      0.129220
  P       0.101708      0.098415     -0.437134
  O       0.385017      0.531992     -1.881035
  O      -0.655580     -1.246229     -0.302947
  C      -2.071084     -1.391461      0.074139
  O      -0.626821      1.151410      0.438851
  C      -0.395956      2.606179      0.343430
  H       3.389137     -1.019909      0.133873
  H       2.151483     -1.837194     -0.900400
  H       2.043300     -1.952079      0.888684
  H      -2.362705     -2.374005     -0.290682
  H      -2.660750     -0.605429     -0.401076
  H      -2.137425     -1.331798      1.161306
  H       0.492983      2.846097      0.927836
  H      -1.286004      3.058346      0.776451
  H      -0.282749      2.885680     -0.704764
17
Coordinates from ORCA-job TMP_cation_cpcm_5_moread E -761.690953604531
  C       2.336873     -1.315330      0.048706
  O       1.551731     -0.090752      0.130993
  P       0.095907      0.097747     -0.473685
  O       0.453928      0.532772     -1.900979
  O      -0.673902     -1.245586     -0.374630
  C      -2.061905     -1.390241      0.097822
  O      -0.672649      1.147134      0.370448
  C      -0.400855      2.598052      0.337534
  H       3.376856     -1.010701      0.147795
  H       2.151452     -1.828474     -0.898578
  H       2.028420     -1.947920      0.889199
  H      -2.392598     -2.353641     -0.284633
  H      -2.675821     -0.580701     -0.300107
  H      -2.053302     -1.377126      1.188748
  H       0.452324      2.795691      0.987509
  H      -1.306381      3.060893      0.724637
  H      -0.210079      2.908182     -0.690779
17
Coordinates from ORCA-job TMP_cation_cpcm_5_moread E -761.691205018480
  C       2.312505     -1.300497      0.058669
  O       1.518652     -0.079560      0.134605
  P       0.080993      0.104109     -0.529086
  O       0.533323      0.529325     -1.933155
  O      -0.709212     -1.233493     -0.472843
  C      -2.047464     -1.401034      0.125940
  O      -0.729643      1.154065      0.274529
  C      -0.396169      2.592027      0.332389
  H       3.349875     -0.989949      0.166898
  H       2.137449     -1.816003     -0.889274
  H       2.000654     -1.935163      0.896746
  H      -2.413940     -2.346290     -0.269225
  H      -2.694608     -0.575353     -0.171378
  H      -1.935642     -1.441958      1.210693
  H       0.407551      2.721233      1.058666
  H      -1.310741      3.078231      0.665355
  H      -0.103584      2.940308     -0.659528
17
Coordinates from ORCA-job TMP_cation_cpcm_5_moread E -761.691411151848
  C       2.299679     -1.288627      0.066605
  O       1.497551     -0.071641      0.140188
  P       0.070076      0.109769     -0.553964
  O       0.549467      0.524964     -1.951379
  O      -0.730451     -1.224096     -0.513926
  C      -2.045598     -1.413180      0.131157
  O      -0.749181      1.161274      0.242297
  C      -0.383166      2.589564      0.333739
  H       3.334863     -0.969741      0.170900
  H       2.121955     -1.809411     -0.877843
  H       1.992917     -1.921145      0.908346
  H      -2.408597     -2.362411     -0.257440
  H      -2.712369     -0.594743     -0.140716
  H      -1.895418     -1.458049      1.211263
  H       0.409978      2.686191      1.076870
  H      -1.292266      3.091162      0.658226
  H      -0.059443      2.950120     -0.644323
17
Coordinates from ORCA-job TMP_cation_cpcm_5_moread E -761.691844401662
  C       2.255120     -1.264642      0.092860
  O       1.443708     -0.051433      0.151614
  P       0.043843      0.130486     -0.611187
  O       0.569001      0.526616     -1.993945
  O      -0.779466     -1.190547     -0.618546
  C      -2.026020     -1.446066      0.133803
  O      -0.783809      1.182161      0.183515
  C      -0.349063      2.585416      0.338164
  H       3.288612     -0.933416      0.173019
  H       2.057886     -1.812626     -0.831722
  H       1.963948     -1.873674      0.957719
  H      -2.371844     -2.406460     -0.242104
  H      -2.741928     -0.650917     -0.074911
  H      -1.783721     -1.496698      1.196940
  H       0.438400      2.615336      1.093357
  H      -1.237402      3.118016      0.669696
  H       0.012734      2.968448     -0.618271
17
Coordinates from ORCA-job TMP_cation_cpcm_5_moread E -761.692059230959
  C       2.196612     -1.256902      0.118403
  O       1.398518     -0.034742      0.150771
  P       0.022793      0.156800     -0.659349
  O       0.591793      0.541616     -2.024910
  O      -0.818533     -1.148580     -0.715349
  C      -1.981603     -1.477900      0.135341
  O      -0.808878      1.211105      0.128625
  C      -0.326904      2.592340      0.339162
  H       3.235212     -0.934943      0.168834
  H       1.973742     -1.839512     -0.778479
  H       1.915137     -1.825921      1.013820
  H      -2.325556     -2.436424     -0.246607
  H      -2.736699     -0.700506      0.016692
  H      -1.645220     -1.555988      1.170821
  H       0.449662      2.571491      1.105703
  H      -1.201682      3.143961      0.675422
  H       0.061608      2.994105     -0.598898
17
Coordinates from ORCA-job TMP_cation_cpcm_5_moread E -761.692213448703
  C       2.161408     -1.263501      0.133643
  O       1.383778     -0.030816      0.142469
  P       0.017703      0.171217     -0.678708
  O       0.589953      0.563627     -2.038417
  O      -0.825061     -1.127043     -0.761975
  C      -1.946890     -1.488961      0.127462
  O      -0.810057      1.221977      0.116388
  C      -0.321539      2.599111      0.342074
  H       3.206985     -0.959607      0.152401
  H       1.911622     -1.876456     -0.735283
  H       1.892748     -1.793022      1.057266
  H      -2.291355     -2.448777     -0.250726
  H      -2.719231     -0.723610      0.045084
  H      -1.572747     -1.571654      1.149419
  H       0.461541      2.568143      1.101251
  H      -1.192035      3.147911      0.694269
  H       0.053175      3.011461     -0.596618
17
Coordinates from ORCA-job TMP_cation_cpcm_5_moread E -761.692297003662
  C       2.147195     -1.273142      0.138618
  O       1.381781     -0.036021      0.136534
  P       0.020608      0.175740     -0.685706
  O       0.592841      0.580519     -2.040888
  O      -0.822161     -1.119980     -0.783465
  C      -1.927456     -1.486378      0.123088
  O      -0.807508      1.224224      0.109692
  C      -0.326836      2.602683      0.343899
  H       3.197061     -0.982129      0.138282
  H       1.882496     -1.902201     -0.714179
  H       1.890291     -1.781545      1.077756
  H      -2.277970     -2.447701     -0.245808
  H      -2.705677     -0.725608      0.052613
  H      -1.540106     -1.566573      1.140388
  H       0.457150      2.571728      1.101936
  H      -1.199982      3.143615      0.702179
  H       0.038272      3.022771     -0.594939
17
Coordinates from ORCA-job TMP_cation_cpcm_5_moread E -761.692343834982
  C       2.134375     -1.278733      0.142759
  O       1.373541     -0.041027      0.135046
  P       0.020500      0.180316     -0.695691
  O       0.601909      0.590721     -2.045090
  O      -0.828030     -1.111775     -0.806279
  C      -1.912635     -1.486236      0.121774
  O      -0.810558      1.230886      0.092790
  C      -0.329239      2.605661      0.345603
  H       3.186138     -0.993898      0.124630
  H       1.857014     -1.920506     -0.696379
  H       1.892103     -1.772196      1.094069
  H      -2.263133     -2.451424     -0.237105
  H      -2.700162     -0.733880      0.064388
  H      -1.508289     -1.561370      1.133007
  H       0.448494      2.564342      1.109598
  H      -1.203959      3.144313      0.703621
  H       0.041932      3.034807     -0.586742
17
Coordinates from ORCA-job TMP_cation_cpcm_5_moread E -761.692379101138
  C       2.132731     -1.283578      0.143896
  O       1.367869     -0.049686      0.137326
  P       0.022457      0.180674     -0.700274
  O       0.605981      0.597117     -2.047447
  O      -0.830855     -1.110118     -0.817634
  C      -1.909782     -1.481452      0.119197
  O      -0.810970      1.232710      0.083791
  C      -0.331949      2.605637      0.348883
  H       3.183760     -0.996796      0.106068
  H       1.843609     -1.935487     -0.683299
  H       1.910653     -1.767577      1.105131
  H      -2.249868     -2.456615     -0.222515
  H      -2.706806     -0.740022      0.050359
  H      -1.504482     -1.535613      1.131533
  H       0.443940      2.558046      1.114565
  H      -1.207975      3.140392      0.709438
  H       0.041685      3.042369     -0.579019
17
Coordinates from ORCA-job TMP_cation_cpcm_5_moread E -761.692397613163
  C       2.128139     -1.284814      0.146298
  O       1.359232     -0.053316      0.139540
  P       0.020898      0.183147     -0.706481
  O       0.610804      0.599659     -2.051699
  O      -0.838152     -1.105153     -0.829677
  C      -1.907667     -1.482017      0.117037
  O      -0.814282      1.237551      0.072848
  C      -0.330096      2.605579      0.352422
  H       3.177522     -0.995116      0.085991
  H       1.824825     -1.947707     -0.666751
  H       1.926304     -1.756539      1.117942
  H      -2.232284     -2.466628     -0.212430
  H      -2.716073     -0.753744      0.041326
  H      -1.498061     -1.517769      1.128483
  H       0.442503      2.547353      1.120829
  H      -1.205309      3.141042      0.713628
  H       0.051696      3.048472     -0.569308
17
Coordinates from ORCA-job TMP_cation_cpcm_5_moread E -761.692407124650
  C       2.133519     -1.285724      0.145092
  O       1.359356     -0.056645      0.142516
  P       0.022478      0.181403     -0.703817
  O       0.610503      0.599578     -2.050203
  O      -0.836702     -1.107547     -0.826189
  C      -1.914454     -1.478701      0.114189
  O      -0.813501      1.235047      0.076051
  C      -0.330247      2.603171      0.355408
  H       3.180564     -0.991187      0.068333
  H       1.820559     -1.953500     -0.660097
  H       1.947062     -1.751946      1.122126
  H      -2.225816     -2.471102     -0.204467
  H      -2.726983     -0.757702      0.016653
  H      -1.516318     -1.495110      1.130635
  H       0.444861      2.545735      1.121423
  H      -1.205256      3.137352      0.718818
  H       0.050377      3.046877     -0.566471
17
Coordinates from ORCA-job TMP_cation_cpcm_5_moread E -761.692414223008
  C       2.133833     -1.285518      0.145121
  O       1.357805     -0.056534      0.144864
  P       0.022214      0.181775     -0.702844
  O       0.613154      0.599180     -2.048763
  O      -0.837505     -1.106458     -0.826535
  C      -1.917242     -1.478903      0.111437
  O      -0.814876      1.235288      0.076124
  C      -0.328773      2.601675      0.358032
  H       3.178923     -0.989574      0.048636
  H       1.808100     -1.959810     -0.649273
  H       1.963408     -1.742147      1.129257
  H      -2.217031     -2.476941     -0.200534
  H      -2.734601     -0.765238      0.001581
  H      -1.524935     -1.482147      1.130180
  H       0.446188      2.542183      1.124042
  H      -1.202913      3.137283      0.721321
  H       0.054252      3.045885     -0.562645
17
Coordinates from ORCA-job TMP_cation_cpcm_5_moread E -761.692420488665
  C       2.137221     -1.285757      0.143781
  O       1.359232     -0.057037      0.148407
  P       0.023506      0.180481     -0.698382
  O       0.615452      0.598563     -2.043998
  O      -0.834780     -1.107910     -0.822582
  C      -1.922403     -1.477088      0.107468
  O      -0.814874      1.232966      0.080694
  C      -0.328570      2.599441      0.360801
  H       3.179825     -0.988949      0.024354
  H       1.797125     -1.966507     -0.638808
  H       1.986314     -1.732528      1.135295
  H      -2.211669     -2.480789     -0.196085
  H      -2.742636     -0.769847     -0.020995
  H      -1.542326     -1.465147      1.130688
  H       0.447412      2.541636      1.125878
  H      -1.202334      3.135626      0.724155
  H       0.053505      3.042845     -0.560670
17
Coordinates from ORCA-job TMP_cation_cpcm_5_moread E -761.692424602535
  C       2.139160     -1.285617      0.142792
  O       1.359861     -0.057323      0.151978
  P       0.024228      0.179482     -0.694934
  O       0.618697      0.597611     -2.039428
  O      -0.833191     -1.108651     -0.820570
  C      -1.925687     -1.476075      0.104138
  O      -0.815314      1.231818      0.083108
  C      -0.328342      2.598151      0.362707
  H       3.179540     -0.989146      0.003386
  H       1.786964     -1.972324     -0.629021
  H       2.006048     -1.723662      1.140588
  H      -2.208895     -2.483165     -0.193854
  H      -2.747977     -0.773358     -0.035810
  H      -1.554021     -1.454802      1.130260
  H       0.446762      2.540711      1.128653
  H      -1.201981      3.135409      0.724877
  H       0.054149      3.040942     -0.558870
17
Coordinates from ORCA-job TMP_cation_cpcm_5_moread E -761.692427093167
  C       2.141544     -1.285077      0.141925
  O       1.360193     -0.058219      0.155410
  P       0.024721      0.178137     -0.692170
  O       0.620999      0.596009     -2.035788
  O      -0.832238     -1.109896     -0.818677
  C      -1.928848     -1.475001      0.101717
  O      -0.815425      1.230805      0.084761
  C      -0.328277      2.597350      0.363788
  H       3.179984     -0.988207     -0.011604
  H       1.781610     -1.976196     -0.622272
  H       2.022379     -1.717706      1.143808
  H      -2.210009     -2.483551     -0.193337
  H      -2.751568     -0.774141     -0.045217
  H      -1.563165     -1.449177      1.129880
  H       0.445425      2.540065      1.131121
  H      -1.202120      3.135334      0.724497
  H       0.054796      3.039471     -0.557840
17
Coordinates from ORCA-job TMP_cation_cpcm_5_moread E -761.692428879872
  C       2.144393     -1.283976      0.141246
  O       1.360152     -0.059390      0.158659
  P       0.024866      0.176611     -0.690053
  O       0.622404      0.593541     -2.033214
  O      -0.831975     -1.111485     -0.816571
  C      -1.932282     -1.474078      0.100090
  O      -0.815386      1.229857      0.085891
  C      -0.328131      2.596747      0.364294
  H       3.181063     -0.985590     -0.021981
  H       1.779957     -1.978365     -0.617791
  H       2.036028     -1.713697      1.145621
  H      -2.214205     -2.482500     -0.194730
  H      -2.753920     -0.772638     -0.050305
  H      -1.570534     -1.447748      1.129636
  H       0.443897      2.539435      1.133270
  H      -1.202366      3.135332      0.723218
  H       0.056041      3.037943     -0.557282
17
Coordinates from ORCA-job TMP_cation_cpcm_5_moread E -761.692430375288
  C       2.147118     -1.282567      0.140989
  O       1.359596     -0.060685      0.161566
  P       0.024729      0.175230     -0.688745
  O       0.623373      0.590712     -2.031704
  O      -0.832253     -1.112981     -0.814826
  C      -1.935607     -1.473397      0.098814
  O      -0.815321      1.229052      0.086382
  C      -0.327909      2.596206      0.364632
  H       3.181938     -0.982087     -0.030860
  H       1.779045     -1.980412     -0.613083
  H       2.048731     -1.709599      1.147574
  H      -2.219925     -2.480604     -0.197915
  H      -2.755182     -0.769665     -0.052272
  H      -1.575938     -1.449481      1.129157
  H       0.442236      2.538582      1.135430
  H      -1.202709      3.135270      0.721471
  H       0.058079      3.036428     -0.556612
17
Coordinates from ORCA-job TMP_cation_cpcm_5_moread E -761.692431460320
  C       2.148708     -1.281524      0.141246
  O       1.358968     -0.061595      0.163174
  P       0.024553      0.174519     -0.688483
  O       0.624012      0.588670     -2.031405
  O      -0.832595     -1.113852     -0.813948
  C      -1.937538     -1.473136      0.098168
  O      -0.815214      1.228537      0.086296
  C      -0.327961      2.595900      0.364699
  H       3.182171     -0.979511     -0.036557
  H       1.778087     -1.982188     -0.608927
  H       2.057004     -1.706198      1.149469
  H      -2.225450     -2.478201     -0.202333
  H      -2.754462     -0.765800     -0.050360
  H      -1.577490     -1.454266      1.128484
  H       0.440718      2.538182      1.136928
  H      -1.203427      3.135109      0.719649
  H       0.059915      3.035355     -0.556099
17
Coordinates from ORCA-job TMP_cation_cpcm_5_moread E -761.692432094840
  C       2.148836     -1.281224      0.141890
  O       1.358473     -0.061961      0.163568
  P       0.024527      0.174568     -0.688946
  O       0.624774      0.588014     -2.031704
  O      -0.832695     -1.113878     -0.814224
  C      -1.937737     -1.473242      0.097826
  O      -0.815157      1.228396      0.085827
  C      -0.328361      2.595851      0.364672
  H       3.181460     -0.978979     -0.040640
  H       1.775608     -1.984293     -0.604703
  H       2.061460     -1.703035      1.151688
  H      -2.229118     -2.476066     -0.206730
  H      -2.752355     -0.762423     -0.046464
  H      -1.575752     -1.459964      1.127543
  H       0.439412      2.538298      1.137798
  H      -1.204429      3.134957      0.718227
  H       0.061052      3.034982     -0.555628
17
Coordinates from ORCA-job TMP_cation_cpcm_5_moread E -761.692432412384
  C       2.148123     -1.281564      0.142504
  O       1.358370     -0.061893      0.163229
  P       0.024708      0.174985     -0.689499
  O       0.625389      0.588534     -2.032004
  O      -0.832454     -1.113461     -0.815015
  C      -1.936819     -1.473468      0.097726
  O      -0.815093      1.228459      0.085518
  C      -0.328940      2.596001      0.364516
  H       3.180555     -0.980075     -0.042416
  H       1.773100     -1.985855     -0.602022
  H       2.062209     -1.701262      1.153292
  H      -2.230621     -2.474710     -0.209644
  H      -2.750076     -0.760371     -0.042785
  H      -1.572784     -1.464292      1.126763
  H       0.438672      2.538924      1.137845
  H      -1.205349      3.134877      0.717539
  H       0.061011      3.035170     -0.555549
