17
Coordinates from ORCA-job TMP_cation_cpcm_28_moread E -761.680777076651
  C       2.322150     -1.110107     -0.121247
  O       1.446904     -0.246841      0.586848
  P      -0.001093      0.003392     -0.032977
  O      -0.049654      0.153953     -1.490261
  O      -0.851133     -1.206662      0.564270
  C      -2.124125     -1.458547     -0.009074
  O      -0.530506      1.251111      0.807508
  C      -0.191013      2.546951      0.340395
  H       3.337969     -0.827674      0.154216
  H       2.176116     -0.993877     -1.196468
  H       2.136428     -2.148361      0.159357
  H      -2.350663     -2.509116      0.170324
  H      -2.100650     -1.254852     -1.080809
  H      -2.881254     -0.829776      0.462504
  H       0.789643      2.839662      0.719716
  H      -0.952799      3.229495      0.716423
  H      -0.176319      2.561249     -0.750724
17
Coordinates from ORCA-job TMP_cation_cpcm_28_moread E -761.689449225670
  C       2.378449     -1.165834     -0.099510
  O       1.484544     -0.213987      0.509811
  P       0.026350      0.032671     -0.096078
  O      -0.021448      0.230823     -1.560824
  O      -0.814960     -1.207341      0.459555
  C      -2.156483     -1.460883     -0.014555
  O      -0.518395      1.248294      0.785889
  C      -0.235666      2.585568      0.351627
  H       3.390606     -0.867979      0.174059
  H       2.256973     -1.167880     -1.187117
  H       2.169103     -2.174775      0.285243
  H      -2.345673     -2.523552      0.141875
  H      -2.255369     -1.209678     -1.072279
  H      -2.875419     -0.871256      0.569761
  H       0.762069      2.880467      0.712673
  H      -0.997864      3.232752      0.785629
  H      -0.246815      2.652587     -0.745758
17
Coordinates from ORCA-job TMP_cation_cpcm_28_moread E -761.694521815034
  C       2.402276     -1.212579     -0.075715
  O       1.507962     -0.183749      0.428962
  P       0.042761      0.058860     -0.154017
  O       0.006805      0.294615     -1.630194
  O      -0.780558     -1.208113      0.352280
  C      -2.170225     -1.468577     -0.018512
  O      -0.507076      1.248234      0.756903
  C      -0.263396      2.620111      0.360596
  H       3.411439     -0.892396      0.177449
  H       2.275961     -1.331128     -1.157842
  H       2.166291     -2.167827      0.417002
  H      -2.312256     -2.542384      0.095228
  H      -2.369755     -1.155386     -1.045662
  H      -2.831031     -0.928683      0.670862
  H       0.740126      2.908699      0.712819
  H      -1.026772      3.229228      0.842233
  H      -0.292550      2.731074     -0.732391
17
Coordinates from ORCA-job TMP_cation_cpcm_28_moread E -761.699075056640
  C       2.405433     -1.266986     -0.038083
  O       1.534680     -0.148293      0.318230
  P       0.062599      0.088356     -0.230398
  O       0.057334      0.376108     -1.716982
  O      -0.729247     -1.210742      0.196130
  C      -2.164942     -1.468247     -0.018236
  O      -0.496099      1.239668      0.708167
  C      -0.294860      2.648886      0.368737
  H       3.418704     -0.924603      0.158086
  H       2.247329     -1.541488     -1.086750
  H       2.139162     -2.120978      0.600074
  H      -2.261284     -2.551693     -0.004164
  H      -2.491105     -1.047293     -0.971143
  H      -2.716380     -1.015805      0.811083
  H       0.705087      2.936594      0.720091
  H      -1.068092      3.200498      0.899126
  H      -0.348316      2.806016     -0.713970
17
Coordinates from ORCA-job TMP_cation_cpcm_28_moread E -761.701788216737
  C       2.392421     -1.307745      0.001656
  O       1.558322     -0.125112      0.219157
  P       0.082598      0.105489     -0.303613
  O       0.128170      0.450518     -1.790130
  O      -0.681742     -1.217293      0.030462
  C      -2.141202     -1.450226     -0.006356
  O      -0.497247      1.216889      0.648574
  C      -0.328561      2.652814      0.368511
  H       3.415264     -0.965197      0.136112
  H       2.200624     -1.713070     -0.996710
  H       2.103924     -2.048992      0.757070
  H      -2.242208     -2.525412     -0.133423
  H      -2.581720     -0.896800     -0.837187
  H      -2.547649     -1.115512      0.949879
  H       0.658454      2.947861      0.736175
  H      -1.121486      3.147786      0.924496
  H      -0.397964      2.844003     -0.704671
17
Coordinates from ORCA-job TMP_cation_cpcm_28_moread E -761.703074323304
  C       2.375205     -1.325425      0.026217
  O       1.573037     -0.112395      0.163346
  P       0.096093      0.109459     -0.353268
  O       0.198288      0.497000     -1.830115
  O      -0.653724     -1.226428     -0.091137
  C      -2.112480     -1.427671      0.011280
  O      -0.517141      1.192895      0.594623
  C      -0.356148      2.640478      0.363327
  H       3.407913     -0.999356      0.122218
  H       2.163422     -1.800930     -0.935520
  H       2.078297     -1.994096      0.842586
  H      -2.260786     -2.479417     -0.221620
  H      -2.618762     -0.777246     -0.703603
  H      -2.401256     -1.191851      1.036686
  H       0.613646      2.937425      0.767892
  H      -1.173183      3.103412      0.912358
  H      -0.412422      2.854150     -0.705272
17
Coordinates from ORCA-job TMP_cation_cpcm_28_moread E -761.704011682871
  C       2.357678     -1.332398      0.043944
  O       1.581018     -0.102290      0.124557
  P       0.104900      0.107298     -0.403732
  O       0.286573      0.533125     -1.862670
  O      -0.640442     -1.237240     -0.212781
  C      -2.082262     -1.403250      0.037906
  O      -0.559401      1.166475      0.524187
  C      -0.383813      2.620879      0.354672
  H       3.398794     -1.026563      0.118332
  H       2.138855     -1.855074     -0.890902
  H       2.056514     -1.950304      0.897874
  H      -2.307135     -2.417399     -0.284395
  H      -2.638678     -0.665805     -0.543297
  H      -2.247916     -1.271861      1.108044
  H       0.557450      2.904296      0.827897
  H      -1.234097      3.064545      0.868549
  H      -0.388036      2.865567     -0.708186
17
Coordinates from ORCA-job TMP_cation_cpcm_28_moread E -761.704557980199
  C       2.338031     -1.329900      0.055474
  O       1.575612     -0.092239      0.101608
  P       0.104654      0.105902     -0.456898
  O       0.379181      0.556006     -1.893756
  O      -0.645747     -1.242517     -0.325586
  C      -2.055979     -1.390589      0.068582
  O      -0.616313      1.148718      0.438854
  C      -0.402085      2.605029      0.346616
  H       3.383952     -1.038336      0.125469
  H       2.122953     -1.879141     -0.864878
  H       2.031244     -1.920625      0.927084
  H      -2.354949     -2.366716     -0.307269
  H      -2.650031     -0.595207     -0.385192
  H      -2.106066     -1.348182      1.157421
  H       0.500125      2.850158      0.908227
  H      -1.284455      3.045640      0.806494
  H      -0.320128      2.891998     -0.702249
17
Coordinates from ORCA-job TMP_cation_cpcm_28_moread E -761.704910568016
  C       2.320993     -1.322006      0.062235
  O       1.558990     -0.084400      0.097806
  P       0.097966      0.107779     -0.501983
  O       0.457458      0.562544     -1.919010
  O      -0.666041     -1.239087     -0.412637
  C      -2.040466     -1.390893      0.095707
  O      -0.668438      1.144961      0.359389
  C      -0.408239      2.597102      0.340172
  H       3.367297     -1.033309      0.140520
  H       2.115331     -1.876727     -0.857100
  H       2.007523     -1.909668      0.934198
  H      -2.386729     -2.342388     -0.302458
  H      -2.661962     -0.568626     -0.261976
  H      -1.999576     -1.407672      1.185796
  H       0.454752      2.793132      0.977613
  H      -1.310325      3.047889      0.748964
  H      -0.238533      2.921371     -0.687237
17
Coordinates from ORCA-job TMP_cation_cpcm_28_moread E -761.705205370762
  C       2.284842     -1.306962      0.074735
  O       1.520619     -0.069810      0.098622
  P       0.080147      0.119614     -0.568091
  O       0.550726      0.563626     -1.956719
  O      -0.707624     -1.219778     -0.529734
  C      -2.014427     -1.407478      0.129960
  O      -0.735078      1.158111      0.244687
  C      -0.403746      2.593936      0.333051
  H       3.330138     -1.018345      0.166497
  H       2.090330     -1.865273     -0.844997
  H       1.960189     -1.893535      0.944023
  H      -2.406794     -2.333486     -0.285552
  H      -2.671547     -0.568085     -0.097939
  H      -1.846433     -1.496076      1.204535
  H       0.400100      2.708392      1.061690
  H      -1.318843      3.071692      0.676649
  H      -0.112599      2.963459     -0.651417
17
Coordinates from ORCA-job TMP_cation_cpcm_28_moread E -761.705467408087
  C       2.269166     -1.293962      0.081819
  O       1.497182     -0.060631      0.106661
  P       0.067977      0.126487     -0.593081
  O       0.565773      0.556725     -1.975966
  O      -0.730721     -1.208858     -0.569368
  C      -2.010219     -1.422101      0.137305
  O      -0.756509      1.168490      0.209306
  C      -0.389300      2.592793      0.333743
  H       3.312059     -0.998354      0.177655
  H       2.077292     -1.851247     -0.839042
  H       1.943866     -1.884385      0.948442
  H      -2.397707     -2.353457     -0.270564
  H      -2.687702     -0.592546     -0.064305
  H      -1.802016     -1.513116      1.204745
  H       0.399998      2.671594      1.083092
  H      -1.299402      3.088741      0.664035
  H      -0.059737      2.973826     -0.634478
17
Coordinates from ORCA-job TMP_cation_cpcm_28_moread E -761.706076078444
  C       2.199230     -1.263115      0.113367
  O       1.424642     -0.029509      0.118395
  P       0.030708      0.157787     -0.667038
  O       0.586486      0.553767     -2.034551
  O      -0.796728     -1.160611     -0.694808
  C      -1.970744     -1.471859      0.148239
  O      -0.804306      1.207680      0.121757
  C      -0.344189      2.593809      0.336513
  H       3.240923     -0.961717      0.203419
  H       1.997923     -1.839836     -0.793033
  H       1.871997     -1.834205      0.992719
  H      -2.340044     -2.414105     -0.250583
  H      -2.707323     -0.675271      0.044926
  H      -1.635687     -1.578158      1.181524
  H       0.417956      2.580776      1.117661
  H      -1.231209      3.136190      0.655108
  H       0.060366      2.998376     -0.593615
17
Coordinates from ORCA-job TMP_cation_cpcm_28_moread E -761.706322550016
  C       2.146265     -1.256623      0.136072
  O       1.388656     -0.013766      0.114216
  P       0.012591      0.179964     -0.705136
  O       0.587562      0.565777     -2.064679
  O      -0.827127     -1.125837     -0.766788
  C      -1.928188     -1.498861      0.145560
  O      -0.819981      1.232063      0.085048
  C      -0.323449      2.599501      0.339082
  H       3.193333     -0.967473      0.204573
  H       1.922815     -1.861387     -0.746309
  H       1.822383     -1.791556      1.039623
  H      -2.290813     -2.444230     -0.251601
  H      -2.693971     -0.724020      0.107549
  H      -1.521694     -1.615224      1.151771
  H       0.433284      2.548738      1.123825
  H      -1.198176      3.156774      0.665875
  H       0.096512      3.016160     -0.578681
17
Coordinates from ORCA-job TMP_cation_cpcm_28_moread E -761.706511432318
  C       2.115703     -1.265468      0.149908
  O       1.378808     -0.013994      0.105753
  P       0.010765      0.190569     -0.719716
  O       0.576939      0.589851     -2.076114
  O      -0.829004     -1.108597     -0.806093
  C      -1.895359     -1.503772      0.134934
  O      -0.815513      1.236129      0.084741
  C      -0.320380      2.603836      0.342341
  H       3.169483     -0.994700      0.194668
  H       1.869244     -1.895258     -0.708346
  H       1.800426     -1.764687      1.077318
  H      -2.256464     -2.454747     -0.249973
  H      -2.675076     -0.741694      0.119091
  H      -1.461119     -1.613156      1.130248
  H       0.450043      2.552851      1.113293
  H      -1.192144      3.153381      0.690265
  H       0.073647      3.029457     -0.582317
17
Coordinates from ORCA-job TMP_cation_cpcm_28_moread E -761.706599722424
  C       2.078970     -1.275868      0.160198
  O       1.363070     -0.016109      0.099221
  P       0.006471      0.204577     -0.738511
  O       0.594634      0.610817     -2.082191
  O      -0.843977     -1.084448     -0.851175
  C      -1.855773     -1.512739      0.134248
  O      -0.821529      1.253225      0.057422
  C      -0.321526      2.614198      0.341258
  H       3.138802     -1.025661      0.190526
  H       1.815302     -1.922092     -0.680510
  H       1.768421     -1.748055      1.104013
  H      -2.226366     -2.461728     -0.246716
  H      -2.646918     -0.763292      0.172292
  H      -1.374089     -1.634587      1.106214
  H       0.438658      2.547784      1.120888
  H      -1.194261      3.163386      0.687742
  H       0.080112      3.050593     -0.574920
17
Coordinates from ORCA-job TMP_cation_cpcm_28_moread E -761.706638128380
  C       2.097888     -1.289844      0.153079
  O       1.376848     -0.034435      0.103218
  P       0.020229      0.196126     -0.724115
  O       0.593208      0.624139     -2.067564
  O      -0.825687     -1.096799     -0.838630
  C      -1.865595     -1.493444      0.130737
  O      -0.808310      1.238419      0.078561
  C      -0.336093      2.613110      0.340961
  H       3.157385     -1.037513      0.185259
  H       1.838363     -1.931164     -0.692748
  H       1.793459     -1.770999      1.094660
  H      -2.236068     -2.449372     -0.232814
  H      -2.653708     -0.739516      0.131658
  H      -1.411347     -1.594365      1.118402
  H       0.438580      2.571003      1.107945
  H      -1.215034      3.145009      0.698894
  H       0.035879      3.049644     -0.587503
17
Coordinates from ORCA-job TMP_cation_cpcm_28_moread E -761.706673078303
  C       2.089309     -1.289258      0.155651
  O       1.367091     -0.034459      0.104519
  P       0.016360      0.200389     -0.731880
  O       0.598838      0.625225     -2.072687
  O      -0.835960     -1.089923     -0.850960
  C      -1.859370     -1.498194      0.132335
  O      -0.813960      1.246547      0.064354
  C      -0.333010      2.615218      0.341553
  H       3.148757     -1.036041      0.182755
  H       1.825687     -1.933947     -0.686211
  H       1.789721     -1.767118      1.100515
  H      -2.222112     -2.458400     -0.227732
  H      -2.655860     -0.753269      0.142181
  H      -1.392122     -1.594266      1.114459
  H       0.435081      2.560145      1.114498
  H      -1.210542      3.151401      0.696298
  H       0.052092      3.055951     -0.579647
17
Coordinates from ORCA-job TMP_cation_cpcm_28_moread E -761.706701562223
  C       2.084273     -1.289974      0.157848
  O       1.356784     -0.037932      0.106315
  P       0.013807      0.203427     -0.739413
  O       0.600035      0.628218     -2.079462
  O      -0.845119     -1.085027     -0.862554
  C      -1.857519     -1.499335      0.131480
  O      -0.817897      1.252457      0.052625
  C      -0.329511      2.615019      0.345139
  H       3.142964     -1.032000      0.170367
  H       1.810935     -1.942081     -0.674906
  H       1.799056     -1.760989      1.110496
  H      -2.197459     -2.473320     -0.213512
  H      -2.669646     -0.771516      0.128940
  H      -1.386645     -1.568971      1.114136
  H       0.436066      2.546919      1.119833
  H      -1.204906      3.153064      0.701943
  H       0.064780      3.062040     -0.569275
17
Coordinates from ORCA-job TMP_cation_cpcm_28_moread E -761.706710407019
  C       2.086665     -1.290682      0.157289
  O       1.356166     -0.040040      0.106361
  P       0.014521      0.202666     -0.739547
  O       0.598466      0.629242     -2.080572
  O      -0.844831     -1.086152     -0.862628
  C      -1.861280     -1.496816      0.129392
  O      -0.817616      1.251320      0.052840
  C      -0.328760      2.612904      0.348228
  H       3.144827     -1.029897      0.158270
  H       1.806088     -1.947482     -0.669211
  H       1.811899     -1.756566      1.115351
  H      -2.186586     -2.479736     -0.204136
  H      -2.680880     -0.777751      0.107693
  H      -1.398614     -1.546091      1.117112
  H       0.438727      2.543004      1.120917
  H      -1.203539      3.149837      0.708111
  H       0.064749      3.062240     -0.565471
17
Coordinates from ORCA-job TMP_cation_cpcm_28_moread E -761.706719341507
  C       2.087065     -1.292767      0.157059
  O       1.355907     -0.042210      0.105094
  P       0.015737      0.202590     -0.739925
  O       0.597668      0.632648     -2.081304
  O      -0.843692     -1.085882     -0.865128
  C      -1.863764     -1.493540      0.124799
  O      -0.817272      1.250168      0.053061
  C      -0.327751      2.610071      0.353615
  H       3.145118     -1.031779      0.133429
  H       1.789634     -1.959855     -0.654950
  H       1.832211     -1.744470      1.127074
  H      -2.165507     -2.490277     -0.189289
  H      -2.696037     -0.790644      0.074698
  H      -1.413543     -1.510230      1.119297
  H       0.442453      2.537706      1.123393
  H      -1.201667      3.145131      0.718222
  H       0.063440      3.063341     -0.559145
17
Coordinates from ORCA-job TMP_cation_cpcm_28_moread E -761.706724096205
  C       2.087723     -1.292946      0.156474
  O       1.357215     -0.041586      0.105006
  P       0.016192      0.202354     -0.738409
  O       0.599230      0.632453     -2.079540
  O      -0.842504     -1.085807     -0.864176
  C      -1.865642     -1.492920      0.122588
  O      -0.817521      1.249643      0.054103
  C      -0.327264      2.608984      0.355659
  H       3.145765     -1.033124      0.119576
  H       1.781115     -1.964383     -0.648401
  H       1.843039     -1.737522      1.132202
  H      -2.159039     -2.494046     -0.185412
  H      -2.701947     -0.795684      0.061298
  H      -1.422258     -1.498802      1.120190
  H       0.443207      2.536291      1.125066
  H      -1.200856      3.144264      0.720767
  H       0.063543      3.062831     -0.556992
17
Coordinates from ORCA-job TMP_cation_cpcm_28_moread E -761.706727765181
  C       2.087431     -1.292908      0.155938
  O       1.357744     -0.040604      0.106969
  P       0.016263      0.202475     -0.736180
  O       0.603283      0.631522     -2.075967
  O      -0.842180     -1.084718     -0.863755
  C      -1.866662     -1.493408      0.120394
  O      -0.818457      1.250142      0.054687
  C      -0.326777      2.608850      0.356783
  H       3.145461     -1.035070      0.104756
  H       1.770941     -1.968041     -0.641880
  H       1.854301     -1.730876      1.137344
  H      -2.154371     -2.497192     -0.184336
  H      -2.706195     -0.800590      0.052761
  H      -1.428166     -1.493125      1.120113
  H       0.442799      2.535596      1.126965
  H      -1.199957      3.145402      0.721114
  H       0.064542      3.062544     -0.555707
17
Coordinates from ORCA-job TMP_cation_cpcm_28_moread E -761.706728960321
  C       2.087547     -1.292705      0.155788
  O       1.357000     -0.040732      0.109305
  P       0.016086      0.202452     -0.735103
  O       0.605318      0.630798     -2.074104
  O      -0.842663     -1.084260     -0.863783
  C      -1.867426     -1.493805      0.119467
  O      -0.818963      1.250594      0.054841
  C      -0.326449      2.609095      0.356849
  H       3.145324     -1.034828      0.098606
  H       1.767305     -1.969089     -0.639408
  H       1.860296     -1.728952      1.139320
  H      -2.153746     -2.498109     -0.184891
  H      -2.707894     -0.802208      0.050689
  H      -1.430203     -1.492513      1.119757
  H       0.442485      2.535386      1.127624
  H      -1.199386      3.146444      0.720621
  H       0.065371      3.062433     -0.555579
17
Coordinates from ORCA-job TMP_cation_cpcm_28_moread E -761.706730871379
  C       2.088149     -1.292172      0.155742
  O       1.354792     -0.041700      0.114437
  P       0.015615      0.202240     -0.733342
  O       0.608925      0.629377     -2.070875
  O      -0.843883     -1.083720     -0.864040
  C      -1.869202     -1.494497      0.117780
  O      -0.819802      1.251356      0.054939
  C      -0.325868      2.609644      0.356728
  H       3.145116     -1.033089      0.087237
  H       1.761287     -1.971201     -0.634367
  H       1.872901     -1.725586      1.143210
  H      -2.154840     -2.498769     -0.187392
  H      -2.710288     -0.803629      0.048825
  H      -1.433194     -1.493718      1.118631
  H       0.441532      2.535028      1.128932
  H      -1.198575      3.148369      0.719064
  H       0.067334      3.062067     -0.555510
17
Coordinates from ORCA-job TMP_cation_cpcm_28_moread E -761.706732414000
  C       2.088710     -1.291747      0.156100
  O       1.352539     -0.043024      0.118663
  P       0.015264      0.202036     -0.732405
  O       0.611769      0.628553     -2.068717
  O      -0.844766     -1.083489     -0.864796
  C      -1.870768     -1.494766      0.115960
  O      -0.820420      1.251729      0.054647
  C      -0.325534      2.609794      0.356972
  H       3.144611     -1.031289      0.074808
  H       1.754348     -1.974819     -0.627223
  H       1.886673     -1.720637      1.148304
  H      -2.156632     -2.498637     -0.190351
  H      -2.711734     -0.803712      0.047307
  H      -1.435335     -1.495157      1.117068
  H       0.440174      2.534218      1.130737
  H      -1.198382      3.149383      0.717696
  H       0.069482      3.061564     -0.554769
17
Coordinates from ORCA-job TMP_cation_cpcm_28_moread E -761.706734132041
  C       2.089100     -1.291381      0.157021
  O       1.350578     -0.044395      0.121527
  P       0.015110      0.201893     -0.732446
  O       0.613990      0.628312     -2.067751
  O      -0.845064     -1.083552     -0.866113
  C      -1.871920     -1.494670      0.113877
  O      -0.820855      1.251657      0.053809
  C      -0.325633      2.609472      0.357671
  H       3.143670     -1.030027      0.059990
  H       1.745251     -1.980634     -0.616586
  H       1.902415     -1.712736      1.155420
  H      -2.159880     -2.497238     -0.194731
  H      -2.711467     -0.801743      0.046933
  H      -1.436088     -1.498185      1.114788
  H       0.437849      2.532905      1.133490
  H      -1.199155      3.149457      0.716143
  H       0.072099      3.060865     -0.553041
17
Coordinates from ORCA-job TMP_cation_cpcm_28_moread E -761.706735411713
  C       2.089424     -1.291011      0.158203
  O       1.349711     -0.045182      0.122290
  P       0.015282      0.201755     -0.733330
  O       0.615344      0.628267     -2.068042
  O      -0.844573     -1.083963     -0.867402
  C      -1.872569     -1.494210      0.111995
  O      -0.821137      1.251060      0.052651
  C      -0.326290      2.608589      0.358683
  H       3.142674     -1.029790      0.045621
  H       1.735930     -1.987168     -0.604681
  H       1.916929     -1.703237      1.162916
  H      -2.164389     -2.494644     -0.199845
  H      -2.709402     -0.797791      0.047879
  H      -1.435651     -1.502576      1.112376
  H       0.434768      2.531322      1.136779
  H      -1.200859      3.148625      0.714470
  H       0.074810      3.059955     -0.550562
17
Coordinates from ORCA-job TMP_cation_cpcm_28_moread E -761.706735922702
  C       2.089281     -1.290962      0.158928
  O       1.350027     -0.045084      0.121125
  P       0.015576      0.201790     -0.734366
  O       0.615447      0.628497     -2.068992
  O      -0.844030     -1.084099     -0.868299
  C      -1.872265     -1.493849      0.111266
  O      -0.821180      1.250616      0.051849
  C      -0.326941      2.607917      0.359333
  H       3.142116     -1.030770      0.039727
  H       1.731357     -1.990603     -0.598637
  H       1.922019     -1.698009      1.166624
  H      -2.166529     -2.493017     -0.202283
  H      -2.707449     -0.795301      0.049172
  H      -1.434279     -1.505072      1.111141
  H       0.433027      2.530457      1.138485
  H      -1.202114      3.147784      0.713866
  H       0.075938      3.059705     -0.548940
17
Coordinates from ORCA-job TMP_cation_cpcm_28_moread E -761.706736140928
  C       2.089129     -1.290992      0.159357
  O       1.350555     -0.044756      0.119833
  P       0.015813      0.201846     -0.735097
  O       0.615306      0.628671     -2.069738
  O      -0.843771     -1.084022     -0.868915
  C      -1.871961     -1.493682      0.110883
  O      -0.821154      1.250402      0.051404
  C      -0.327353      2.607491      0.359763
  H       3.141861     -1.031845      0.036836
  H       1.728838     -1.992600     -0.595243
  H       1.924060     -1.694806      1.168719
  H      -2.167349     -2.492266     -0.203440
  H      -2.706411     -0.794178      0.049881
  H      -1.433356     -1.506266      1.110469
  H       0.432118      2.529963      1.139414
  H      -1.202791      3.147280      0.713751
  H       0.076468      3.059756     -0.547876
