17
Coordinates from ORCA-job TMP_cation_cpcm_7_moread E -761.671698186052
  C       2.322150     -1.110107     -0.121247
  O       1.446904     -0.246841      0.586848
  P      -0.001093      0.003392     -0.032977
  O      -0.049654      0.153953     -1.490261
  O      -0.851133     -1.206662      0.564270
  C      -2.124125     -1.458547     -0.009074
  O      -0.530506      1.251111      0.807508
  C      -0.191013      2.546951      0.340395
  H       3.337969     -0.827674      0.154216
  H       2.176116     -0.993877     -1.196468
  H       2.136428     -2.148361      0.159357
  H      -2.350663     -2.509116      0.170324
  H      -2.100650     -1.254852     -1.080809
  H      -2.881254     -0.829776      0.462504
  H       0.789643      2.839662      0.719716
  H      -0.952799      3.229495      0.716423
  H      -0.176319      2.561249     -0.750724
17
Coordinates from ORCA-job TMP_cation_cpcm_7_moread E -761.680459215628
  C       2.378861     -1.165957     -0.099683
  O       1.484490     -0.214174      0.509846
  P       0.026195      0.032670     -0.095655
  O      -0.021365      0.230660     -1.560536
  O      -0.815308     -1.207409      0.459451
  C      -2.157139     -1.461208     -0.014529
  O      -0.518634      1.248570      0.785774
  C      -0.235332      2.585998      0.351607
  H       3.390993     -0.867813      0.173725
  H       2.257578     -1.168031     -1.187371
  H       2.170187     -2.174911      0.285193
  H      -2.346168     -2.523932      0.141665
  H      -2.256418     -1.209939     -1.072282
  H      -2.876200     -0.872067      0.570129
  H       0.761902      2.881191      0.713621
  H      -0.997855      3.233307      0.784923
  H      -0.245785      2.653044     -0.745879
17
Coordinates from ORCA-job TMP_cation_cpcm_7_moread E -761.685571743242
  C       2.403140     -1.212755     -0.076147
  O       1.507807     -0.184319      0.429261
  P       0.042547      0.058537     -0.153007
  O       0.007474      0.293552     -1.629696
  O      -0.781395     -1.208342      0.352021
  C      -2.171676     -1.468975     -0.018315
  O      -0.507746      1.248656      0.756372
  C      -0.262826      2.620856      0.360393
  H       3.412175     -0.891823      0.176746
  H       2.277263     -1.330726     -1.158419
  H       2.168554     -2.168179      0.416574
  H      -2.313486     -2.542889      0.094631
  H      -2.371966     -1.155417     -1.045292
  H      -2.832293     -0.930098      0.671999
  H       0.739594      2.909902      0.715207
  H      -1.027156      3.230111      0.840420
  H      -0.290010      2.731911     -0.732749
17
Coordinates from ORCA-job TMP_cation_cpcm_7_moread E -761.690138239204
  C       2.406748     -1.266814     -0.039031
  O       1.534004     -0.149070      0.319173
  P       0.061995      0.087571     -0.228284
  O       0.058544      0.373435     -1.716103
  O      -0.730986     -1.211145      0.195906
  C      -2.167495     -1.468888     -0.017609
  O      -0.497815      1.240305      0.707060
  C      -0.293638      2.649896      0.368228
  H       3.419589     -0.922925      0.157044
  H       2.249740     -1.539487     -1.088300
  H       2.142612     -2.121549      0.598593
  H      -2.263530     -2.552388     -0.005107
  H      -2.494574     -1.047301     -0.969988
  H      -2.718202     -1.018145      0.813030
  H       0.704301      2.937447      0.725149
  H      -1.068993      3.202023      0.895018
  H      -0.342299      2.807034     -0.714778
17
Coordinates from ORCA-job TMP_cation_cpcm_7_moread E -761.692799677074
  C       2.394351     -1.306228     -0.000708
  O       1.556354     -0.126137      0.223004
  P       0.081112      0.103926     -0.298997
  O       0.129483      0.444709     -1.787720
  O      -0.685307     -1.217721      0.033172
  C      -2.145360     -1.451584     -0.005200
  O      -0.500707      1.218057      0.647509
  C      -0.325883      2.654043      0.367796
  H       3.416197     -0.961080      0.135158
  H       2.205130     -1.705886     -1.001725
  H       2.108839     -2.051659      0.751280
  H      -2.245614     -2.526935     -0.131663
  H      -2.585231     -0.899991     -0.837605
  H      -2.553067     -1.116691      0.950366
  H       0.658034      2.947321      0.744832
  H      -1.122470      3.151160      0.916610
  H      -0.385859      2.844697     -0.706109
17
Coordinates from ORCA-job TMP_cation_cpcm_7_moread E -761.694054434155
  C       2.378135     -1.322889      0.022582
  O       1.569871     -0.113626      0.170253
  P       0.094085      0.107111     -0.346871
  O       0.200430      0.488697     -1.826787
  O      -0.658676     -1.227081     -0.086113
  C      -2.118253     -1.429319      0.013330
  O      -0.522287      1.194241      0.593158
  C      -0.352597      2.641753      0.362347
  H       3.409207     -0.992780      0.122812
  H       2.171473     -1.788793     -0.944820
  H       2.083774     -2.000305      0.832152
  H      -2.265010     -2.481817     -0.217236
  H      -2.623472     -0.782215     -0.705274
  H      -2.409732     -1.191190      1.037357
  H       0.612690      2.935452      0.779589
  H      -1.174737      3.108244      0.900645
  H      -0.394901      2.854517     -0.707126
17
Coordinates from ORCA-job TMP_cation_cpcm_7_moread E -761.694958027039
  C       2.362272     -1.328733      0.038199
  O       1.576444     -0.104116      0.137278
  P       0.102636      0.103777     -0.393866
  O       0.289124      0.520808     -1.856943
  O      -0.646555     -1.238550     -0.202181
  C      -2.090185     -1.404931      0.040787
  O      -0.565824      1.168330      0.523517
  C      -0.379499      2.622179      0.353305
  H       3.400944     -1.016848      0.121453
  H       2.152142     -1.834585     -0.907733
  H       2.062761     -1.963785      0.879506
  H      -2.311359     -2.421833     -0.275402
  H      -2.644265     -0.673604     -0.550212
  H      -2.263118     -1.265676      1.108740
  H       0.555359      2.901526      0.841268
  H      -1.235456      3.071706      0.852434
  H      -0.365420      2.864334     -0.710150
17
Coordinates from ORCA-job TMP_cation_cpcm_7_moread E -761.695489121941
  C       2.344803     -1.325835      0.047934
  O       1.570066     -0.095088      0.120470
  P       0.102806      0.100921     -0.443514
  O       0.383537      0.539958     -1.885063
  O      -0.652255     -1.244985     -0.310544
  C      -2.065982     -1.391045      0.072430
  O      -0.623465      1.150534      0.438852
  C      -0.398222      2.605859      0.344320
  H       3.387455     -1.026130      0.131178
  H       2.142207     -1.851054     -0.889088
  H       2.039184     -1.942292      0.901266
  H      -2.360275     -2.371274     -0.296420
  H      -2.657085     -0.601569     -0.395251
  H      -2.126702     -1.337535      1.160245
  H       0.495056      2.847603      0.921350
  H      -1.285949      3.054173      0.786040
  H      -0.295181      2.887759     -0.704204
17
Coordinates from ORCA-job TMP_cation_cpcm_7_moread E -761.695792095850
  C       2.331721     -1.317779      0.053143
  O       1.554196     -0.088614      0.120377
  P       0.096736      0.101085     -0.482728
  O       0.455385      0.542579     -1.906694
  O      -0.671161     -1.243438     -0.387055
  C      -2.054855     -1.390338      0.097130
  O      -0.671246      1.146451      0.366957
  C      -0.403499      2.597857      0.338310
  H       3.373835     -1.018215      0.145074
  H       2.139601     -1.844700     -0.885217
  H       2.021726     -1.935831      0.904205
  H      -2.390665     -2.349758     -0.290831
  H      -2.671281     -0.576333     -0.287475
  H      -2.035673     -1.387295      1.187980
  H       0.452913      2.795149      0.984131
  H      -1.308022      3.056662      0.732510
  H      -0.219710      2.912519     -0.689817
17
Coordinates from ORCA-job TMP_cation_cpcm_7_moread E -761.696056274939
  C       2.302943     -1.302829      0.064263
  O       1.518991     -0.076000      0.122596
  P       0.080704      0.109432     -0.542749
  O       0.540767      0.540920     -1.941322
  O      -0.708924     -1.228693     -0.493453
  C      -2.036168     -1.403157      0.127628
  O      -0.732228      1.155531      0.263091
  C      -0.398934      2.592712      0.332526
  H       3.343081     -0.999370      0.165947
  H       2.121054     -1.833431     -0.874076
  H       1.987313     -1.921081      0.913597
  H      -2.411863     -2.341577     -0.275148
  H      -2.687287     -0.572162     -0.144757
  H      -1.904024     -1.461306      1.209286
  H       0.403896      2.716160      1.060780
  H      -1.313954      3.076249      0.668126
  H      -0.105369      2.948601     -0.656336
17
Coordinates from ORCA-job TMP_cation_cpcm_7_moread E -761.696273689757
  C       2.291342     -1.290953      0.071194
  O       1.498924     -0.068392      0.129307
  P       0.070178      0.114651     -0.564692
  O       0.552921      0.535385     -1.958208
  O      -0.729022     -1.220076     -0.528799
  C      -2.035378     -1.415234      0.132139
  O      -0.749941      1.162805      0.234771
  C      -0.385613      2.590601      0.333998
  H       3.329182     -0.979343      0.171026
  H       2.108074     -1.824210     -0.865294
  H       1.979720     -1.909544      0.921924
  H      -2.405054     -2.359386     -0.262533
  H      -2.704979     -0.593182     -0.120973
  H      -1.870206     -1.473174      1.209406
  H       0.408100      2.683791      1.076967
  H      -1.295006      3.089317      0.662090
  H      -0.063242      2.956945     -0.642322
17
Coordinates from ORCA-job TMP_cation_cpcm_7_moread E -761.696760979771
  C       2.242456     -1.264714      0.098179
  O       1.440731     -0.046092      0.142427
  P       0.041410      0.137050     -0.624401
  O       0.570508      0.535337     -2.003876
  O      -0.781688     -1.184006     -0.636438
  C      -2.013185     -1.451631      0.136068
  O      -0.787085      1.186814      0.171986
  C      -0.348193      2.586982      0.338330
  H       3.278329     -0.941303      0.179309
  H       2.042993     -1.821512     -0.820738
  H       1.942701     -1.862896      0.968141
  H      -2.362847     -2.408869     -0.244316
  H      -2.734928     -0.656446     -0.051389
  H      -1.751004     -1.513216      1.193850
  H       0.436918      2.608699      1.096246
  H      -1.235840      3.120262      0.670552
  H       0.018724      2.975540     -0.613929
17
Coordinates from ORCA-job TMP_cation_cpcm_7_moread E -761.696987514361
  C       2.181026     -1.256421      0.124155
  O       1.394438     -0.028129      0.140717
  P       0.019146      0.164392     -0.673186
  O       0.590357      0.549778     -2.036526
  O      -0.822179     -1.140703     -0.732498
  C      -1.966157     -1.485331      0.137651
  O      -0.812302      1.217903      0.116278
  C      -0.324572      2.594688      0.339437
  H       3.222308     -0.943902      0.178105
  H       1.956677     -1.846561     -0.767534
  H       1.888408     -1.814630      1.023267
  H      -2.312457     -2.441500     -0.248038
  H      -2.727244     -0.710685      0.041570
  H      -1.608668     -1.572651      1.165264
  H       0.447984      2.564272      1.109694
  H      -1.198304      3.148306      0.675047
  H       0.071538      3.001174     -0.593403
17
Coordinates from ORCA-job TMP_cation_cpcm_7_moread E -761.697149945715
  C       2.146347     -1.263589      0.139106
  O       1.381287     -0.024647      0.131047
  P       0.014693      0.178092     -0.691875
  O       0.585809      0.572410     -2.050298
  O      -0.827311     -1.120261     -0.776985
  C      -1.931200     -1.495005      0.129147
  O      -0.812250      1.227360      0.106372
  C      -0.319753      2.600832      0.342697
  H       3.194760     -0.970062      0.163035
  H       1.895575     -1.883272     -0.724853
  H       1.865189     -1.782072      1.065742
  H      -2.277459     -2.453552     -0.250591
  H      -2.708519     -0.732902      0.066078
  H      -1.538346     -1.583800      1.143525
  H       0.460175      2.562231      1.104758
  H      -1.189678      3.150592      0.694780
  H       0.060680      3.017645     -0.591684
17
Coordinates from ORCA-job TMP_cation_cpcm_7_moread E -761.697240390540
  C       2.130215     -1.274027      0.143976
  O       1.378438     -0.030246      0.124879
  P       0.017366      0.183270     -0.699999
  O       0.591903      0.590011     -2.052388
  O      -0.826014     -1.111718     -0.800778
  C      -1.909466     -1.492649      0.125856
  O      -0.810757      1.230755      0.097005
  C      -0.325711      2.605035      0.343889
  H       3.183124     -0.994405      0.151803
  H       1.865797     -1.908192     -0.705247
  H       1.858380     -1.772257      1.084900
  H      -2.263257     -2.452110     -0.244745
  H      -2.692646     -0.735184      0.079752
  H      -1.499414     -1.580961      1.133553
  H       0.453024      2.565277      1.106914
  H      -1.198828      3.147409      0.700039
  H       0.047846      3.029992     -0.589410
17
Coordinates from ORCA-job TMP_cation_cpcm_7_moread E -761.697289808424
  C       2.115117     -1.280896      0.148207
  O       1.369369     -0.035846      0.123238
  P       0.017224      0.188735     -0.710797
  O       0.602487      0.601780     -2.056423
  O      -0.832716     -1.102033     -0.825489
  C      -1.891805     -1.492632      0.125168
  O      -0.814086      1.238404      0.078909
  C      -0.328769      2.608819      0.345099
  H       3.170345     -1.008789      0.140958
  H       1.838860     -1.926339     -0.688611
  H       1.855438     -1.764866      1.100391
  H      -2.245776     -2.456102     -0.234912
  H      -2.684662     -0.744350      0.095360
  H      -1.461752     -1.576169      1.125102
  H       0.442926      2.558437      1.114655
  H      -1.203747      3.148876      0.700355
  H       0.051547      3.042973     -0.581211
17
Coordinates from ORCA-job TMP_cation_cpcm_7_moread E -761.697322914920
  C       2.112663     -1.286790      0.149085
  O       1.364073     -0.044574      0.125568
  P       0.019434      0.189634     -0.714766
  O       0.606383      0.609554     -2.058010
  O      -0.834899     -1.099866     -0.836276
  C      -1.887768     -1.488062      0.123298
  O      -0.813926      1.240155      0.071724
  C      -0.331889      2.609534      0.347540
  H       3.167660     -1.013535      0.127197
  H       1.827075     -1.939392     -0.678928
  H       1.868507     -1.763965      1.108957
  H      -2.231229     -2.461186     -0.220790
  H      -2.689996     -0.750187      0.083289
  H      -1.456096     -1.551666      1.124139
  H       0.439029      2.554757      1.117734
  H      -1.208248      3.145387      0.705650
  H       0.049229      3.050204     -0.575412
17
Coordinates from ORCA-job TMP_cation_cpcm_7_moread E -761.697341717439
  C       2.107451     -1.288723      0.151387
  O       1.355507     -0.048385      0.127563
  P       0.017996      0.192532     -0.720855
  O       0.610257      0.613357     -2.062329
  O      -0.841969     -1.094640     -0.848033
  C      -1.884876     -1.488777      0.121513
  O      -0.816764      1.245201      0.061672
  C      -0.330079      2.609978      0.350793
  H       3.161385     -1.012950      0.109939
  H       1.808878     -1.950675     -0.664314
  H       1.880928     -1.755267      1.120671
  H      -2.211216     -2.472103     -0.210022
  H      -2.699382     -0.765004      0.073822
  H      -1.449092     -1.532490      1.121671
  H       0.438205      2.545300      1.122998
  H      -1.205578      3.146315      0.709974
  H       0.058350      3.056330     -0.566451
17
Coordinates from ORCA-job TMP_cation_cpcm_7_moread E -761.697350023574
  C       2.114211     -1.289759      0.149738
  O       1.356981     -0.051704      0.130059
  P       0.020053      0.190342     -0.717340
  O       0.608288      0.613684     -2.060612
  O      -0.839298     -1.098075     -0.842807
  C      -1.892888     -1.485009      0.118879
  O      -0.815095      1.241778      0.066876
  C      -0.330348      2.607483      0.353593
  H       3.166255     -1.008965      0.094732
  H       1.807836     -1.955170     -0.660077
  H       1.900679     -1.752787      1.123327
  H      -2.205456     -2.476321     -0.201918
  H      -2.711548     -0.768012      0.046867
  H      -1.470752     -1.508695      1.125480
  H       0.441673      2.545168      1.122341
  H      -1.205679      3.141984      0.715725
  H       0.055088      3.054059     -0.564862
17
Coordinates from ORCA-job TMP_cation_cpcm_7_moread E -761.697355982045
  C       2.112054     -1.289243      0.150555
  O       1.354570     -0.050460      0.130990
  P       0.018901      0.191805     -0.718138
  O       0.610504      0.613872     -2.060788
  O      -0.841533     -1.095508     -0.845439
  C      -1.893428     -1.486750      0.116709
  O      -0.817031      1.243629      0.064846
  C      -0.328077      2.606730      0.355960
  H       3.163111     -1.008430      0.078189
  H       1.793740     -1.961040     -0.649121
  H       1.911787     -1.742568      1.131236
  H      -2.194553     -2.483225     -0.198912
  H      -2.718110     -0.777611      0.036849
  H      -1.473753     -1.499357      1.124445
  H       0.442842      2.540593      1.125510
  H      -1.202272      3.143365      0.717575
  H       0.061248      3.054199     -0.560466
17
Coordinates from ORCA-job TMP_cation_cpcm_7_moread E -761.697361377025
  C       2.113486     -1.289369      0.149798
  O       1.355631     -0.049993      0.132914
  P       0.019571      0.191404     -0.715226
  O       0.612377      0.613883     -2.057478
  O      -0.839772     -1.095787     -0.843385
  C      -1.896624     -1.486106      0.113521
  O      -0.817403      1.242526      0.067675
  C      -0.327448      2.605168      0.358328
  H       3.163271     -1.009028      0.058094
  H       1.782392     -1.966866     -0.639656
  H       1.928891     -1.733514      1.137481
  H      -2.187887     -2.487576     -0.195428
  H      -2.725096     -0.783153      0.019425
  H      -1.485981     -1.486112      1.124971
  H       0.443763      2.539562      1.127607
  H      -1.201167      3.142787      0.719656
  H       0.061996      3.052172     -0.558295
17
Coordinates from ORCA-job TMP_cation_cpcm_7_moread E -761.697364898983
  C       2.114338     -1.289675      0.149050
  O       1.356224     -0.050099      0.135354
  P       0.020198      0.190927     -0.712634
  O       0.615465      0.613863     -2.053678
  O      -0.838435     -1.095843     -0.842535
  C      -1.898551     -1.485416      0.110668
  O      -0.817908      1.241937      0.069211
  C      -0.327388      2.604314      0.360006
  H       3.162901     -1.010565      0.039612
  H       1.771904     -1.972493     -0.630793
  H       1.945091     -1.725552      1.143026
  H      -2.183869     -2.490155     -0.193195
  H      -2.729778     -0.786987      0.007159
  H      -1.494567     -1.476974      1.124729
  H       0.442619      2.538803      1.130447
  H      -1.201100      3.142916      0.719986
  H       0.062855      3.051000     -0.556412
17
Coordinates from ORCA-job TMP_cation_cpcm_7_moread E -761.697366765211
  C       2.115877     -1.289530      0.148385
  O       1.356223     -0.050948      0.137932
  P       0.020570      0.190043     -0.710785
  O       0.617587      0.612993     -2.050961
  O      -0.837864     -1.096499     -0.841676
  C      -1.900536     -1.484581      0.108972
  O      -0.818142      1.241362      0.070011
  C      -0.327530      2.603837      0.360722
  H       3.163367     -1.010232      0.028441
  H       1.767470     -1.975497     -0.625960
  H       1.957076     -1.721456      1.145789
  H      -2.184364     -2.490428     -0.192675
  H      -2.732419     -0.787560      0.000917
  H      -1.500426     -1.472947      1.124540
  H       0.440958      2.538294      1.132645
  H      -1.201518      3.143068      0.719179
  H       0.063673      3.050081     -0.555475
17
Coordinates from ORCA-job TMP_cation_cpcm_7_moread E -761.697368572377
  C       2.118374     -1.288689      0.147739
  O       1.355610     -0.052301      0.141389
  P       0.020657      0.188696     -0.708971
  O       0.619610      0.610913     -2.048399
  O      -0.837851     -1.097698     -0.840398
  C      -1.903538     -1.483680      0.107422
  O      -0.818395      1.240650      0.070550
  C      -0.327531      2.603291      0.361180
  H       3.164372     -1.007813      0.017575
  H       1.764921     -1.977924     -0.621328
  H       1.970901     -1.717552      1.148211
  H      -2.188102     -2.489441     -0.193880
  H      -2.734718     -0.786191     -0.003319
  H      -1.506566     -1.471696      1.124225
  H       0.438666      2.537419      1.135313
  H      -1.202003      3.143353      0.717270
  H       0.065593      3.048663     -0.554579
17
Coordinates from ORCA-job TMP_cation_cpcm_7_moread E -761.697370173674
  C       2.121059     -1.287346      0.147472
  O       1.354467     -0.053763      0.144895
  P       0.020476      0.187325     -0.707673
  O       0.621192      0.608250     -2.046623
  O      -0.838228     -1.099053     -0.839172
  C      -1.906882     -1.482944      0.105944
  O      -0.818635      1.239880      0.070767
  C      -0.327352      2.602597      0.361620
  H       3.165203     -1.004097      0.006622
  H       1.762599     -1.980497     -0.615671
  H       1.985611     -1.712806      1.151110
  H      -2.193702     -2.487613     -0.196911
  H      -2.736227     -0.783370     -0.005568
  H      -1.511888     -1.473112      1.123548
  H       0.436238      2.536159      1.138237
  H      -1.202452      3.143531      0.714853
  H       0.068523      3.046858     -0.553452
17
Coordinates from ORCA-job TMP_cation_cpcm_7_moread E -761.697371430982
  C       2.122054     -1.286369      0.147963
  O       1.353319     -0.054520      0.146516
  P       0.020141      0.186882     -0.707765
  O       0.622139      0.606660     -2.046473
  O      -0.838787     -1.099526     -0.839197
  C      -1.908314     -1.482945      0.105134
  O      -0.818815      1.239669      0.070148
  C      -0.327289      2.602297      0.361839
  H       3.164890     -1.001820     -0.000616
  H       1.759705     -1.982977     -0.610130
  H       1.994684     -1.708341      1.154128
  H      -2.198568     -2.485541     -0.201298
  H      -2.735347     -0.780181     -0.003300
  H      -1.512295     -1.478092      1.122372
  H       0.434216      2.535267      1.140412
  H      -1.203050      3.143715      0.712645
  H       0.071315      3.045823     -0.552379
17
Coordinates from ORCA-job TMP_cation_cpcm_7_moread E -761.697372275528
  C       2.122610     -1.285713      0.148768
  O       1.352666     -0.054914      0.147404
  P       0.020092      0.186748     -0.708060
  O       0.623045      0.605653     -2.046589
  O      -0.838761     -1.099848     -0.839345
  C      -1.909179     -1.483009      0.104201
  O      -0.818854      1.239298      0.069769
  C      -0.327627      2.601924      0.362161
  H       3.164077     -1.000749     -0.009004
  H       1.755031     -1.986433     -0.602932
  H       2.003716     -1.702638      1.158032
  H      -2.203471     -2.483017     -0.206738
  H      -2.733266     -0.776249     -0.000265
  H      -1.511680     -1.484332      1.120858
  H       0.432111      2.534903      1.142445
  H      -1.204193      3.143597      0.710495
  H       0.073683      3.044777     -0.551200
17
Coordinates from ORCA-job TMP_cation_cpcm_7_moread E -761.697372519773
  C       2.122224     -1.285884      0.149229
  O       1.352779     -0.054771      0.147135
  P       0.020298      0.186997     -0.708381
  O       0.623405      0.605946     -2.046770
  O      -0.838432     -1.099672     -0.839769
  C      -1.908680     -1.483126      0.103964
  O      -0.818794      1.239217      0.069693
  C      -0.328088      2.601901      0.362171
  H       3.163464     -1.001592     -0.011306
  H       1.752665     -1.987870     -0.600295
  H       2.005212     -1.700694      1.159562
  H      -2.204787     -2.481968     -0.208948
  H      -2.731585     -0.774674      0.001882
  H      -1.509997     -1.487329      1.120148
  H       0.431442      2.535306      1.142709
  H      -1.204934      3.143473      0.709934
  H       0.073808      3.044742     -0.550957
