17
Coordinates from ORCA-job TMP_cation_cpcm_40_moread E -761.681686109119
  C       2.322150     -1.110107     -0.121247
  O       1.446904     -0.246841      0.586848
  P      -0.001093      0.003392     -0.032977
  O      -0.049654      0.153953     -1.490261
  O      -0.851133     -1.206662      0.564270
  C      -2.124125     -1.458547     -0.009074
  O      -0.530506      1.251111      0.807508
  C      -0.191013      2.546951      0.340395
  H       3.337969     -0.827674      0.154216
  H       2.176116     -0.993877     -1.196468
  H       2.136428     -2.148361      0.159357
  H      -2.350663     -2.509116      0.170324
  H      -2.100650     -1.254852     -1.080809
  H      -2.881254     -0.829776      0.462504
  H       0.789643      2.839662      0.719716
  H      -0.952799      3.229495      0.716423
  H      -0.176319      2.561249     -0.750724
17
Coordinates from ORCA-job TMP_cation_cpcm_40_moread E -761.690349453865
  C       2.378406     -1.165821     -0.099493
  O       1.484548     -0.213967      0.509804
  P       0.026364      0.032672     -0.096123
  O      -0.021461      0.230839     -1.560855
  O      -0.814925     -1.207334      0.459566
  C      -2.156416     -1.460851     -0.014558
  O      -0.518371      1.248267      0.785899
  C      -0.235698      2.585526      0.351630
  H       3.390566     -0.867994      0.174093
  H       2.256910     -1.167868     -1.187092
  H       2.168993     -2.174760      0.285251
  H      -2.345622     -2.523515      0.141899
  H      -2.255261     -1.209657     -1.072281
  H      -2.875342     -0.871174      0.569721
  H       0.762088      2.880393      0.712580
  H      -0.997863      3.232698      0.785703
  H      -0.246917      2.652544     -0.745744
17
Coordinates from ORCA-job TMP_cation_cpcm_40_moread E -761.695418152562
  C       2.402187     -1.212560     -0.075672
  O       1.507976     -0.183688      0.428925
  P       0.042778      0.058893     -0.154125
  O       0.006728      0.294723     -1.630250
  O      -0.780475     -1.208087      0.352308
  C      -2.170078     -1.468541     -0.018533
  O      -0.507009      1.248193      0.756954
  C      -0.263450      2.620038      0.360619
  H       3.411363     -0.892449      0.177520
  H       2.275827     -1.331176     -1.157782
  H       2.166061     -2.167788      0.417052
  H      -2.312129     -2.542336      0.095295
  H      -2.369528     -1.155396     -1.045703
  H      -2.830907     -0.928540      0.670740
  H       0.740185      2.908575      0.712581
  H      -1.026727      3.229142      0.842422
  H      -0.292802      2.730997     -0.732351
17
Coordinates from ORCA-job TMP_cation_cpcm_40_moread E -761.699970285295
  C       2.405298     -1.266998     -0.037986
  O       1.534745     -0.148209      0.318119
  P       0.062651      0.088437     -0.230622
  O       0.057194      0.376381     -1.717080
  O      -0.729074     -1.210697      0.196157
  C      -2.164684     -1.468190     -0.018302
  O      -0.495925      1.239606      0.708273
  C      -0.294975      2.648787      0.368795
  H       3.418612     -0.924764      0.158187
  H       2.247078     -1.541707     -1.086587
  H       2.138813     -2.120908      0.600237
  H      -2.261049     -2.551631     -0.004053
  H      -2.490750     -1.047320     -0.971273
  H      -2.716206     -1.015565      0.810871
  H       0.705177      2.936502      0.719586
  H      -1.067987      3.200349      0.899554
  H      -0.348917      2.805927     -0.713878
17
Coordinates from ORCA-job TMP_cation_cpcm_40_moread E -761.702689096158
  C       2.392218     -1.307891      0.001899
  O       1.558519     -0.124997      0.218732
  P       0.082736      0.105653     -0.304101
  O       0.128006      0.451120     -1.790390
  O      -0.681382     -1.217243      0.030189
  C      -2.140777     -1.450103     -0.006482
  O      -0.496892      1.216775      0.648674
  C      -0.328817      2.652694      0.368598
  H       3.415164     -0.965605      0.136189
  H       2.200140     -1.713837     -0.996174
  H       2.103425     -2.048685      0.757693
  H      -2.241842     -2.525279     -0.133578
  H      -2.581360     -0.896525     -0.837176
  H      -2.547114     -1.115385      0.949806
  H       0.658515      2.947906      0.735302
  H      -1.121355      3.147450      0.925323
  H      -0.399186      2.843953     -0.704503
17
Coordinates from ORCA-job TMP_cation_cpcm_40_moread E -761.703978813074
  C       2.374893     -1.325672      0.026595
  O       1.573361     -0.112255      0.162584
  P       0.096283      0.109706     -0.353950
  O       0.198028      0.497868     -1.830477
  O      -0.653218     -1.226355     -0.091652
  C      -2.111887     -1.427522      0.011055
  O      -0.516605      1.192761      0.594764
  C      -0.356489      2.640349      0.363448
  H       3.407772     -1.000019      0.122120
  H       2.162549     -1.802225     -0.934512
  H       2.077744     -1.993389      0.843710
  H      -2.260325     -2.479204     -0.222043
  H      -2.618281     -0.776799     -0.703480
  H      -2.400407     -1.191906      1.036588
  H       0.613768      2.937610      0.766701
  H      -1.172977      3.102921      0.913597
  H      -0.414208      2.854131     -0.705047
17
Coordinates from ORCA-job TMP_cation_cpcm_40_moread E -761.704920140734
  C       2.357170     -1.332757      0.044566
  O       1.581494     -0.102079      0.123117
  P       0.105111      0.107674     -0.404829
  O       0.286267      0.534448     -1.863324
  O      -0.639807     -1.237097     -0.213946
  C      -2.081425     -1.403103      0.037590
  O      -0.558729      1.166277      0.524213
  C      -0.384229      2.620738      0.354845
  H       3.398546     -1.027574      0.117957
  H       2.137383     -1.857301     -0.889017
  H       2.055865     -1.948739      0.899893
  H      -2.306671     -2.416972     -0.285327
  H      -2.638117     -0.665047     -0.542583
  H      -2.246294     -1.272527      1.107951
  H       0.557697      2.904542      0.826532
  H      -1.233891      3.063786      0.870285
  H      -0.390372      2.865730     -0.707923
17
Coordinates from ORCA-job TMP_cation_cpcm_40_moread E -761.705467834517
  C       2.337319     -1.330276      0.056273
  O       1.576193     -0.091939      0.099533
  P       0.104818      0.106418     -0.458343
  O       0.378609      0.557688     -1.894711
  O      -0.645078     -1.242264     -0.327134
  C      -2.054954     -1.390572      0.068142
  O      -0.615529      1.148521      0.438861
  C      -0.402433      2.604925      0.346898
  H       3.383578     -1.039588      0.124843
  H       2.120883     -1.882096     -0.862221
  H       2.030446     -1.918192      0.929828
  H      -2.354353     -2.366318     -0.308350
  H      -2.649318     -0.594654     -0.384288
  H      -2.103991     -1.349216      1.157068
  H       0.500735      2.850387      0.906838
  H      -1.284181      3.044732      0.808738
  H      -0.322743      2.892443     -0.701977
17
Coordinates from ORCA-job TMP_cation_cpcm_40_moread E -761.705825483840
  C       2.319881     -1.322397      0.063198
  O       1.559540     -0.083955      0.095267
  P       0.098084      0.108486     -0.503996
  O       0.457367      0.564653     -1.920370
  O      -0.665484     -1.238632     -0.415183
  C      -2.039003     -1.390998      0.095472
  O      -0.668024      1.144788      0.358723
  C      -0.408651      2.597006      0.340439
  H       3.366630     -1.034889      0.139984
  H       2.112684     -1.880143     -0.853969
  H       2.006083     -1.906669      0.937422
  H      -2.386209     -2.341768     -0.303620
  H      -2.661000     -0.568009     -0.259661
  H      -1.996021     -1.409627      1.185450
  H       0.455141      2.792942      0.976853
  H      -1.310419      3.046935      0.750914
  H      -0.240599      2.922277     -0.686922
17
Coordinates from ORCA-job TMP_cation_cpcm_40_moread E -761.706124953847
  C       2.282970     -1.307294      0.075794
  O       1.520800     -0.069162      0.096031
  P       0.080063      0.120657     -0.570762
  O       0.551537      0.565924     -1.958422
  O      -0.707528     -1.218875     -0.533406
  C      -2.012192     -1.407946      0.130185
  O      -0.735375      1.158364      0.242781
  C      -0.404177      2.594005      0.333165
  H       3.328781     -1.020262      0.166673
  H       2.087175     -1.868448     -0.841956
  H       1.957314     -1.890541      0.947071
  H      -2.406194     -2.332781     -0.286400
  H      -2.669900     -0.567862     -0.093346
  H      -1.840585     -1.499415      1.203947
  H       0.399793      2.707452      1.061834
  H      -1.319241      3.071202      0.677621
  H      -0.113242      2.964981     -0.650811
17
Coordinates from ORCA-job TMP_cation_cpcm_40_moread E -761.706393141157
  C       2.266361     -1.294188      0.083043
  O       1.496744     -0.059676      0.104030
  P       0.067590      0.127917     -0.596586
  O       0.567483      0.559063     -1.978193
  O      -0.731205     -1.207419     -0.574415
  C      -2.007130     -1.423030      0.138054
  O      -0.757562      1.169313      0.205813
  C      -0.389623      2.593045      0.333715
  H       3.309808     -1.000463      0.178656
  H       2.073623     -1.854133     -0.836046
  H       1.939368     -1.881394      0.951347
  H      -2.396803     -2.352883     -0.271174
  H      -2.685572     -0.592762     -0.057168
  H      -1.793474     -1.517932      1.204075
  H       0.398729      2.669734      1.084283
  H      -1.299836      3.088912      0.663822
  H      -0.058501      2.975894     -0.633257
17
Coordinates from ORCA-job TMP_cation_cpcm_40_moread E -761.707016431613
  C       2.193527     -1.262921      0.115261
  O       1.422542     -0.027397      0.115340
  P       0.029269      0.160467     -0.672271
  O       0.588361      0.555867     -2.038411
  O      -0.798803     -1.157533     -0.701895
  C      -1.965120     -1.474558      0.149729
  O      -0.806480      1.210608      0.115317
  C      -0.343626      2.594804      0.336302
  H       3.235951     -0.964392      0.206331
  H       1.991816     -1.842158     -0.789477
  H       1.862898     -1.830430      0.995791
  H      -2.336997     -2.414874     -0.251259
  H      -2.703211     -0.678093      0.057224
  H      -1.620863     -1.586386      1.179393
  H       0.415253      2.577259      1.120534
  H      -1.230539      3.138527      0.652893
  H       0.066022      3.001209     -0.590804
17
Coordinates from ORCA-job TMP_cation_cpcm_40_moread E -761.707264366690
  C       2.141692     -1.256642      0.137577
  O       1.387752     -0.012010      0.110957
  P       0.011711      0.181950     -0.709202
  O       0.587587      0.567585     -2.068220
  O      -0.828023     -1.123822     -0.771245
  C      -1.923194     -1.500591      0.146615
  O      -0.821149      1.234043      0.080662
  C      -0.323336      2.600127      0.339023
  H       3.189443     -0.970388      0.207683
  H       1.918162     -1.863292     -0.743529
  H       1.814101     -1.788497      1.041731
  H      -2.288188     -2.444451     -0.251974
  H      -2.689312     -0.725764      0.116486
  H      -1.510165     -1.620847      1.149693
  H       0.430934      2.546500      1.125949
  H      -1.198211      3.158052      0.664315
  H       0.100197      3.018047     -0.576522
17
Coordinates from ORCA-job TMP_cation_cpcm_40_moread E -761.707456646215
  C       2.112101     -1.265801      0.151077
  O       1.378376     -0.012999      0.103201
  P       0.010375      0.191999     -0.722816
  O       0.576471      0.591744     -2.078848
  O      -0.829396     -1.107136     -0.809446
  C      -1.891038     -1.504765      0.135842
  O      -0.816013      1.237273      0.081967
  C      -0.320645      2.604319      0.342072
  H       3.166373     -0.997535      0.198944
  H       1.866606     -1.896210     -0.707053
  H       1.792475     -1.763382      1.078020
  H      -2.254535     -2.454457     -0.249984
  H      -2.670571     -0.742391      0.126414
  H      -1.451540     -1.617340      1.128491
  H       0.448339      2.551943      1.114367
  H      -1.192743      3.153918      0.689078
  H       0.075365      3.030820     -0.581326
17
Coordinates from ORCA-job TMP_cation_cpcm_40_moread E -761.707539133859
  C       2.072851     -1.276292      0.162068
  O       1.361210     -0.014777      0.096574
  P       0.005274      0.207031     -0.742677
  O       0.595118      0.613210     -2.085314
  O      -0.846212     -1.081136     -0.856743
  C      -1.849160     -1.515073      0.135308
  O      -0.822672      1.255953      0.052944
  C      -0.321243      2.615508      0.340694
  H       3.133370     -1.029497      0.195765
  H       1.809718     -1.923428     -0.678159
  H       1.757318     -1.745926      1.105678
  H      -2.222573     -2.462353     -0.247149
  H      -2.640380     -0.766346      0.184127
  H      -1.358834     -1.641645      1.102351
  H       0.436691      2.546368      1.122260
  H      -1.194030      3.165444      0.685854
  H       0.083551      3.052957     -0.573581
17
Coordinates from ORCA-job TMP_cation_cpcm_40_moread E -761.707578390667
  C       2.095923     -1.290532      0.153771
  O       1.377485     -0.034080      0.101001
  P       0.020370      0.196928     -0.725715
  O       0.592355      0.626218     -2.068857
  O      -0.825333     -1.096051     -0.840246
  C      -1.862750     -1.493806      0.131400
  O      -0.807796      1.238589      0.078172
  C      -0.336688      2.613605      0.340391
  H       3.155735     -1.040237      0.190323
  H       1.838399     -1.931608     -0.692912
  H       1.786550     -1.771230      1.094124
  H      -2.235781     -2.448312     -0.233252
  H      -2.649870     -0.738872      0.136971
  H      -1.405343     -1.597918      1.117289
  H       0.438114      2.572133      1.107263
  H      -1.216000      3.144794      0.698478
  H       0.034629      3.050380     -0.588203
17
Coordinates from ORCA-job TMP_cation_cpcm_40_moread E -761.707613446261
  C       2.089168     -1.288611      0.155915
  O       1.368574     -0.033037      0.102386
  P       0.016259      0.200522     -0.732631
  O       0.596661      0.625267     -2.074097
  O      -0.835090     -1.090469     -0.849747
  C      -1.858853     -1.498741      0.133183
  O      -0.813494      1.246011      0.065259
  C      -0.332956      2.615032      0.341019
  H       3.148609     -1.036313      0.188595
  H       1.828729     -1.932089     -0.687924
  H       1.783673     -1.767488      1.098452
  H      -2.224129     -2.457061     -0.229304
  H      -2.653312     -0.751720      0.145743
  H      -1.390662     -1.598586      1.114465
  H       0.435484      2.560917      1.113680
  H      -1.210547      3.151223      0.695589
  H       0.051885      3.055142     -0.580583
17
Coordinates from ORCA-job TMP_cation_cpcm_40_moread E -761.707643352624
  C       2.082779     -1.289234      0.158381
  O       1.357315     -0.036318      0.104302
  P       0.013267      0.204043     -0.740894
  O       0.598492      0.628332     -2.081179
  O      -0.845220     -1.084740     -0.862781
  C      -1.855690     -1.500454      0.132575
  O      -0.818047      1.252788      0.052126
  C      -0.329224      2.615137      0.344418
  H       3.141643     -1.032620      0.177266
  H       1.812967     -1.939967     -0.676663
  H       1.791013     -1.761439      1.108578
  H      -2.198563     -2.472485     -0.214997
  H      -2.666226     -0.770881      0.135109
  H      -1.381821     -1.574578      1.113460
  H       0.436005      2.546886      1.119457
  H      -1.204503      3.153725      0.700697
  H       0.065812      3.061804     -0.569857
17
Coordinates from ORCA-job TMP_cation_cpcm_40_moread E -761.707653176429
  C       2.083978     -1.290679      0.158216
  O       1.356082     -0.039002      0.103821
  P       0.013986      0.203813     -0.741925
  O       0.597053      0.630770     -2.082838
  O      -0.845424     -1.085052     -0.864689
  C      -1.858163     -1.497909      0.130263
  O      -0.817756      1.252218      0.051347
  C      -0.328541      2.613345      0.347782
  H       3.142565     -1.031840      0.164233
  H       1.805728     -1.947211     -0.669337
  H       1.803641     -1.756268      1.114958
  H      -2.184910     -2.479966     -0.204412
  H      -2.677666     -0.778634      0.113544
  H      -1.391522     -1.549689      1.116019
  H       0.438610      2.542584      1.120758
  H      -1.203231      3.150395      0.707670
  H       0.065571      3.063124     -0.565409
17
Coordinates from ORCA-job TMP_cation_cpcm_40_moread E -761.707662143557
  C       2.084945     -1.292697      0.157743
  O       1.356524     -0.041082      0.102399
  P       0.015329      0.203521     -0.741916
  O       0.596360      0.633821     -2.083195
  O      -0.843935     -1.085213     -0.866206
  C      -1.860778     -1.494664      0.126312
  O      -0.817173      1.250843      0.051989
  C      -0.327956      2.610819      0.352491
  H       3.143570     -1.033678      0.142789
  H       1.792285     -1.957995     -0.657547
  H       1.821541     -1.746207      1.124805
  H      -2.166963     -2.488943     -0.191244
  H      -2.691297     -0.789204      0.083816
  H      -1.405784     -1.517658      1.118524
  H       0.441814      2.538418      1.122698
  H      -1.202064      3.145872      0.716682
  H       0.063584      3.064049     -0.560140
17
Coordinates from ORCA-job TMP_cation_cpcm_40_moread E -761.707667499665
  C       2.085273     -1.293481      0.157194
  O       1.357701     -0.040995      0.102010
  P       0.016050      0.203401     -0.740669
  O       0.597855      0.634576     -2.081621
  O      -0.842589     -1.084870     -0.866169
  C      -1.862530     -1.493422      0.123350
  O      -0.817286      1.250201      0.052958
  C      -0.327431      2.609398      0.355382
  H       3.144004     -1.035922      0.125372
  H       1.780829     -1.964747     -0.648708
  H       1.834928     -1.737556      1.131885
  H      -2.156423     -2.494423     -0.184574
  H      -2.699402     -0.796592      0.065328
  H      -1.416067     -1.500042      1.119598
  H       0.443240      2.536306      1.124556
  H      -1.201084      3.144123      0.721160
  H       0.062931      3.064046     -0.557050
17
Coordinates from ORCA-job TMP_cation_cpcm_40_moread E -761.707670915680
  C       2.085334     -1.293352      0.156636
  O       1.358285     -0.040093      0.103647
  P       0.016153      0.203386     -0.738668
  O       0.601058      0.633599     -2.078663
  O      -0.842155     -1.084121     -0.865485
  C      -1.863915     -1.493658      0.121272
  O      -0.818041      1.250411      0.053743
  C      -0.326848      2.609008      0.356641
  H       3.144044     -1.037291      0.111779
  H       1.771901     -1.968034     -0.642838
  H       1.845507     -1.731422      1.136546
  H      -2.151523     -2.497672     -0.182793
  H      -2.704110     -0.801456      0.055780
  H      -1.422764     -1.493108      1.119846
  H       0.443409      2.535409      1.126127
  H      -1.200017      3.144760      0.722146
  H       0.063681      3.063634     -0.555717
17
Coordinates from ORCA-job TMP_cation_cpcm_40_moread E -761.707672299929
  C       2.085433     -1.292969      0.156416
  O       1.357574     -0.039938      0.106264
  P       0.015882      0.203365     -0.737351
  O       0.603467      0.632473     -2.076479
  O      -0.842718     -1.083585     -0.865233
  C      -1.864735     -1.494306      0.120445
  O      -0.818691      1.250967      0.053970
  C      -0.326456      2.609343      0.356529
  H       3.143942     -1.036915      0.105911
  H       1.768451     -1.968492     -0.640876
  H       1.851135     -1.729736      1.138214
  H      -2.151419     -2.498497     -0.183923
  H      -2.705601     -0.802938      0.054466
  H      -1.424710     -1.493653      1.119512
  H       0.443059      2.535351      1.126707
  H      -1.199322      3.146148      0.721263
  H       0.064709      3.063380     -0.555834
17
Coordinates from ORCA-job TMP_cation_cpcm_40_moread E -761.707673338548
  C       2.085262     -1.292378      0.156406
  O       1.354441     -0.040553      0.113236
  P       0.015004      0.203537     -0.734620
  O       0.609816      0.630709     -2.071340
  O      -0.844796     -1.081716     -0.866357
  C      -1.867086     -1.495790      0.117079
  O      -0.820451      1.252820      0.053582
  C      -0.324978      2.610065      0.357340
  H       3.142581     -1.035925      0.083406
  H       1.754203     -1.973704     -0.629916
  H       1.872524     -1.721250      1.146446
  H      -2.147320     -2.502475     -0.185161
  H      -2.711978     -0.809711      0.046419
  H      -1.431030     -1.489972      1.117880
  H       0.442286      2.533585      1.129477
  H      -1.197045      3.149348      0.720415
  H       0.068566      3.063411     -0.554292
17
Coordinates from ORCA-job TMP_cation_cpcm_40_moread E -761.707674876206
  C       2.086080     -1.292112      0.156528
  O       1.354467     -0.040981      0.113141
  P       0.015103      0.203169     -0.734967
  O       0.608618      0.630525     -2.072126
  O      -0.844472     -1.082667     -0.865739
  C      -1.867280     -1.495460      0.117838
  O      -0.820048      1.252176      0.053833
  C      -0.325455      2.609972      0.356660
  H       3.143429     -1.034542      0.088020
  H       1.758289     -1.972189     -0.632288
  H       1.870052     -1.723535      1.144797
  H      -2.152136     -2.499919     -0.187446
  H      -2.709365     -0.805606      0.050973
  H      -1.429234     -1.494809      1.117788
  H       0.441758      2.534318      1.128939
  H      -1.197957      3.148861      0.719253
  H       0.068150      3.062800     -0.555204
17
Coordinates from ORCA-job TMP_cation_cpcm_40_moread E -761.707676766568
  C       2.087357     -1.291547      0.157013
  O       1.353482     -0.042202      0.114858
  P       0.015211      0.202555     -0.735207
  O       0.608496      0.629931     -2.072310
  O      -0.844106     -1.083971     -0.865512
  C      -1.868141     -1.494897      0.117708
  O      -0.819836      1.251235      0.053847
  C      -0.326167      2.609613      0.356099
  H       3.144195     -1.032069      0.086209
  H       1.758821     -1.972956     -0.630323
  H       1.875044     -1.722699      1.146266
  H      -2.159951     -2.495858     -0.192410
  H      -2.705902     -0.799351      0.056297
  H      -1.427643     -1.502247      1.116555
  H       0.439914      2.534636      1.129562
  H      -1.199508      3.148274      0.716977
  H       0.068732      3.061555     -0.555630
17
Coordinates from ORCA-job TMP_cation_cpcm_40_moread E -761.707677922505
  C       2.087763     -1.291282      0.157663
  O       1.352327     -0.043174      0.116536
  P       0.015262      0.202361     -0.735447
  O       0.610001      0.629636     -2.071874
  O      -0.843980     -1.084302     -0.866387
  C      -1.868808     -1.494568      0.116399
  O      -0.820108      1.250888      0.053141
  C      -0.326603      2.609179      0.356529
  H       3.143844     -1.031181      0.076332
  H       1.752788     -1.977082     -0.623028
  H       1.885678     -1.717148      1.151351
  H      -2.163623     -2.493901     -0.196091
  H      -2.704604     -0.796488      0.057248
  H      -1.427494     -1.505604      1.114843
  H       0.437819      2.533787      1.131564
  H      -1.200615      3.147947      0.715601
  H       0.070354      3.060931     -0.554380
17
Coordinates from ORCA-job TMP_cation_cpcm_40_moread E -761.707679161916
  C       2.087792     -1.291076      0.158838
  O       1.350823     -0.044206      0.118461
  P       0.015367      0.202367     -0.735947
  O       0.613083      0.629420     -2.071070
  O      -0.843867     -1.084108     -0.868449
  C      -1.869730     -1.494200      0.113516
  O      -0.820795      1.250711      0.051639
  C      -0.327059      2.608325      0.358060
  H       3.142315     -1.031431      0.055560
  H       1.738978     -1.985839     -0.607549
  H       1.905711     -1.704754      1.161462
  H      -2.165813     -2.492670     -0.200511
  H      -2.704435     -0.794791      0.054930
  H      -1.428620     -1.507177      1.112006
  H       0.434647      2.531502      1.135583
  H      -1.201899      3.147458      0.714532
  H       0.073502      3.060468     -0.551059
17
Coordinates from ORCA-job TMP_cation_cpcm_40_moread E -761.707679588823
  C       2.087324     -1.291141      0.159540
  O       1.350605     -0.044180      0.118201
  P       0.015461      0.202591     -0.736551
  O       0.614199      0.629678     -2.071175
  O      -0.843904     -1.083572     -0.869855
  C      -1.869736     -1.494155      0.112040
  O      -0.821098      1.250838      0.050747
  C      -0.327163      2.607875      0.359119
  H       3.141157     -1.032788      0.045568
  H       1.731495     -1.990444     -0.599369
  H       1.914213     -1.697899      1.166532
  H      -2.164787     -2.493053     -0.201596
  H      -2.704979     -0.795457      0.052663
  H      -1.429044     -1.506231      1.110718
  H       0.433512      2.530076      1.137553
  H      -1.202213      3.147155      0.714835
  H       0.074958      3.060707     -0.548972
17
Coordinates from ORCA-job TMP_cation_cpcm_40_moread E -761.707679757099
  C       2.087055     -1.291179      0.159913
  O       1.350814     -0.043903      0.117519
  P       0.015522      0.202725     -0.736966
  O       0.614309      0.629879     -2.071497
  O      -0.844061     -1.083180     -0.870513
  C      -1.869610     -1.494254      0.111514
  O      -0.821144      1.250963      0.050422
  C      -0.327178      2.607710      0.359540
  H       3.140731     -1.033717      0.042377
  H       1.728778     -1.992142     -0.596276
  H       1.916554     -1.695121      1.168457
  H      -2.164116     -2.493359     -0.201981
  H      -2.705214     -0.795996      0.052052
  H      -1.428925     -1.506004      1.110202
  H       0.433229      2.529535      1.138220
  H      -1.202227      3.147076      0.715136
  H       0.075483      3.060967     -0.548118
