17
Coordinates from ORCA-job TMP_cation_cpcm_1000_moread E -761.709798373737
  C           2.08237145884349     -1.29155212979096      0.16189406535851
  O           1.35170316836214     -0.04214330360765      0.11154336454324
  P           0.01510356860746      0.20467280524108     -0.74192826855439
  O           0.61150551646707      0.63329201142356     -2.07633088404469
  O          -0.84414182685271     -1.08162945121777     -0.87441690440159
  C          -1.86408973794146     -1.49530326674974      0.11254289883416
  O          -0.82092849153282      1.25179759976259      0.04786629946338
  C          -0.32719224068768      2.60791423777431      0.35917563485523
  H           3.13793963843489     -1.03837599964326      0.05260783892111
  H           1.72671113676445     -1.99304384240102     -0.59511848185346
  H           1.90202476783269     -1.69318302250834      1.16998168687875
  H          -2.15904319064618     -2.49432343577786     -0.20077359358828
  H          -2.70066768997585     -0.79779480993053      0.05851517072766
  H          -1.41784599548426     -1.50803630692825      1.10875643816924
  H           0.43531974758940      2.52837550383060      1.13566746843890
  H          -1.20173022701149      3.14570723878989      0.71837729491465
  H           0.07296038723087      3.06362618173319     -0.54836003866248
