17
Coordinates from ORCA-job TMP_cation_cpcm_80_moread E -761.682746919588
  C       2.322150     -1.110107     -0.121247
  O       1.446904     -0.246841      0.586848
  P      -0.001093      0.003392     -0.032977
  O      -0.049654      0.153953     -1.490261
  O      -0.851133     -1.206662      0.564270
  C      -2.124125     -1.458547     -0.009074
  O      -0.530506      1.251111      0.807508
  C      -0.191013      2.546951      0.340395
  H       3.337969     -0.827674      0.154216
  H       2.176116     -0.993877     -1.196468
  H       2.136428     -2.148361      0.159357
  H      -2.350663     -2.509116      0.170324
  H      -2.100650     -1.254852     -1.080809
  H      -2.881254     -0.829776      0.462504
  H       0.789643      2.839662      0.719716
  H      -0.952799      3.229495      0.716423
  H      -0.176319      2.561249     -0.750724
17
Coordinates from ORCA-job TMP_cation_cpcm_80_moread E -761.691400007019
  C       2.378357     -1.165805     -0.099472
  O       1.484553     -0.213942      0.509796
  P       0.026379      0.032672     -0.096176
  O      -0.021477      0.230859     -1.560892
  O      -0.814885     -1.207324      0.459579
  C      -2.156338     -1.460815     -0.014561
  O      -0.518343      1.248236      0.785910
  C      -0.235736      2.585476      0.351634
  H       3.390519     -0.868012      0.174132
  H       2.256838     -1.167854     -1.187062
  H       2.168864     -2.174742      0.285261
  H      -2.345561     -2.523472      0.141928
  H      -2.255134     -1.209634     -1.072282
  H      -2.875251     -0.871079      0.569672
  H       0.762110      2.880306      0.712471
  H      -0.997861      3.232634      0.785790
  H      -0.247035      2.652495     -0.745727
17
Coordinates from ORCA-job TMP_cation_cpcm_80_moread E -761.696464194663
  C       2.402083     -1.212536     -0.075620
  O       1.507991     -0.183616      0.428880
  P       0.042797      0.058932     -0.154252
  O       0.006635      0.294849     -1.630316
  O      -0.780377     -1.208058      0.352341
  C      -2.169906     -1.468499     -0.018557
  O      -0.506931      1.248145      0.757012
  C      -0.263513      2.619953      0.360648
  H       3.411274     -0.892511      0.177602
  H       2.275670     -1.331234     -1.157713
  H       2.165794     -2.167740      0.417112
  H      -2.311980     -2.542280      0.095376
  H      -2.369263     -1.155410     -1.045752
  H      -2.830763     -0.928373      0.670595
  H       0.740255      2.908428      0.712305
  H      -1.026672      3.229041      0.842645
  H      -0.293096      2.730909     -0.732303
17
Coordinates from ORCA-job TMP_cation_cpcm_80_moread E -761.701015097483
  C       2.405139     -1.267012     -0.037873
  O       1.534820     -0.148110      0.317987
  P       0.062711      0.088532     -0.230886
  O       0.057026      0.376700     -1.717196
  O      -0.728872     -1.210644      0.196190
  C      -2.164381     -1.468126     -0.018379
  O      -0.495722      1.239535      0.708396
  C      -0.295108      2.648673      0.368865
  H       3.418503     -0.924949      0.158303
  H       2.246782     -1.541967     -1.086394
  H       2.138406     -2.120824      0.600432
  H      -2.260773     -2.551561     -0.003919
  H      -2.490333     -1.047360     -0.971428
  H      -2.716006     -1.015285      0.810618
  H       0.705284      2.936394      0.718997
  H      -1.067860      3.200176      0.900057
  H      -0.349617      2.805827     -0.713769
17
Coordinates from ORCA-job TMP_cation_cpcm_80_moread E -761.703740612524
  C       2.391979     -1.308060      0.002185
  O       1.558749     -0.124860      0.218226
  P       0.082894      0.105848     -0.304678
  O       0.127806      0.451827     -1.790699
  O      -0.680959     -1.217184      0.029870
  C      -2.140279     -1.449964     -0.006632
  O      -0.496475      1.216643      0.648790
  C      -0.329113      2.652555      0.368703
  H       3.415045     -0.966079      0.136275
  H       2.199566     -1.714745     -0.995539
  H       2.102842     -2.048315      0.758432
  H      -2.241408     -2.525128     -0.133753
  H      -2.580938     -0.896216     -0.837171
  H      -2.546492     -1.115235      0.949714
  H       0.658591      2.947956      0.734282
  H      -1.121195      3.147058      0.926298
  H      -0.400613      2.843899     -0.704301
17
Coordinates from ORCA-job TMP_cation_cpcm_80_moread E -761.705034674935
  C       2.374525     -1.325957      0.027040
  O       1.573740     -0.112087      0.161676
  P       0.096500      0.109999     -0.354756
  O       0.197712      0.498891     -1.830907
  O      -0.652624     -1.226269     -0.092257
  C      -2.111190     -1.427353      0.010787
  O      -0.515976      1.192606      0.594926
  C      -0.356882      2.640199      0.363596
  H       3.407605     -1.000794      0.121994
  H       2.161511     -1.803759     -0.933316
  H       2.077098     -1.992540      0.845042
  H      -2.259777     -2.478963     -0.222532
  H      -2.617718     -0.776291     -0.703349
  H      -2.399417     -1.191966      1.036465
  H       0.613917      2.937824      0.765307
  H      -1.172723      3.102347      0.915058
  H      -0.416300      2.854115     -0.704775
17
Coordinates from ORCA-job TMP_cation_cpcm_80_moread E -761.705980786377
  C       2.356566     -1.333171      0.045303
  O       1.582054     -0.101825      0.121391
  P       0.105354      0.108120     -0.406138
  O       0.285896      0.536014     -1.864108
  O      -0.639061     -1.236929     -0.215332
  C      -2.080438     -1.402937      0.037213
  O      -0.557938      1.166043      0.524231
  C      -0.384709      2.620570      0.355057
  H       3.398249     -1.028762      0.117502
  H       2.135629     -1.859945     -0.886764
  H       2.055102     -1.946853      0.902297
  H      -2.306118     -2.416478     -0.286421
  H      -2.637462     -0.664170     -0.541745
  H      -2.244375     -1.273316      1.107837
  H       0.557995      2.904819      0.824935
  H      -1.233631      3.062890      0.872342
  H      -0.393113      2.865931     -0.707598
17
Coordinates from ORCA-job TMP_cation_cpcm_80_moread E -761.706530036591
  C       2.336481     -1.330707      0.057217
  O       1.576876     -0.091585      0.097065
  P       0.105003      0.107024     -0.460053
  O       0.377903      0.559667     -1.895847
  O      -0.644293     -1.241969     -0.328947
  C      -2.053754     -1.390559      0.067615
  O      -0.614597      1.148288      0.438872
  C      -0.402827      2.604798      0.347241
  H       3.383136     -1.041053      0.124098
  H       2.118431     -1.885576     -0.859061
  H       2.029515     -1.915286      0.933068
  H      -2.353640     -2.365872     -0.309606
  H      -2.648486     -0.594035     -0.383268
  H      -2.101575     -1.350407      1.156639
  H       0.501473      2.850646      0.905200
  H      -1.283827      3.043661      0.811407
  H      -0.325820      2.892966     -0.701639
17
Coordinates from ORCA-job TMP_cation_cpcm_80_moread E -761.706894263859
  C       2.318537     -1.322836      0.064332
  O       1.560133     -0.083446      0.092334
  P       0.098191      0.109309     -0.506464
  O       0.457424      0.567138     -1.921981
  O      -0.664876     -1.238104     -0.418321
  C      -2.037229     -1.391105      0.095260
  O      -0.667640      1.144586      0.357796
  C      -0.409156      2.596866      0.340723
  H       3.365791     -1.036738      0.139484
  H       2.109625     -1.884044     -0.850338
  H       2.004298     -1.903203      0.941118
  H      -2.385675     -2.340954     -0.304941
  H      -2.659836     -0.567223     -0.256676
  H      -1.991621     -1.412027      1.185081
  H       0.455497      2.792609      0.976032
  H      -1.310551      3.045811      0.753085
  H      -0.242914      2.923360     -0.686525
17
Coordinates from ORCA-job TMP_cation_cpcm_80_moread E -761.707199248602
  C       2.280899     -1.307714      0.076995
  O       1.521115     -0.068481      0.093040
  P       0.079993      0.121835     -0.573695
  O       0.552150      0.568633     -1.960283
  O      -0.707271     -1.217902     -0.537306
  C      -2.009671     -1.408458      0.130333
  O      -0.735489      1.158602      0.240994
  C      -0.404666      2.594095      0.333308
  H       3.327299     -1.022523      0.166917
  H       2.083634     -1.872107     -0.838479
  H       1.954045     -1.887134      0.950527
  H      -2.405432     -2.332006     -0.287448
  H      -2.667964     -0.567621     -0.088523
  H      -1.834258     -1.503043      1.203209
  H       0.399733      2.706668      1.061650
  H      -1.319636      3.070539      0.679058
  H      -0.114480      2.966616     -0.650296
17
Coordinates from ORCA-job TMP_cation_cpcm_80_moread E -761.707476305023
  C       2.262836     -1.294386      0.084554
  O       1.496026     -0.058501      0.100969
  P       0.067011      0.129705     -0.600956
  O       0.569681      0.561834     -1.980932
  O      -0.731960     -1.205578     -0.580698
  C      -2.003336     -1.424284      0.139015
  O      -0.758946      1.170424      0.201405
  C      -0.389904      2.593384      0.333651
  H       3.306922     -1.002898      0.180033
  H       2.069124     -1.857436     -0.832462
  H       1.933742     -1.877804      0.954779
  H      -2.395649     -2.352312     -0.271842
  H      -2.683013     -0.593230     -0.048239
  H      -1.782834     -1.523964      1.203200
  H       0.397220      2.667326      1.085786
  H      -1.300210      3.089273      0.663462
  H      -0.056709      2.978446     -0.631726
17
Coordinates from ORCA-job TMP_cation_cpcm_80_moread E -761.708112818671
  C       2.186745     -1.262827      0.117432
  O       1.420208     -0.024993      0.111632
  P       0.027633      0.163648     -0.678464
  O       0.591071      0.558329     -2.042798
  O      -0.801225     -1.153871     -0.710149
  C      -1.958278     -1.477664      0.151603
  O      -0.809079      1.214150      0.107450
  C      -0.343224      2.596069      0.335970
  H       3.230065     -0.967867      0.209741
  H       1.984513     -1.845024     -0.785331
  H       1.852023     -1.826063      0.999323
  H      -2.333710     -2.415382     -0.252151
  H      -2.697786     -0.681154      0.072427
  H      -1.602989     -1.596543      1.176710
  H       0.411510      2.573208      1.124045
  H      -1.230126      3.141300      0.649952
  H       0.072648      3.004686     -0.587393
17
Coordinates from ORCA-job TMP_cation_cpcm_80_moread E -761.708363749819
  C       2.136901     -1.256683      0.139116
  O       1.386997     -0.010197      0.107402
  P       0.010908      0.183998     -0.713634
  O       0.587704      0.569411     -2.072063
  O      -0.828722     -1.121866     -0.775747
  C      -1.917757     -1.502226      0.147875
  O      -0.822368      1.236012      0.075890
  C      -0.323494      2.600718      0.338892
  H       3.185357     -0.973639      0.211438
  H       1.913560     -1.865160     -0.740827
  H       1.804942     -1.785483      1.043617
  H      -2.285805     -2.444216     -0.252330
  H      -2.683786     -0.727065      0.126371
  H      -1.497761     -1.627009      1.147490
  H       0.428069      2.544150      1.128209
  H      -1.198632      3.159197      0.662509
  H       0.103888      3.020058     -0.574207
17
Coordinates from ORCA-job TMP_cation_cpcm_80_moread E -761.708561304507
  C       2.107368     -1.266026      0.152541
  O       1.377404     -0.011678      0.100366
  P       0.009681      0.193903     -0.726877
  O       0.576815      0.593633     -2.082169
  O      -0.830464     -1.105014     -0.813911
  C      -1.885553     -1.506282      0.137201
  O      -0.817052      1.239125      0.077660
  C      -0.320897      2.605041      0.341597
  H       3.162193     -1.000730      0.204257
  H       1.863073     -1.897090     -0.705515
  H       1.782481     -1.761779      1.078811
  H      -2.252464     -2.453994     -0.250264
  H      -2.664679     -0.743444      0.137024
  H      -1.438740     -1.623728      1.126020
  H       0.445738      2.550317      1.116054
  H      -1.193366      3.155041      0.687017
  H       0.078463      3.032706     -0.579812
17
Coordinates from ORCA-job TMP_cation_cpcm_80_moread E -761.708636682452
  C       2.066947     -1.276778      0.163913
  O       1.359660     -0.013539      0.093860
  P       0.004250      0.209407     -0.746783
  O       0.595431      0.615654     -2.088450
  O      -0.848123     -1.078073     -0.861854
  C      -1.842554     -1.517285      0.136557
  O      -0.823599      1.258449      0.048773
  C      -0.321218      2.616842      0.339917
  H       3.128080     -1.033384      0.202143
  H       1.805063     -1.924414     -0.676389
  H       1.745445     -1.744383      1.106718
  H      -2.219608     -2.462330     -0.247845
  H      -2.633089     -0.768659      0.196611
  H      -1.343583     -1.649474      1.098428
  H       0.434706      2.545458      1.123212
  H      -1.194179      3.167275      0.683843
  H       0.086371      3.055235     -0.572652
17
Coordinates from ORCA-job TMP_cation_cpcm_80_moread E -761.708675542399
  C       2.093690     -1.291790      0.154752
  O       1.378390     -0.034183      0.098565
  P       0.020906      0.197794     -0.727386
  O       0.590791      0.629394     -2.070239
  O      -0.824352     -1.095309     -0.842261
  C      -1.859263     -1.493823      0.131806
  O      -0.806606      1.238342      0.078633
  C      -0.337652      2.614196      0.339713
  H       3.153899     -1.043994      0.196068
  H       1.838196     -1.932832     -0.692641
  H       1.778917     -1.771647      1.093942
  H      -2.235273     -2.446821     -0.233711
  H      -2.645160     -0.737656      0.142120
  H      -1.398593     -1.601186      1.115845
  H       0.438368      2.574349      1.105429
  H      -1.217393      3.143850      0.699070
  H       0.031133      3.051315     -0.589703
17
Coordinates from ORCA-job TMP_cation_cpcm_80_moread E -761.708712852926
  C       2.087504     -1.288218      0.156750
  O       1.369473     -0.031516      0.099829
  P       0.015957      0.201286     -0.734351
  O       0.594726      0.626142     -2.076147
  O      -0.834725     -1.090157     -0.850113
  C      -1.856714     -1.499829      0.134131
  O      -0.813213      1.246153      0.065129
  C      -0.332885      2.615262      0.340330
  H       3.147102     -1.037637      0.195113
  H       1.829915     -1.931010     -0.688557
  H       1.775601     -1.767194      1.097265
  H      -2.225133     -2.455872     -0.231150
  H      -2.649250     -0.750906      0.152006
  H      -1.385513     -1.604600      1.113448
  H       0.435687      2.561517      1.112884
  H      -1.210528      3.151435      0.694793
  H       0.051993      3.055144     -0.581361
17
Coordinates from ORCA-job TMP_cation_cpcm_80_moread E -761.708741461512
  C       2.081247     -1.288340      0.159065
  O       1.359144     -0.033850      0.101354
  P       0.012855      0.204694     -0.742087
  O       0.596707      0.628419     -2.082700
  O      -0.844462     -1.084674     -0.862023
  C      -1.853493     -1.502016      0.133918
  O      -0.817840      1.252827      0.052464
  C      -0.329243      2.615522      0.343177
  H       3.140431     -1.034126      0.185951
  H       1.815745     -1.937347     -0.678800
  H       1.780746     -1.761649      1.106122
  H      -2.202612     -2.469872     -0.219025
  H      -2.660244     -0.768365      0.144715
  H      -1.376001     -1.585239      1.112299
  H       0.435751      2.548291      1.118508
  H      -1.204657      3.154500      0.698559
  H       0.065925      3.061225     -0.571498
17
Coordinates from ORCA-job TMP_cation_cpcm_80_moread E -761.708754079913
  C       2.081588     -1.290234      0.159136
  O       1.356557     -0.037373      0.101076
  P       0.013395      0.204866     -0.744112
  O       0.595556      0.631694     -2.085043
  O      -0.845822     -1.084255     -0.865848
  C      -1.855255     -1.499354      0.131527
  O      -0.817933      1.253018      0.050121
  C      -0.328374      2.613834      0.346883
  H       3.140548     -1.033443      0.172185
  H       1.806949     -1.945727     -0.670524
  H       1.793784     -1.756442      1.113527
  H      -2.185470     -2.479192     -0.206225
  H      -2.673242     -0.778251      0.121741
  H      -1.384179     -1.556596      1.114873
  H       0.438432      2.542588      1.120170
  H      -1.202973      3.151214      0.706504
  H       0.066438      3.063654     -0.565991
17
Coordinates from ORCA-job TMP_cation_cpcm_80_moread E -761.708763101303
  C       2.082375     -1.292493      0.158673
  O       1.356467     -0.040037      0.099827
  P       0.014729      0.204595     -0.744491
  O       0.594859      0.635046     -2.085642
  O      -0.844731     -1.084319     -0.868040
  C      -1.857432     -1.495905      0.127894
  O      -0.817325      1.251809      0.050269
  C      -0.327952      2.611504      0.351347
  H       3.141457     -1.035223      0.152972
  H       1.794880     -1.956053     -0.659970
  H       1.810105     -1.747967      1.122586
  H      -2.167441     -2.488053     -0.192588
  H      -2.686657     -0.788517      0.093230
  H      -1.396992     -1.524491      1.117469
  H       0.441568      2.538400      1.121767
  H      -1.201977      3.146638      0.715614
  H       0.064064      3.065066     -0.560916
17
Coordinates from ORCA-job TMP_cation_cpcm_80_moread E -761.708769001834
  C       2.082728     -1.293629      0.158090
  O       1.357653     -0.040412      0.099230
  P       0.015643      0.204410     -0.743390
  O       0.596061      0.636265     -2.084253
  O      -0.843195     -1.084058     -0.868274
  C      -1.859015     -1.494220      0.124922
  O      -0.817167      1.250930      0.051355
  C      -0.327617      2.610021      0.354322
  H       3.142048     -1.037716      0.136262
  H       1.783919     -1.963069     -0.651525
  H       1.822991     -1.739919      1.129541
  H      -2.156249     -2.493599     -0.185046
  H      -2.695010     -0.795796      0.073897
  H      -1.407248     -1.505272      1.118774
  H       0.443280      2.536462      1.123255
  H      -1.201250      3.144315      0.720783
  H       0.062427      3.065286     -0.557941
17
Coordinates from ORCA-job TMP_cation_cpcm_80_moread E -761.708773183794
  C       2.083085     -1.293640      0.157376
  O       1.358734     -0.039473      0.100427
  P       0.015959      0.204258     -0.741191
  O       0.599074      0.635390     -2.081280
  O      -0.842222     -1.083510     -0.867248
  C      -1.860879     -1.494016      0.122412
  O      -0.817733      1.250732      0.052598
  C      -0.326974      2.609231      0.356153
  H       3.142483     -1.039366      0.120513
  H       1.773842     -1.967274     -0.644689
  H       1.835218     -1.732645      1.135058
  H      -2.149577     -2.497680     -0.181760
  H      -2.701213     -0.801655      0.060522
  H      -1.416298     -1.494648      1.119483
  H       0.444047      2.535318      1.124851
  H      -1.200066      3.144213      0.722967
  H       0.062520      3.064764     -0.556194
17
Coordinates from ORCA-job TMP_cation_cpcm_80_moread E -761.708774715444
  C       2.083288     -1.293130      0.157092
  O       1.358288     -0.039007      0.102798
  P       0.015665      0.204223     -0.739770
  O       0.601456      0.634053     -2.079115
  O      -0.842641     -1.083038     -0.866673
  C      -1.861980     -1.494703      0.121484
  O      -0.818413      1.251233      0.052946
  C      -0.326437      2.609425      0.356246
  H       3.142523     -1.038976      0.113866
  H       1.769933     -1.967815     -0.642421
  H       1.841266     -1.730372      1.136976
  H      -2.148895     -2.498926     -0.182556
  H      -2.703297     -0.803658      0.057960
  H      -1.419237     -1.494274      1.119360
  H       0.443935      2.535048      1.125529
  H      -1.199152      3.145522      0.722373
  H       0.063696      3.064394     -0.556095
17
Coordinates from ORCA-job TMP_cation_cpcm_80_moread E -761.708776140670
  C       2.083747     -1.292460      0.156946
  O       1.356914     -0.039141      0.106518
  P       0.015184      0.204094     -0.738260
  O       0.604166      0.632496     -2.076648
  O      -0.843560     -1.082660     -0.866317
  C      -1.863396     -1.495538      0.120539
  O      -0.819154      1.251886      0.053178
  C      -0.325862      2.609878      0.355955
  H       3.142571     -1.037489      0.107032
  H       1.766443     -1.968161     -0.640066
  H       1.848822     -1.728661      1.138996
  H      -2.150009     -2.499483     -0.184729
  H      -2.704940     -0.804722      0.057258
  H      -1.421489     -1.496156      1.118792
  H       0.443555      2.534917      1.126129
  H      -1.198245      3.147239      0.721060
  H       0.065254      3.063961     -0.556383
17
Coordinates from ORCA-job TMP_cation_cpcm_80_moread E -761.708777605355
  C       2.084226     -1.291903      0.157105
  O       1.354708     -0.040052      0.111050
  P       0.014694      0.203951     -0.736970
  O       0.607288      0.631266     -2.074119
  O      -0.844658     -1.082291     -0.866730
  C      -1.864976     -1.496152      0.119029
  O      -0.819929      1.252521      0.053035
  C      -0.325351      2.610249      0.355897
  H       3.142312     -1.035570      0.096592
  H       1.760648     -1.970314     -0.634944
  H       1.860457     -1.725242      1.143000
  H      -2.151424     -2.499784     -0.187453
  H      -2.706670     -0.805469      0.056108
  H      -1.423671     -1.497852      1.117555
  H       0.442751      2.534358      1.127274
  H      -1.197581      3.148720      0.719756
  H       0.067177      3.063563     -0.556185
17
Coordinates from ORCA-job TMP_cation_cpcm_80_moread E -761.708779206407
  C       2.084756     -1.291501      0.157697
  O       1.352356     -0.041510      0.115210
  P       0.014404      0.203745     -0.736280
  O       0.610273      0.630567     -2.072148
  O      -0.845351     -1.082203     -0.867781
  C      -1.866448     -1.496285      0.117054
  O      -0.820552      1.252743      0.052500
  C      -0.325244      2.610261      0.356209
  H       3.141794     -1.033761      0.082933
  H       1.752634     -1.974744     -0.626479
  H       1.875478     -1.719331      1.149149
  H      -2.154150     -2.499004     -0.191256
  H      -2.707343     -0.804527      0.055280
  H      -1.425194     -1.500289      1.115592
  H       0.441132      2.533420      1.129178
  H      -1.197771      3.149374      0.718402
  H       0.069226      3.063044     -0.555261
17
Coordinates from ORCA-job TMP_cation_cpcm_80_moread E -761.708780783134
  C       2.084866     -1.291436      0.158805
  O       1.350788     -0.042861      0.117062
  P       0.014489      0.203680     -0.736819
  O       0.612235      0.630843     -2.071739
  O      -0.845272     -1.082281     -0.869588
  C      -1.867015     -1.495870      0.114976
  O      -0.820884      1.252484      0.051346
  C      -0.325729      2.609755      0.357074
  H       3.140823     -1.033398      0.068351
  H       1.742977     -1.981299     -0.615182
  H       1.890433     -1.710870      1.156835
  H      -2.157280     -2.497199     -0.195432
  H      -2.706252     -0.801956      0.055200
  H      -1.424959     -1.503076      1.113129
  H       0.438707      2.532016      1.131829
  H      -1.199056      3.148791      0.717413
  H       0.071127      3.062679     -0.553259
17
Coordinates from ORCA-job TMP_cation_cpcm_80_moread E -761.708781798227
  C       2.085009     -1.291354      0.160022
  O       1.350370     -0.043559      0.116946
  P       0.014895      0.203571     -0.737997
  O       0.613225      0.631197     -2.072420
  O      -0.844545     -1.082601     -0.871230
  C      -1.867308     -1.495094      0.113002
  O      -0.821073      1.251761      0.050093
  C      -0.326553      2.608673      0.358341
  H       3.139909     -1.034082      0.054277
  H       1.733379     -1.988272     -0.603088
  H       1.904105     -1.701076      1.164584
  H      -2.160487     -2.494960     -0.199332
  H      -2.704448     -0.798555      0.054849
  H      -1.424618     -1.505462      1.110828
  H       0.436005      2.530216      1.134863
  H      -1.200831      3.147401      0.716797
  H       0.072968      3.062197     -0.550534
17
Coordinates from ORCA-job TMP_cation_cpcm_80_moread E -761.708782178318
  C       2.084709     -1.291389      0.160711
  O       1.350827     -0.043322      0.115400
  P       0.015172      0.203679     -0.739098
  O       0.613083      0.631582     -2.073508
  O      -0.844167     -1.082518     -0.872236
  C      -1.866879     -1.494808      0.112299
  O      -0.821084      1.251475      0.049269
  C      -0.327036      2.608067      0.359052
  H       3.139379     -1.035403      0.049208
  H       1.729108     -1.991502     -0.597579
  H       1.908093     -1.696131      1.168049
  H      -2.161444     -2.493987     -0.200898
  H      -2.703116     -0.797105      0.055379
  H      -1.423445     -1.506744      1.109770
  H       0.434704      2.529250      1.136351
  H      -1.201742      3.146597      0.716743
  H       0.073838      3.062259     -0.548911
17
Coordinates from ORCA-job TMP_cation_cpcm_80_moread E -761.708782364675
  C       2.084608     -1.291328      0.161116
  O       1.351296     -0.042935      0.114230
  P       0.015326      0.203736     -0.739732
  O       0.612849      0.631668     -2.074198
  O      -0.844110     -1.082353     -0.872738
  C      -1.866762     -1.494786      0.111867
  O      -0.821065      1.251377      0.048910
  C      -0.327226      2.607704      0.359478
  H       3.139181     -1.036298      0.046381
  H       1.726754     -1.993286     -0.594381
  H       1.910188     -1.692988      1.170068
  H      -2.161888     -2.493625     -0.201874
  H      -2.702627     -0.796593      0.055632
  H      -1.422999     -1.507587      1.109181
  H       0.434059      2.528681      1.137226
  H      -1.202073      3.146281      0.716752
  H       0.074490      3.062332     -0.547917
