17
Coordinates from ORCA-job TMP_cation_cpcm_28_moread E -761.706736140928
  C           2.08912936998963     -1.29099162791230      0.15935710494210
  O           1.35055468590373     -0.04475554030578      0.11983280742264
  P           0.01581289950257      0.20184641801883     -0.73509673335664
  O           0.61530567400709      0.62867110607779     -2.06973828369962
  O          -0.84377092949047     -1.08402214657800     -0.86891507840385
  C          -1.87196108809865     -1.49368171871916      0.11088299624666
  O          -0.82115366693338      1.25040244515034      0.05140432936371
  C          -0.32735327317808      2.60749146756664      0.35976270225804
  H           3.14186071469740     -1.03184504369132      0.03683639186723
  H           1.72883754103588     -1.99260016159284     -0.59524328780228
  H           1.92405988223679     -1.69480559138308      1.16871912716623
  H          -2.16734942495106     -2.49226598934298     -0.20344001718356
  H          -2.70641068312389     -0.79417760519611      0.04988070636171
  H          -1.43335645234688     -1.50626580935126      1.11046871517928
  H           0.43211776376196      2.52996339249418      1.13941381369403
  H          -1.20279057036495      3.14727993065482      0.71375113027187
  H           0.07646754735233      3.05975648411003     -0.54787643432763
