17
Coordinates from ORCA-job TMP_cation_cpcm_20_moread E -761.679565359439
  C       2.322150     -1.110107     -0.121247
  O       1.446904     -0.246841      0.586848
  P      -0.001093      0.003392     -0.032977
  O      -0.049654      0.153953     -1.490261
  O      -0.851133     -1.206662      0.564270
  C      -2.124125     -1.458547     -0.009074
  O      -0.530506      1.251111      0.807508
  C      -0.191013      2.546951      0.340395
  H       3.337969     -0.827674      0.154216
  H       2.176116     -0.993877     -1.196468
  H       2.136428     -2.148361      0.159357
  H      -2.350663     -2.509116      0.170324
  H      -2.100650     -1.254852     -1.080809
  H      -2.881254     -0.829776      0.462504
  H       0.789643      2.839662      0.719716
  H      -0.952799      3.229495      0.716423
  H      -0.176319      2.561249     -0.750724
17
Coordinates from ORCA-job TMP_cation_cpcm_20_moread E -761.688249277522
  C       2.378505     -1.165851     -0.099533
  O       1.484537     -0.214014      0.509819
  P       0.026331      0.032671     -0.096019
  O      -0.021432      0.230801     -1.560783
  O      -0.815007     -1.207352      0.459540
  C      -2.156572     -1.460925     -0.014551
  O      -0.518426      1.248331      0.785875
  C      -0.235622      2.585625      0.351623
  H       3.390659     -0.867958      0.174015
  H       2.257055     -1.167897     -1.187151
  H       2.169249     -2.174794      0.285233
  H      -2.345741     -2.523601      0.141844
  H      -2.255512     -1.209707     -1.072278
  H      -2.875523     -0.871364      0.569814
  H       0.762044      2.880566      0.712799
  H      -0.997865      3.232825      0.785531
  H      -0.246679      2.652645     -0.745775
17
Coordinates from ORCA-job TMP_cation_cpcm_20_moread E -761.693327084134
  C       2.402393     -1.212605     -0.075774
  O       1.507943     -0.183828      0.429009
  P       0.042736      0.058816     -0.153876
  O       0.006904      0.294471     -1.630122
  O      -0.780669     -1.208145      0.352243
  C      -2.170421     -1.468627     -0.018485
  O      -0.507166      1.248289      0.756835
  C      -0.263323      2.620209      0.360565
  H       3.411540     -0.892323      0.177355
  H       2.276138     -1.331066     -1.157921
  H       2.166595     -2.167878      0.416938
  H      -2.312424     -2.542448      0.095140
  H      -2.370056     -1.155377     -1.045608
  H      -2.831197     -0.928873      0.671023
  H       0.740050      2.908864      0.713136
  H      -1.026829      3.229344      0.841983
  H      -0.292213      2.731179     -0.732443
17
Coordinates from ORCA-job TMP_cation_cpcm_20_moread E -761.697881870718
  C       2.405612     -1.266967     -0.038211
  O       1.534592     -0.148403      0.318372
  P       0.062526      0.088249     -0.230103
  O       0.057515      0.375746     -1.716855
  O      -0.729479     -1.210800      0.196095
  C      -2.165287     -1.468325     -0.018149
  O      -0.496330      1.239750      0.708023
  C      -0.294704      2.649018      0.368661
  H       3.418825     -0.924386      0.157951
  H       2.247661     -1.541202     -1.086965
  H       2.139626     -2.121066      0.599861
  H      -2.261593     -2.551778     -0.004307
  H      -2.491577     -1.047264     -0.970974
  H      -2.716615     -1.016122      0.811362
  H       0.704972      2.936714      0.720766
  H      -1.068228      3.200698      0.898560
  H      -0.347514      2.806138     -0.714088
17
Coordinates from ORCA-job TMP_cation_cpcm_20_moread E -761.700587639934
  C       2.392689     -1.307548      0.001333
  O       1.558059     -0.125260      0.219710
  P       0.082411      0.105272     -0.302970
  O       0.128378      0.449722     -1.789788
  O      -0.682222     -1.217356      0.030826
  C      -2.141765     -1.450394     -0.006192
  O      -0.497717      1.217042      0.648438
  C      -0.328215      2.652975      0.368401
  H       3.415396     -0.964652      0.136001
  H       2.201258     -1.712063     -0.997414
  H       2.104587     -2.049389      0.756254
  H      -2.242688     -2.525597     -0.133209
  H      -2.582197     -0.897182     -0.837213
  H      -2.548365     -1.115678      0.949968
  H       0.658380      2.947799      0.737338
  H      -1.121649      3.148235      0.923405
  H      -0.396338      2.844076     -0.704887
17
Coordinates from ORCA-job TMP_cation_cpcm_20_moread E -761.701869084136
  C       2.375614     -1.325094      0.025717
  O       1.572607     -0.112576      0.164339
  P       0.095837      0.109132     -0.352373
  O       0.198619      0.495853     -1.829642
  O      -0.654396     -1.226523     -0.090452
  C      -2.113266     -1.427875      0.011573
  O      -0.517848      1.193073      0.594434
  C      -0.355688      2.640649      0.363174
  H       3.408097     -0.998473      0.122335
  H       2.164565     -1.799229     -0.936838
  H       2.079033     -1.995011      0.841113
  H      -2.261388     -2.479711     -0.221049
  H      -2.619399     -0.777860     -0.703783
  H      -2.402389     -1.191774      1.036807
  H       0.613493      2.937172      0.769476
  H      -1.173441      3.104064      0.910728
  H      -0.410048      2.854181     -0.705558
17
Coordinates from ORCA-job TMP_cation_cpcm_20_moread E -761.702801333536
  C       2.358340     -1.331917      0.043130
  O       1.580389     -0.102563      0.126423
  P       0.104612      0.106803     -0.402304
  O       0.286963      0.531389     -1.861824
  O      -0.641281     -1.237426     -0.211260
  C      -2.083364     -1.403454      0.038319
  O      -0.560289      1.166735      0.524140
  C      -0.383252      2.621064      0.354454
  H       3.399113     -1.025226      0.118811
  H       2.140771     -1.852161     -0.893351
  H       2.057373     -1.952321      0.895239
  H      -2.307741     -2.417976     -0.283160
  H      -2.639426     -0.666826     -0.544246
  H      -2.250051     -1.270985      1.108159
  H       0.557134      2.903957      0.829711
  H      -1.234350      3.065543      0.866273
  H      -0.384942      2.865363     -0.708515
17
Coordinates from ORCA-job TMP_cation_cpcm_20_moread E -761.703345751708
  C       2.338971     -1.329387      0.054420
  O       1.574846     -0.092635      0.104317
  P       0.104429      0.105219     -0.455001
  O       0.379899      0.553785     -1.892506
  O      -0.646633     -1.242854     -0.323528
  C      -2.057340     -1.390622      0.069150
  O      -0.617337      1.148976      0.438850
  C      -0.401608      2.605162      0.346257
  H       3.384445     -1.036674      0.126284
  H       2.125670     -1.875243     -0.868351
  H       2.032311     -1.923787      0.923472
  H      -2.355723     -2.367268     -0.305824
  H      -2.650979     -0.595973     -0.386439
  H      -2.108838     -1.346788      1.157868
  H       0.499346      2.849845      0.910056
  H      -1.284780      3.046834      0.803563
  H      -0.316676      2.891410     -0.702587
17
Coordinates from ORCA-job TMP_cation_cpcm_20_moread E -761.703690755153
  C       2.322527     -1.321491      0.060962
  O       1.558366     -0.084977      0.101000
  P       0.097849      0.106859     -0.499180
  O       0.457149      0.559769     -1.917233
  O      -0.666697     -1.239684     -0.408979
  C      -2.042502     -1.390796      0.095875
  O      -0.668769      1.145174      0.360555
  C      -0.407620      2.597249      0.339905
  H       3.368266     -1.031233      0.141021
  H       2.118703     -1.872397     -0.861063
  H       2.009594     -1.913406      0.930102
  H      -2.387240     -2.343417     -0.300932
  H      -2.663281     -0.569643     -0.265645
  H      -2.004732     -1.404804      1.186125
  H       0.454499      2.793547      0.978452
  H      -1.310076      3.049125      0.746700
  H      -0.236036      2.920125     -0.687662
17
Coordinates from ORCA-job TMP_cation_cpcm_20_moread E -761.703980520346
  C       2.287143     -1.306427      0.073377
  O       1.520232     -0.070565      0.101930
  P       0.080204      0.118297     -0.564885
  O       0.550009      0.560552     -1.954732
  O      -0.707980     -1.220865     -0.525427
  C      -2.017251     -1.406917      0.129816
  O      -0.735028      1.157844      0.246560
  C      -0.403163      2.593788      0.332927
  H       3.331766     -1.015753      0.166274
  H       2.094291     -1.861106     -0.848868
  H       1.963828     -1.897263      0.940110
  H      -2.407617     -2.334432     -0.284200
  H      -2.673738     -0.568463     -0.103380
  H      -1.853469     -1.491877      1.205336
  H       0.400130      2.709090      1.062034
  H      -1.318354      3.072445      0.675004
  H      -0.111003      2.961652     -0.651875
17
Coordinates from ORCA-job TMP_cation_cpcm_20_moread E -761.704233519395
  C       2.272819     -1.293716      0.080188
  O       1.497862     -0.061874      0.109917
  P       0.068552      0.124610     -0.588475
  O       0.563503      0.553710     -1.973101
  O      -0.730040     -1.210753     -0.562773
  C      -2.014173     -1.420812      0.136332
  O      -0.755153      1.167390      0.213776
  C      -0.388969      2.592437      0.333824
  H       3.315022     -0.995748      0.176224
  H       2.081998     -1.847655     -0.842874
  H       1.949758     -1.888164      0.944720
  H      -2.398883     -2.354129     -0.269665
  H      -2.690327     -0.592209     -0.073654
  H      -1.813113     -1.506683      1.205571
  H       0.401417      2.673978      1.081725
  H      -1.298997      3.088467      0.664209
  H      -0.061276      2.971151     -0.635945
17
Coordinates from ORCA-job TMP_cation_cpcm_20_moread E -761.704827690755
  C       2.206866     -1.263397      0.110877
  O       1.427610     -0.032300      0.122314
  P       0.032673      0.154196     -0.659811
  O       0.583027      0.551117     -2.029519
  O      -0.793743     -1.164818     -0.685022
  C      -1.978259     -1.468260      0.145965
  O      -0.801086      1.203663      0.131034
  C      -0.344815      2.592455      0.336950
  H       3.247605     -0.958222      0.199386
  H       2.005905     -1.836963     -0.797555
  H       1.884221     -1.838969      0.988820
  H      -2.343627     -2.413452     -0.249500
  H      -2.712841     -0.671877      0.027261
  H      -1.656068     -1.566311      1.184159
  H       0.422129      2.585765      1.113483
  H      -1.231890      3.132947      0.658656
  H       0.052293      2.994425     -0.597498
17
Coordinates from ORCA-job TMP_cation_cpcm_20_moread E -761.705071404907
  C       2.151522     -1.256604      0.134330
  O       1.389438     -0.015887      0.118310
  P       0.013508      0.177696     -0.700147
  O       0.587555      0.563703     -2.060324
  O      -0.826437     -1.127957     -0.761815
  C      -1.934102     -1.497030      0.144181
  O      -0.818661      1.229935      0.090270
  C      -0.323347      2.598867      0.339194
  H       3.197764     -0.963883      0.200506
  H       1.927904     -1.859211     -0.749431
  H       1.832463     -1.795039      1.037357
  H      -2.293481     -2.444427     -0.251092
  H      -2.699824     -0.722597      0.096769
  H      -1.535226     -1.608400      1.154012
  H       0.436310      2.551357      1.121310
  H      -1.197783      3.155550      0.667790
  H       0.092394      3.013928     -0.581221
17
Coordinates from ORCA-job TMP_cation_cpcm_20_moread E -761.705254834816
  C       2.119892     -1.265133      0.148510
  O       1.379066     -0.015283      0.109156
  P       0.011157      0.188933     -0.715742
  O       0.577504      0.587693     -2.072585
  O      -0.828777     -1.110121     -0.802220
  C      -1.900527     -1.502769      0.133756
  O      -0.814943      1.234938      0.088226
  C      -0.319886      2.603403      0.342643
  H       3.173036     -0.991241      0.189379
  H       1.872211     -1.894033     -0.709971
  H       1.810082     -1.766424      1.076457
  H      -2.258387     -2.455454     -0.249945
  H      -2.680728     -0.741382      0.110155
  H      -1.472560     -1.608055      1.132219
  H       0.452335      2.554099      1.111903
  H      -1.191149      3.153029      0.691688
  H       0.071676      3.027802     -0.583629
17
Coordinates from ORCA-job TMP_cation_cpcm_20_moread E -761.705347553448
  C       2.087189     -1.275452      0.157582
  O       1.365653     -0.018034      0.102816
  P       0.008156      0.201264     -0.732715
  O       0.593914      0.607758     -2.077832
  O      -0.840922     -1.088909     -0.843454
  C      -1.864508     -1.509565      0.132948
  O      -0.819943      1.249580      0.063559
  C      -0.322043      2.612543      0.341910
  H       3.146037     -1.020680      0.184182
  H       1.823343     -1.919982     -0.684304
  H       1.782706     -1.751552      1.101171
  H      -2.231574     -2.460732     -0.245997
  H      -2.655267     -0.759106      0.156708
  H      -1.394414     -1.625230      1.111305
  H       0.441011      2.550028      1.119071
  H      -1.194801      3.160744      0.689891
  H       0.075465      3.047326     -0.576841
17
Coordinates from ORCA-job TMP_cation_cpcm_20_moread E -761.705389002356
  C       2.098868     -1.288495      0.152617
  O       1.374796     -0.034192      0.105956
  P       0.019266      0.195785     -0.723180
  O       0.595051      0.621195     -2.066722
  O      -0.827574     -1.096670     -0.838077
  C      -1.868133     -1.494103      0.130256
  O      -0.809961      1.239448      0.077030
  C      -0.334655      2.612780      0.341661
  H       3.157966     -1.033744      0.179079
  H       1.836553     -1.930371     -0.691841
  H       1.800565     -1.769785      1.095886
  H      -2.235263     -2.451617     -0.232515
  H      -2.658054     -0.742082      0.128023
  H      -1.415586     -1.592021      1.118981
  H       0.438523      2.567991      1.110020
  H      -1.212896      3.146613      0.698376
  H       0.040535      3.049272     -0.585549
17
Coordinates from ORCA-job TMP_cation_cpcm_20_moread E -761.705421498244
  C       2.087034     -1.290166      0.155945
  O       1.363391     -0.036061      0.107074
  P       0.015709      0.201236     -0.732587
  O       0.603054      0.625640     -2.071830
  O      -0.838931     -1.087515     -0.855387
  C      -1.857832     -1.498559      0.131547
  O      -0.815640      1.248974      0.060203
  C      -0.332644      2.616053      0.342294
  H       3.146620     -1.036403      0.174757
  H       1.818230     -1.937305     -0.682291
  H       1.795633     -1.765377      1.104617
  H      -2.216924     -2.461361     -0.225318
  H      -2.658103     -0.757697      0.141421
  H      -1.388385     -1.590217      1.113081
  H       0.433298      2.557375      1.117146
  H      -1.210007      3.153020      0.696216
  H       0.055498      3.058363     -0.576885
17
Coordinates from ORCA-job TMP_cation_cpcm_20_moread E -761.705446896008
  C       2.087758     -1.290607      0.156513
  O       1.356643     -0.040230      0.109544
  P       0.014766      0.201878     -0.736633
  O       0.602206      0.627015     -2.076521
  O      -0.844501     -1.086403     -0.860716
  C      -1.861221     -1.497273      0.130381
  O      -0.817584      1.251371      0.053888
  C      -0.330225      2.614553      0.345834
  H       3.145940     -1.030072      0.162489
  H       1.811508     -1.943269     -0.674777
  H       1.810224     -1.762101      1.111038
  H      -2.198737     -2.473144     -0.211688
  H      -2.674211     -0.770454      0.120663
  H      -1.395413     -1.562075      1.115800
  H       0.435544      2.547302      1.120411
  H      -1.205987      3.151962      0.702696
  H       0.063292      3.061547     -0.568922
17
Coordinates from ORCA-job TMP_cation_cpcm_20_moread E -761.705455584540
  C       2.089320     -1.291216      0.156479
  O       1.355740     -0.041922      0.109239
  P       0.015239      0.201499     -0.737239
  O       0.599843      0.628435     -2.078286
  O      -0.844362     -1.087024     -0.861491
  C      -1.864462     -1.495197      0.127804
  O      -0.817283      1.250386      0.054260
  C      -0.328976      2.612366      0.349271
  H       3.146991     -1.028252      0.148821
  H       1.804176     -1.949775     -0.666968
  H       1.823449     -1.755710      1.117539
  H      -2.186281     -2.480361     -0.202521
  H      -2.685451     -0.777981      0.098713
  H      -1.406653     -1.538838      1.118071
  H       0.439045      2.543085      1.121505
  H      -1.203881      3.148762      0.709607
  H       0.063547      3.061742     -0.564804
17
Coordinates from ORCA-job TMP_cation_cpcm_20_moread E -761.705463478689
  C       2.089892     -1.292101      0.156334
  O       1.355962     -0.042553      0.108197
  P       0.015919      0.201438     -0.737121
  O       0.598953      0.630198     -2.078767
  O      -0.843287     -1.086944     -0.862352
  C      -1.867186     -1.493270      0.123983
  O      -0.817231      1.249409      0.055045
  C      -0.327638      2.609880      0.353660
  H       3.147318     -1.029008      0.127565
  H       1.790266     -1.959184     -0.654822
  H       1.840617     -1.744471      1.127291
  H      -2.170375     -2.488910     -0.192194
  H      -2.697655     -0.788351      0.072234
  H      -1.419949     -1.512111      1.119755
  H       0.442308      2.538698      1.123779
  H      -1.201668      3.145544      0.717133
  H       0.063753      3.061737     -0.559721
17
Coordinates from ORCA-job TMP_cation_cpcm_20_moread E -761.705468693581
  C       2.090030     -1.292653      0.155824
  O       1.356944     -0.042120      0.108231
  P       0.016453      0.201477     -0.735669
  O       0.600985      0.630696     -2.076812
  O      -0.842181     -1.086384     -0.862218
  C      -1.868949     -1.492526      0.121002
  O      -0.817686      1.249107      0.055816
  C      -0.326973      2.608581      0.356434
  H       3.147327     -1.031138      0.108950
  H       1.777858     -1.965892     -0.645311
  H       1.854856     -1.735126      1.134616
  H      -2.160371     -2.494377     -0.186497
  H      -2.705387     -0.795893      0.054826
  H      -1.429869     -1.496250      1.120485
  H       0.443194      2.536465      1.126180
  H      -1.200530      3.144543      0.720624
  H       0.064300      3.061488     -0.556482
17
Coordinates from ORCA-job TMP_cation_cpcm_20_moread E -761.705471634546
  C       2.089879     -1.292882      0.155294
  O       1.357135     -0.041790      0.110155
  P       0.016646      0.201547     -0.733824
  O       0.604606      0.630278     -2.073682
  O      -0.841970     -1.085492     -0.862174
  C      -1.869866     -1.492661      0.119036
  O      -0.818482      1.249552      0.056086
  C      -0.326711      2.608456      0.357501
  H       3.146993     -1.032882      0.095465
  H       1.768918     -1.969578     -0.639323
  H       1.865598     -1.729484      1.139174
  H      -2.155834     -2.497220     -0.184786
  H      -2.709456     -0.800389      0.046690
  H      -1.435196     -1.489991      1.120418
  H       0.442515      2.535695      1.128087
  H      -1.199998      3.145407      0.720963
  H       0.065223      3.061434     -0.555081
17
Coordinates from ORCA-job TMP_cation_cpcm_20_moread E -761.705473140539
  C       2.090163     -1.292734      0.154976
  O       1.356407     -0.042073      0.112922
  P       0.016534      0.201411     -0.732406
  O       0.607412      0.629397     -2.071182
  O      -0.842448     -1.085028     -0.862106
  C      -1.870745     -1.493007      0.118049
  O      -0.819087      1.250045      0.056164
  C      -0.326561      2.608809      0.357471
  H       3.146949     -1.032760      0.088277
  H       1.764991     -1.970796     -0.636693
  H       1.872752     -1.727462      1.141217
  H      -2.155838     -2.497877     -0.185618
  H      -2.711101     -0.801710      0.044887
  H      -1.437450     -1.489849      1.120035
  H       0.441566      2.535640      1.129100
  H      -1.199741      3.146686      0.719881
  H       0.066196      3.061307     -0.554972
17
Coordinates from ORCA-job TMP_cation_cpcm_20_moread E -761.705474779720
  C       2.090892     -1.292245      0.154824
  O       1.354734     -0.042937      0.117113
  P       0.016193      0.201073     -0.730864
  O       0.610599      0.628019     -2.068375
  O      -0.843371     -1.084753     -0.862133
  C      -1.872256     -1.493440      0.116814
  O      -0.819783      1.250557      0.056159
  C      -0.326277      2.609241      0.357245
  H       3.146953     -1.031226      0.079346
  H       1.760760     -1.972315     -0.632969
  H       1.883022     -1.724969      1.144002
  H      -2.157883     -2.497808     -0.188066
  H      -2.712557     -0.801972      0.044284
  H      -1.439714     -1.491805      1.119149
  H       0.440220      2.535450      1.130418
  H      -1.199448      3.148264      0.718029
  H       0.067916      3.060866     -0.554975
17
Coordinates from ORCA-job TMP_cation_cpcm_20_moread E -761.705476448721
  C       2.091764     -1.291562      0.155087
  O       1.352413     -0.044268      0.121669
  P       0.015774      0.200663     -0.729750
  O       0.613633      0.626662     -2.066019
  O      -0.844330     -1.084704     -0.862626
  C      -1.874083     -1.493690      0.115092
  O      -0.820475      1.250845      0.055862
  C      -0.325961      2.609350      0.357336
  H       3.146625     -1.028869      0.067159
  H       1.754588     -1.975478     -0.626240
  H       1.897082     -1.720254      1.148683
  H      -2.160987     -2.497138     -0.191648
  H      -2.713681     -0.801237      0.043666
  H      -1.441901     -1.494456      1.117594
  H       0.438461      2.534635      1.132443
  H      -1.199351      3.149431      0.716031
  H       0.070429      3.060069     -0.554338
17
Coordinates from ORCA-job TMP_cation_cpcm_20_moread E -761.705478077539
  C       2.092566     -1.290841      0.155855
  O       1.350289     -0.045609      0.125081
  P       0.015502      0.200285     -0.729504
  O       0.615879      0.625692     -2.064842
  O      -0.844767     -1.084992     -0.863496
  C      -1.875722     -1.493604      0.113117
  O      -0.820992      1.250667      0.055224
  C      -0.325921      2.608931      0.357897
  H       3.145914     -1.026679      0.052957
  H       1.746709     -1.980438     -0.616498
  H       1.912889     -1.712964      1.155045
  H      -2.165145     -2.495506     -0.196293
  H      -2.713556     -0.798850      0.043510
  H      -1.443276     -1.498022      1.115485
  H       0.436176      2.533285      1.135162
  H      -1.199907      3.149673      0.714115
  H       0.073361      3.058973     -0.552816
17
Coordinates from ORCA-job TMP_cation_cpcm_20_moread E -761.705479283098
  C       2.092589     -1.290570      0.156955
  O       1.349447     -0.046220      0.125460
  P       0.015580      0.200287     -0.730458
  O       0.616649      0.625808     -2.065440
  O      -0.844451     -1.085221     -0.864810
  C      -1.876044     -1.493288      0.111597
  O      -0.821168      1.250252      0.054198
  C      -0.326349      2.608217      0.358805
  H       3.144835     -1.026533      0.041570
  H       1.738980     -1.985895     -0.606615
  H       1.924161     -1.705136      1.161228
  H      -2.168256     -2.493598     -0.200291
  H      -2.711860     -0.795930      0.044265
  H      -1.442483     -1.501334      1.113439
  H       0.433913      2.531901      1.137766
  H      -1.201147      3.148926      0.713015
  H       0.075604      3.058332     -0.550684
17
Coordinates from ORCA-job TMP_cation_cpcm_20_moread E -761.705479863237
  C       2.092470     -1.290481      0.157856
  O       1.349661     -0.046155      0.124437
  P       0.015889      0.200364     -0.731531
  O       0.616795      0.626086     -2.066431
  O      -0.843817     -1.085389     -0.865788
  C      -1.875930     -1.492936      0.110537
  O      -0.821216      1.249764      0.053392
  C      -0.326963      2.607441      0.359671
  H       3.144032     -1.027516      0.033423
  H       1.732927     -1.990261     -0.598775
  H       1.931386     -1.698514      1.165970
  H      -2.170398     -2.491993     -0.203184
  H      -2.710043     -0.793424      0.044926
  H      -1.441505     -1.503778      1.111961
  H       0.432068      2.530827      1.139811
  H      -1.202420      3.147998      0.712445
  H       0.077063      3.057968     -0.548719
17
Coordinates from ORCA-job TMP_cation_cpcm_20_moread E -761.705480061293
  C       2.092214     -1.290637      0.158246
  O       1.350149     -0.045892      0.123307
  P       0.016133      0.200500     -0.732150
  O       0.616685      0.626458     -2.067037
  O      -0.843551     -1.085246     -0.866380
  C      -1.875526     -1.492831      0.110210
  O      -0.821157      1.249643      0.053035
  C      -0.327348      2.607174      0.360019
  H       3.143714     -1.028710      0.030988
  H       1.730586     -1.992060     -0.595853
  H       1.932916     -1.695876      1.167775
  H      -2.170801     -2.491453     -0.204111
  H      -2.709131     -0.792642      0.045525
  H      -1.440540     -1.504714      1.111378
  H       0.431348      2.530549      1.140502
  H      -1.203032      3.147597      0.712425
  H       0.077341      3.058140     -0.547877
