10
Coordinates from ORCA-job EC_cation_cpcm_14_moread E -342.065722278167
  C          -0.21973465421924     -0.93101849182873     -0.10879800178574
  C          -0.87057987409997      0.40749961057278     -0.06628940528999
  O           0.16950475075909      1.32337169615427      0.08185216261816
  C           1.38070522302206      0.66474169226077      0.21189506430021
  O           2.41991174845013      1.16072035013656      0.45660971791728
  O           1.14672167260766     -0.68601990241075      0.00870761102768
  H          -0.40258368322676     -1.51869716629177     -1.04040885116819
  H          -0.54771692363115     -1.64034614669594      0.68815293794523
  H          -1.45692084852826      0.67162646822096     -0.97970587229226
  H          -1.61930741113358      0.54812188988184      0.74798464672765
