10
 energy: -20.117657562980 gnorm: 0.000495693517 xtb: 6.7.1pre (5071a88)
C           -0.20785792793418       -0.94330932215809       -0.10959951032366
C           -0.87219051887101        0.42413944917016       -0.06853420245354
O            0.17041274140802        1.31073594284344        0.05486259251447
C            1.36630568198021        0.65770461416308        0.20509323491675
O            2.39168564952539        1.14696607310830        0.47836153546895
O            1.13620964443746       -0.67732685339288       -0.00719960197444
H           -0.38324715279496       -1.53154639059395       -1.03711124716570
H           -0.53820746103781       -1.63297887711762        0.69628323483603
H           -1.46202238424834        0.69432245714989       -0.97208427010883
H           -1.60108827246480        0.55129290682767        0.75992824429000
