13
 energy: -23.973933493750 gnorm: 0.000503341734 xtb: 6.7.1pre (5071a88)
C            1.41532285993991       -0.38887886302908       -0.09453502362627
C            0.04142668216728       -0.44877055892160        0.58018568137662
C           -0.64836382000364        0.94788372207970        0.59128648356087
O           -1.73854151636910        0.83259517093627       -0.26261227838952
C           -1.53560531702467       -0.37956155182556       -1.08003510695242
O           -1.09313225231783       -0.26160060466640       -2.25985848622345
O           -0.84669765900713       -1.25710318451466       -0.12907084859395
H            2.07047315256404        0.31902347514565        0.41467558707700
H            1.26595052847017       -0.08231646220563       -1.12752286333192
H            1.87409985866264       -1.37649768352350       -0.08754478308078
H            0.14080352700875       -0.84909868045684        1.60428369894273
H            0.05449107225174        1.72810494405383        0.24933572555118
H           -1.00022710634204        1.21622028692781        1.60141220368996
