18
Coordinates from ORCA-job DEC_anion_cpcm_5_default E -422.193267199001
  C          -3.13363466327361      0.40641853996011      0.35913312535111
  C          -2.40174843653407     -0.83528242499943     -0.14088868667093
  O          -1.05574328711430     -0.90575244805258      0.30955577042016
  C          -0.17271909105592      0.04601840981955     -0.36389619631484
  O          -0.27059225292792      0.18029503344511     -1.62228694481713
  O           1.10596236454463     -0.36650906338757      0.20087932462513
  C           2.18512691490777      0.41900875306100     -0.28374891483517
  C           3.44387935912195      0.01400525222586      0.46057845410451
  H          -2.66491623534121      1.31165775372576     -0.03912554927281
  H          -3.10760215385112      0.45664262207328      1.45337336011365
  H          -4.18187478260291      0.38527859317082      0.03709739819500
  H          -2.43514018772370     -0.87245044844314     -1.23940763281162
  H          -2.89170193523959     -1.73874158203720      0.24509804348925
  H           2.31527637163178      0.27351878946122     -1.36704933586915
  H           1.97055162165769      1.49101275473503     -0.12493197193279
  H           4.29891969232944      0.60240012414821      0.10888394175311
  H           3.66550286850072     -1.04633605359474      0.29755319856534
  H           3.33045384297035      0.17881540468872      1.53746619590721
