18
 energy: -28.145418168768 gnorm: 0.000544108295 xtb: 6.7.1pre (5071a88)
C           -3.24773262442912        0.09400906829753        0.07973879501816
C           -1.92371432402051       -0.61002059011027       -0.24168600441391
O           -0.94523000941591       -0.36296850098568        0.70917553604699
C           -0.17046625391346        0.89302293895266        0.49246740627708
O           -0.40637267710831        1.56734757567639       -0.55890510926654
O            1.17030805912605        0.58375992400024        0.85930248670598
C            1.90997750237185       -0.06567713743504       -0.15834251040014
C            3.39219853644946       -0.07823792510142        0.19751847239689
H           -3.06651272913495        1.16493341002260        0.08203220698294
H           -3.60410875256580       -0.20682735031501        1.06366785223163
H           -4.00245699857529       -0.14816189064280       -0.66888361949477
H           -1.58032646095702       -0.26261822121899       -1.22891736319536
H           -2.07948394779003       -1.70178481193986       -0.27658923767573
H            1.54483155802978       -1.10047612714220       -0.28260682010600
H            1.74976790631955        0.47016735931265       -1.10743523366684
H            3.96679520251711       -0.58648427383672       -0.57788752755468
H            3.53839973390777       -0.59210614010732        1.14520934204719
H            3.75412628918913        0.94212270257297        0.30042490806490
