13
PC_cation_cpcm_80
C            1.58362649266214       -0.33828845368536        0.05439696187295
C            0.11979843681840       -0.42076471933242        0.46519226012193
C           -0.58068554070983        0.95592877311199        0.52049106688943
O           -1.53689119407963        0.90063837117628       -0.51798541190243
C           -1.54308076613158       -0.31768721109471       -1.08821448967232
O           -2.26160242040070       -0.63790003794024       -1.97470690284307
O           -0.63159943391853       -1.12004577500903       -0.51874338612206
H            2.15195120943203        0.18008036110550        0.82185008676146
H            1.68103376578672        0.19420048049345       -0.88902500368648
H            1.98458275748219       -1.34018629163155       -0.07088436823359
H            0.02009640203698       -0.96965935450019        1.40816660991046
H            0.10896204000448        1.78027538979274        0.32112068272499
H           -1.09619173898264        1.13340847751355        1.46834188417873
