13
Coordinates from ORCA-job PC_cation_opt E -381.287447108302
  C           1.54860458217863     -0.35654173924531     -0.01655657456316
  C           0.16513159100366     -0.37354664760891      0.55690687531827
  C          -0.57964313427837      0.96861065491898      0.58925134943609
  O          -1.38832906584339      0.93716096961058     -0.67105520940287
  C          -1.43281351327064     -0.29837911525576     -1.02691377287668
  O          -2.15477301657630     -0.65614488893436     -2.02985537989550
  O          -0.74907429622662     -1.17291404733397     -0.38797457195751
  H           2.20874573397405      0.14629139664831      0.70043684412634
  H           1.59332035377146      0.19187599139474     -0.96369723726501
  H           1.92287543294987     -1.37272817499549     -0.16072222532925
  H           0.08618159968118     -0.92550321433942      1.49752982957451
  H           0.07387544765839      1.83829343178120      0.50443681801188
  H          -1.29410171502192      1.07352538335939      1.40821225482290
