13
Coordinates from ORCA-job PC_cation_opt E -381.273252488415
  C       1.536274     -0.349163     -0.010940
  C       0.127449     -0.399283      0.544029
  C      -0.585204      0.959384      0.567186
  O      -1.334121      0.961745     -0.660240
  C      -1.469595     -0.320548     -1.104184
  O      -2.148474     -0.649655     -2.027078
  O      -0.720598     -1.166334     -0.345897
  H       2.193588      0.184446      0.684002
  H       1.550461      0.170980     -0.974891
  H       1.927510     -1.359820     -0.153366
  H       0.098479     -0.895210      1.519364
  H       0.106974      1.805555      0.554549
  H      -1.282743      1.057903      1.407465
13
Coordinates from ORCA-job PC_cation_opt E -381.278428782848
  C       1.541164     -0.352786     -0.020972
  C       0.121116     -0.392491      0.542207
  C      -0.582866      0.966423      0.564802
  O      -1.385620      0.956914     -0.627778
  C      -1.491309     -0.315766     -1.070261
  O      -2.054928     -0.646598     -2.080759
  O      -0.750246     -1.162435     -0.312313
  H       2.198375      0.181265      0.671115
  H       1.545671      0.165992     -0.986973
  H       1.919504     -1.370405     -0.150116
  H       0.108524     -0.914678      1.514401
  H       0.099217      1.820017      0.530871
  H      -1.268601      1.064547      1.425776
13
Coordinates from ORCA-job PC_cation_opt E -381.281749678361
  C       1.550098     -0.359352     -0.029210
  C       0.115538     -0.382575      0.535286
  C      -0.581766      0.974858      0.560253
  O      -1.439666      0.949862     -0.599623
  C      -1.463600     -0.293153     -1.061414
  O      -2.000178     -0.652248     -2.096011
  O      -0.781126     -1.153752     -0.283613
  H       2.201025      0.174764      0.666430
  H       1.546433      0.160020     -0.995717
  H       1.910823     -1.384938     -0.140532
  H       0.120212     -0.938252      1.497034
  H       0.079835      1.842421      0.509872
  H      -1.257629      1.062345      1.437244
13
Coordinates from ORCA-job PC_cation_opt E -381.282774886417
  C       1.545595     -0.363891     -0.032677
  C       0.112604     -0.379668      0.534325
  C      -0.582203      0.979006      0.566845
  O      -1.483020      0.932506     -0.575712
  C      -1.466611     -0.288794     -1.045462
  O      -1.935334     -0.646982     -2.121771
  O      -0.796375     -1.156540     -0.278692
  H       2.192647      0.167920      0.669174
  H       1.538765      0.161654     -0.995238
  H       1.899796     -1.390531     -0.144263
  H       0.130645     -0.940994      1.487454
  H       0.072525      1.847304      0.479564
  H      -1.229034      1.079009      1.456452
13
Coordinates from ORCA-job PC_cation_opt E -381.283364383134
  C       1.541179     -0.366456     -0.031737
  C       0.114811     -0.380534      0.535404
  C      -0.584596      0.979465      0.576465
  O      -1.508488      0.921856     -0.562045
  C      -1.465129     -0.287196     -1.043145
  O      -1.917058     -0.643960     -2.132255
  O      -0.795325     -1.161701     -0.290826
  H       2.185216      0.162463      0.676141
  H       1.540933      0.164510     -0.991059
  H       1.898149     -1.391115     -0.149310
  H       0.131755     -0.938918      1.486151
  H       0.069625      1.843753      0.454426
  H      -1.211072      1.097831      1.471789
13
Coordinates from ORCA-job PC_cation_opt E -381.284192827567
  C       1.536671     -0.368578     -0.027026
  C       0.124309     -0.382244      0.535326
  C      -0.587098      0.977387      0.593282
  O      -1.537288      0.909393     -0.548379
  C      -1.465117     -0.283598     -1.036368
  O      -1.919905     -0.641818     -2.135815
  O      -0.784411     -1.168406     -0.323639
  H       2.176138      0.155626      0.690456
  H       1.556465      0.169408     -0.982099
  H       1.904255     -1.388080     -0.154719
  H       0.121966     -0.937435      1.483786
  H       0.067743      1.831856      0.415988
  H      -1.193729      1.126488      1.489207
13
Coordinates from ORCA-job PC_cation_opt E -381.284959582724
  C       1.537109     -0.366980     -0.018155
  C       0.139298     -0.383682      0.532990
  C      -0.584770      0.974070      0.606955
  O      -1.547429      0.904011     -0.549720
  C      -1.466794     -0.280362     -1.027704
  O      -1.965687     -0.648559     -2.122891
  O      -0.768980     -1.170882     -0.367508
  H       2.173616      0.150769      0.708753
  H       1.584009      0.177772     -0.968520
  H       1.918126     -1.380506     -0.155575
  H       0.099539     -0.939376      1.477711
  H       0.070761      1.818594      0.388478
  H      -1.188798      1.145132      1.495184
13
Coordinates from ORCA-job PC_cation_opt E -381.285839841032
  C       1.543912     -0.361042     -0.006383
  C       0.154402     -0.386196      0.530938
  C      -0.577935      0.969883      0.608336
  O      -1.527581      0.911279     -0.572603
  C      -1.468625     -0.282007     -1.025852
  O      -2.057488     -0.662306     -2.088816
  O      -0.749717     -1.168850     -0.411788
  H       2.180202      0.149969      0.727164
  H       1.615200      0.188926     -0.952190
  H       1.936787     -1.369876     -0.150321
  H       0.070427     -0.943120      1.470616
  H       0.081014      1.811379      0.387311
  H      -1.200600      1.141960      1.483586
13
Coordinates from ORCA-job PC_cation_opt E -381.286884988361
  C       1.557519     -0.353441      0.004236
  C       0.163840     -0.387917      0.530426
  C      -0.570098      0.966190      0.591478
  O      -1.479105      0.927194     -0.613726
  C      -1.468209     -0.288248     -1.029731
  O      -2.169427     -0.669474     -2.033969
  O      -0.730802     -1.163645     -0.440673
  H       2.195715      0.154090      0.738801
  H       1.638776      0.197461     -0.939961
  H       1.955612     -1.361503     -0.137647
  H       0.045770     -0.949854      1.464153
  H       0.091529      1.816614      0.417218
  H      -1.231120      1.112532      1.449394
13
Coordinates from ORCA-job PC_cation_opt E -381.287251697581
  C       1.563084     -0.353115      0.004308
  C       0.164726     -0.384232      0.533326
  C      -0.569871      0.967617      0.580545
  O      -1.451692      0.930990     -0.634384
  C      -1.462929     -0.292016     -1.026719
  O      -2.199254     -0.664130     -2.013648
  O      -0.725360     -1.161522     -0.439848
  H       2.202776      0.154142      0.736868
  H       1.636090      0.196659     -0.940726
  H       1.955679     -1.363951     -0.132515
  H       0.048302     -0.951359      1.462976
  H       0.086879      1.827691      0.441597
  H      -1.248429      1.093226      1.428220
13
Coordinates from ORCA-job PC_cation_opt E -381.287364686168
  C       1.561394     -0.354688      0.000522
  C       0.164108     -0.380844      0.538621
  C      -0.572865      0.969317      0.578975
  O      -1.436905      0.930666     -0.643429
  C      -1.455179     -0.296058     -1.026860
  O      -2.195347     -0.658644     -2.015625
  O      -0.725570     -1.163927     -0.431065
  H       2.203994      0.151943      0.730648
  H       1.624343      0.194825     -0.944991
  H       1.947724     -1.367575     -0.135958
  H       0.059157     -0.945777      1.469326
  H       0.081296      1.833777      0.457061
  H      -1.256150      1.086987      1.422774
13
Coordinates from ORCA-job PC_cation_opt E -381.287404749127
  C       1.558611     -0.356032     -0.003516
  C       0.164921     -0.378166      0.544067
  C      -0.576221      0.969750      0.581100
  O      -1.425818      0.929723     -0.650845
  C      -1.447217     -0.298689     -1.026852
  O      -2.188410     -0.654929     -2.019596
  O      -0.728131     -1.167175     -0.424041
  H       2.204455      0.148603      0.725272
  H       1.615817      0.194604     -0.948581
  H       1.940113     -1.370166     -0.142403
  H       0.068553     -0.938987      1.477167
  H       0.076835      1.836255      0.467308
  H      -1.263510      1.085209      1.420921
13
Coordinates from ORCA-job PC_cation_opt E -381.287417233500
  C       1.555327     -0.356785     -0.008023
  C       0.163800     -0.376732      0.548203
  C      -0.578845      0.969629      0.583471
  O      -1.419226      0.930300     -0.653200
  C      -1.442994     -0.300150     -1.028246
  O      -2.171994     -0.652701     -2.028795
  O      -0.734242     -1.170336     -0.411567
  H       2.204515      0.147293      0.718120
  H       1.606932      0.193565     -0.953597
  H       1.932984     -1.372018     -0.148715
  H       0.077544     -0.933188      1.485268
  H       0.075055      1.836489      0.475559
  H      -1.268857      1.084635      1.421521
13
Coordinates from ORCA-job PC_cation_opt E -381.287429174299
  C       1.554312     -0.356472     -0.009350
  C       0.164524     -0.376308      0.549696
  C      -0.579094      0.968990      0.584842
  O      -1.414293      0.931320     -0.656403
  C      -1.441294     -0.299880     -1.027753
  O      -2.170363     -0.653194     -2.028421
  O      -0.736892     -1.171176     -0.408642
  H       2.205174      0.146833      0.715888
  H       1.606099      0.194005     -0.954872
  H       1.931471     -1.371799     -0.151244
  H       0.078579     -0.931670      1.487546
  H       0.075304      1.835849      0.479332
  H      -1.273527      1.083503      1.419379
13
Coordinates from ORCA-job PC_cation_opt E -381.287441741659
  C       1.551597     -0.356034     -0.013063
  C       0.165328     -0.374933      0.553342
  C      -0.579591      0.968148      0.587423
  O      -1.401232      0.934242     -0.663904
  C      -1.437146     -0.299234     -1.026989
  O      -2.163314     -0.654401     -2.028712
  O      -0.743731     -1.172685     -0.398544
  H       2.206930      0.146361      0.708734
  H       1.601387      0.193756     -0.959134
  H       1.927040     -1.371887     -0.156669
  H       0.082297     -0.928312      1.492864
  H       0.075303      1.835767      0.491127
  H      -1.284869      1.079211      1.413523
13
Coordinates from ORCA-job PC_cation_opt E -381.287445566202
  C       1.549608     -0.356065     -0.015579
  C       0.165477     -0.373885      0.555872
  C      -0.579782      0.968116      0.588766
  O      -1.392052      0.936194     -0.668961
  C      -1.434140     -0.298833     -1.026737
  O      -2.157905     -0.655333     -2.029193
  O      -0.747835     -1.173239     -0.391224
  H       2.208133      0.146177      0.703358
  H       1.596693      0.192993     -0.962219
  H       1.923889     -1.372270     -0.159872
  H       0.085115     -0.926252      1.496234
  H       0.074749      1.836762      0.500092
  H      -1.291949      1.075635      1.409462
13
Coordinates from ORCA-job PC_cation_opt E -381.287446811511
  C       1.548982     -0.356291     -0.016220
  C       0.165306     -0.373612      0.556547
  C      -0.579653      0.968414      0.589023
  O      -1.389379      0.936889     -0.670466
  C      -1.433324     -0.298542     -1.026821
  O      -2.156113     -0.655905     -2.029389
  O      -0.748725     -1.173032     -0.389021
  H       2.208573      0.146287      0.701467
  H       1.594634      0.192324     -0.963191
  H       1.923216     -1.372512     -0.160400
  H       0.085768     -0.925878      1.496978
  H       0.074299      1.837705      0.503122
  H      -1.293585      1.074152      1.408368
13
Coordinates from ORCA-job PC_cation_opt E -381.287447108302
  C       1.548605     -0.356542     -0.016557
  C       0.165132     -0.373547      0.556907
  C      -0.579643      0.968611      0.589251
  O      -1.388329      0.937161     -0.671055
  C      -1.432814     -0.298379     -1.026914
  O      -2.154773     -0.656145     -2.029855
  O      -0.749074     -1.172914     -0.387975
  H       2.208746      0.146291      0.700437
  H       1.593320      0.191876     -0.963697
  H       1.922875     -1.372728     -0.160722
  H       0.086182     -0.925503      1.497530
  H       0.073875      1.838293      0.504437
  H      -1.294102      1.073525      1.408212
