37
Coordinates from ORCA-job TEGDME_anion_cpcm_200_moread E -770.146313327691
  C       5.774851      1.228589      2.111082
  O       6.091665      0.401239      1.018047
  C       5.079890      0.298388      0.047002
  C       3.878755     -0.554644      0.501861
  O       3.056781     -0.958734     -0.564011
  C       2.276725      0.067464     -1.135245
  C       1.125117     -0.565870     -1.909485
  O       0.090122     -0.875393     -1.009651
  C      -0.976222     -1.568493     -1.609330
  C      -2.082253     -1.760374     -0.578498
  O      -2.871382     -0.595043     -0.531429
  C      -3.849864     -0.634914      0.478411
  C      -4.616419      0.682454      0.456521
  O      -5.600564      0.644068      1.462031
  C      -6.361369      1.823163      1.524406
  H       4.996566      0.792596      2.746104
  H       5.446161      2.219560      1.774220
  H       6.690992      1.330496      2.689759
  H       5.547272     -0.191996     -0.811022
  H       4.740860      1.301571     -0.254495
  H       4.257167     -1.477985      0.948434
  H       3.284295     -0.010036      1.250634
  H       1.855899      0.711683     -0.351834
  H       2.882759      0.680147     -1.818068
  H       0.761706      0.133714     -2.678687
  H       1.491080     -1.476338     -2.405372
  H      -1.377820     -0.996639     -2.458549
  H      -0.631269     -2.548451     -1.974567
  H      -1.622322     -1.953632      0.400478
  H      -2.705297     -2.625837     -0.853384
  H      -3.386889     -0.771830      1.466487
  H      -4.548982     -1.468528      0.312273
  H      -3.916445      1.513719      0.627030
  H      -5.076061      0.822231     -0.533340
  H      -7.080142      1.686689      2.329577
  H      -5.729877      2.693839      1.740615
  H      -6.895487      2.003128      0.583083
37
Coordinates from ORCA-job TEGDME_anion_cpcm_200_moread E -770.152102331918
  C       5.779857      1.322391      2.072219
  O       6.080312      0.393885      1.034633
  C       5.048118      0.250319      0.064923
  C       3.865634     -0.593955      0.577556
  O       3.024840     -1.006525     -0.500279
  C       2.282265      0.044183     -1.107088
  C       1.130594     -0.557369     -1.891857
  O       0.082399     -0.894811     -0.998037
  C      -0.983549     -1.578011     -1.636845
  C      -2.106318     -1.786283     -0.640169
  O      -2.855383     -0.584988     -0.536858
  C      -3.864846     -0.653164      0.451360
  C      -4.579659      0.687608      0.473610
  O      -5.595515      0.620789      1.455199
  C      -6.328985      1.829359      1.557434
  H       4.995412      0.943052      2.747808
  H       5.460188      2.290374      1.653671
  H       6.703511      1.474481      2.638483
  H       5.505516     -0.248890     -0.799811
  H       4.707094      1.240088     -0.279800
  H       4.235901     -1.517949      1.043425
  H       3.271371     -0.031681      1.319155
  H       1.872336      0.717442     -0.335695
  H       2.913036      0.635140     -1.789126
  H       0.775098      0.166021     -2.645201
  H       1.491858     -1.454166     -2.423229
  H      -1.365948     -0.986345     -2.485785
  H      -0.641214     -2.553401     -2.020667
  H      -1.673568     -2.056119      0.337270
  H      -2.755504     -2.611210     -0.977235
  H      -3.431801     -0.860173      1.444663
  H      -4.587560     -1.454853      0.220506
  H      -3.857525      1.488531      0.708211
  H      -5.008760      0.895837     -0.521728
  H      -7.081401      1.683653      2.336329
  H      -5.676704      2.671774      1.835298
  H      -6.831102      2.074966      0.608743
37
Coordinates from ORCA-job TEGDME_anion_cpcm_200_moread E -770.155292023635
  C       5.715126      1.484774      2.004939
  O       6.030945      0.377684      1.135595
  C       5.018006      0.145238      0.130346
  C       3.817530     -0.627950      0.689737
  O       2.972770     -1.081850     -0.407299
  C       2.303562     -0.014906     -1.090317
  C       1.158491     -0.582452     -1.891269
  O       0.080851     -0.913866     -1.014842
  C      -0.987720     -1.562065     -1.704862
  C      -2.130421     -1.785083     -0.748761
  O      -2.825272     -0.550254     -0.560561
  C      -3.868806     -0.664531      0.398662
  C      -4.523569      0.697626      0.515266
  O      -5.571743      0.580454      1.467957
  C      -6.260303      1.816357      1.653464
  H       4.880961      1.231014      2.684511
  H       5.457531      2.378881      1.412276
  H       6.614567      1.710904      2.586454
  H       5.499232     -0.418263     -0.683227
  H       4.717932      1.103325     -0.326890
  H       4.129058     -1.538118      1.219929
  H       3.214454     -0.008894      1.376266
  H       1.911902      0.712732     -0.356881
  H       2.980964      0.521099     -1.772721
  H       0.831777      0.155713     -2.643718
  H       1.503168     -1.478802     -2.436580
  H      -1.333397     -0.937287     -2.546882
  H      -0.656126     -2.530478     -2.114195
  H      -1.739727     -2.151783      0.215748
  H      -2.812736     -2.545930     -1.161398
  H      -3.469890     -0.977191      1.379000
  H      -4.614019     -1.413906      0.079353
  H      -3.780335      1.447448      0.838414
  H      -4.919287      1.010986     -0.466676
  H      -7.043943      1.646646      2.397494
  H      -5.579574      2.601766      2.018116
  H      -6.721957      2.160965      0.714638
37
Coordinates from ORCA-job TEGDME_anion_cpcm_200_moread E -770.159005654254
  C       5.630014      1.639718      1.967797
  O       5.980393      0.400932      1.265494
  C       4.998172      0.063253      0.212384
  C       3.774476     -0.642547      0.774305
  O       2.921694     -1.142130     -0.351007
  C       2.315020     -0.075223     -1.106132
  C       1.172228     -0.618728     -1.916182
  O       0.074000     -0.941047     -1.051049
  C      -0.997498     -1.560500     -1.774605
  C      -2.154676     -1.787277     -0.846607
  O      -2.793145     -0.529118     -0.578107
  C      -3.863380     -0.671821      0.356244
  C      -4.461378      0.703789      0.559653
  O      -5.533813      0.557460      1.489483
  C      -6.170878      1.813775      1.749637
  H       4.739798      1.467788      2.602807
  H       5.441065      2.444244      1.235373
  H       6.487697      1.935062      2.579001
  H       5.524062     -0.559496     -0.529945
  H       4.744599      0.989167     -0.338360
  H       4.020133     -1.541904      1.351666
  H       3.157719      0.016708      1.405709
  H       1.947535      0.704029     -0.413063
  H       3.031009      0.403161     -1.792001
  H       0.860841      0.129638     -2.666363
  H       1.497149     -1.515955     -2.472051
  H      -1.311230     -0.915162     -2.613430
  H      -0.674430     -2.525920     -2.197173
  H      -1.803925     -2.236631      0.097685
  H      -2.869694     -2.480986     -1.317348
  H      -3.493060     -1.073622      1.314431
  H      -4.628111     -1.366009     -0.031731
  H      -3.698978      1.399319      0.950147
  H      -4.830031      1.105800     -0.399509
  H      -6.976819      1.633224      2.466626
  H      -5.460419      2.536659      2.179130
  H      -6.596138      2.240350      0.828178
37
Coordinates from ORCA-job TEGDME_anion_cpcm_200_moread E -770.163738065297
  C       5.629673      1.779779      1.911289
  O       5.964378      0.426452      1.389161
  C       4.989468     -0.017264      0.313432
  C       3.735296     -0.640954      0.868170
  O       2.856960     -1.180273     -0.286210
  C       2.311196     -0.120796     -1.109384
  C       1.170087     -0.637249     -1.933709
  O       0.053707     -0.962941     -1.083958
  C      -1.017186     -1.553745     -1.840311
  C      -2.189729     -1.787599     -0.939715
  O      -2.779133     -0.518980     -0.594661
  C      -3.874013     -0.683582      0.313045
  C      -4.422326      0.697240      0.594018
  O      -5.517522      0.530046      1.499393
  C      -6.110110      1.796804      1.826982
  H       4.688311      1.715063      2.489163
  H       5.531730      2.478532      1.060048
  H       6.454012      2.121639      2.544226
  H       5.541436     -0.710491     -0.342641
  H       4.790618      0.867596     -0.322323
  H       3.910043     -1.529714      1.485363
  H       3.119003      0.065019      1.445568
  H       1.966921      0.704595     -0.456842
  H       3.065777      0.300336     -1.793539
  H       0.867142      0.127104     -2.674201
  H       1.481689     -1.527383     -2.508192
  H      -1.303402     -0.888012     -2.673236
  H      -0.699521     -2.514792     -2.277276
  H      -1.876605     -2.311453     -0.020905
  H      -2.928766     -2.416498     -1.461798
  H      -3.533786     -1.161420      1.247100
  H      -4.653997     -1.323141     -0.133537
  H      -3.644432      1.339097      1.041395
  H      -4.762402      1.174545     -0.340707
  H      -6.936331      1.607766      2.518642
  H      -5.377983      2.460719      2.311539
  H      -6.500201      2.293954      0.925700
37
Coordinates from ORCA-job TEGDME_anion_cpcm_200_moread E -770.173822039910
  C       5.785668      1.882789      1.938205
  O       6.086775      0.471377      1.482006
  C       5.038921     -0.036195      0.396772
  C       3.784373     -0.621071      0.913392
  O       2.828323     -1.215379     -0.292416
  C       2.281402     -0.172621     -1.141953
  C       1.129072     -0.669081     -1.965635
  O       0.004066     -0.988058     -1.119808
  C      -1.073690     -1.553947     -1.884903
  C      -2.251441     -1.788698     -0.990034
  O      -2.821116     -0.520279     -0.613233
  C      -3.922970     -0.693042      0.285615
  C      -4.453967      0.687089      0.601074
  O      -5.555092      0.515051      1.500569
  C      -6.126814      1.783215      1.854774
  H       4.843016      1.866822      2.505720
  H       5.702654      2.515246      1.036477
  H       6.609779      2.239459      2.562220
  H       5.597879     -0.758626     -0.213601
  H       4.870102      0.849089     -0.242214
  H       3.916416     -1.516266      1.529631
  H       3.157296      0.096762      1.460320
  H       1.954688      0.671383     -0.502671
  H       3.044711      0.225783     -1.835228
  H       0.818926      0.104570     -2.699263
  H       1.419587     -1.557630     -2.550981
  H      -1.345373     -0.876682     -2.712547
  H      -0.764808     -2.514908     -2.329527
  H      -1.954664     -2.340897     -0.083562
  H      -3.001461     -2.390127     -1.529151
  H      -3.590295     -1.199906      1.206127
  H      -4.707324     -1.310634     -0.181913
  H      -3.671085      1.307069      1.068200
  H      -4.787412      1.193157     -0.319831
  H      -6.957341      1.590035      2.538818
  H      -5.383999      2.420648      2.356513
  H      -6.504801      2.304504      0.963123
37
Coordinates from ORCA-job TEGDME_anion_cpcm_200_moread E -770.181606422765
  C       5.875938      1.920976      2.001754
  O       6.169669      0.513546      1.532546
  C       5.068728     -0.012184      0.436065
  C       3.821057     -0.605203      0.907825
  O       2.810992     -1.230822     -0.342294
  C       2.249493     -0.201134     -1.183566
  C       1.087828     -0.693566     -2.004498
  O      -0.030921     -1.010544     -1.155652
  C      -1.112688     -1.572098     -1.907223
  C      -2.286914     -1.803800     -0.999993
  O      -2.849887     -0.538391     -0.622999
  C      -3.942366     -0.700519      0.283489
  C      -4.468318      0.683269      0.598688
  O      -5.561113      0.525966      1.506451
  C      -6.122864      1.793458      1.857788
  H       4.947624      1.906025      2.584765
  H       5.770341      2.551533      1.103537
  H       6.709280      2.270596      2.616213
  H       5.640839     -0.730114     -0.162502
  H       4.900487      0.887502     -0.177881
  H       3.947017     -1.513841      1.504137
  H       3.178076      0.101517      1.448622
  H       1.922229      0.642383     -0.544100
  H       3.008753      0.198439     -1.883571
  H       0.768361      0.081628     -2.733863
  H       1.371293     -1.583193     -2.590101
  H      -1.390738     -0.896278     -2.733060
  H      -0.807856     -2.535035     -2.351100
  H      -1.982345     -2.354966     -0.096350
  H      -3.042833     -2.405089     -1.531429
  H      -3.603509     -1.203189      1.203487
  H      -4.732716     -1.316850     -0.174550
  H      -3.678879      1.301138      1.056217
  H      -4.807031      1.185201     -0.321974
  H      -6.947060      1.602828      2.548872
  H      -5.373632      2.429688      2.350351
  H      -6.506336      2.311127      0.966985
37
Coordinates from ORCA-job TEGDME_anion_cpcm_200_moread E -770.191967450274
  C       5.895453      1.950471      2.113813
  O       6.206055      0.589580      1.641413
  C       5.074756      0.043647      0.499485
  C       3.823677     -0.569631      0.883249
  O       2.757044     -1.245495     -0.447219
  C       2.198359     -0.242523     -1.269780
  C       1.029141     -0.740311     -2.094866
  O      -0.071714     -1.054412     -1.242323
  C      -1.158748     -1.617756     -1.955101
  C      -2.318038     -1.840465     -1.011515
  O      -2.864270     -0.582171     -0.638618
  C      -3.924970     -0.711656      0.294212
  C      -4.435167      0.683801      0.602427
  O      -5.498031      0.565669      1.536793
  C      -6.037573      1.830284      1.882417
  H       4.971580      1.939711      2.698537
  H       5.779001      2.600723      1.235985
  H       6.724732      2.286651      2.739707
  H       5.692863     -0.660724     -0.063413
  H       4.911948      0.959705     -0.083934
  H       3.940527     -1.495040      1.453238
  H       3.144494      0.121281      1.396814
  H       1.853677      0.602956     -0.642976
  H       2.956027      0.157352     -1.974364
  H       0.703269      0.032164     -2.820891
  H       1.316349     -1.634971     -2.670397
  H      -1.464276     -0.951075     -2.777853
  H      -0.862004     -2.585488     -2.394901
  H      -1.981915     -2.384073     -0.115229
  H      -3.087516     -2.448591     -1.515712
  H      -3.566565     -1.197065      1.215733
  H      -4.735590     -1.326919     -0.128181
  H      -3.623980      1.297886      1.024841
  H      -4.790575      1.169416     -0.320386
  H      -6.840933      1.647545      2.598025
  H      -5.273007      2.470318      2.345008
  H      -6.444080      2.339207      0.997049
37
Coordinates from ORCA-job TEGDME_anion_cpcm_200_moread E -770.199653566067
  C       5.865762      2.058271      2.129742
  O       6.225413      0.695659      1.801144
  C       5.086538      0.040796      0.604659
  C       3.829021     -0.529227      0.951982
  O       2.675602     -1.330481     -0.461158
  C       2.178106     -0.350477     -1.318978
  C       1.006764     -0.819073     -2.161296
  O      -0.110149     -1.109687     -1.319709
  C      -1.210921     -1.629818     -2.041443
  C      -2.371544     -1.844833     -1.100791
  O      -2.863161     -0.584320     -0.665701
  C      -3.928591     -0.713026      0.262128
  C      -4.379524      0.686502      0.635254
  O      -5.444380      0.568028      1.567262
  C      -5.932035      1.836195      1.976493
  H       4.897768      2.090523      2.646860
  H       5.803888      2.652872      1.206146
  H       6.637574      2.459619      2.793094
  H       5.770102     -0.685464      0.158455
  H       4.984348      0.943539     -0.010340
  H       3.872374     -1.450430      1.533280
  H       3.103522      0.180625      1.357113
  H       1.845846      0.543087     -0.746583
  H       2.953940      0.004570     -2.034148
  H       0.708288     -0.034359     -2.885028
  H       1.277440     -1.720167     -2.737648
  H      -1.504011     -0.942122     -2.852986
  H      -0.943963     -2.598429     -2.499418
  H      -2.052649     -2.446235     -0.234360
  H      -3.165344     -2.399751     -1.628583
  H      -3.591129     -1.254395      1.160696
  H      -4.765056     -1.274153     -0.185688
  H      -3.541596      1.245951      1.082167
  H      -4.715219      1.228312     -0.263871
  H      -6.741604      1.653241      2.685754
  H      -5.142016      2.422962      2.467351
  H      -6.319404      2.405694      1.119234
37
Coordinates from ORCA-job TEGDME_anion_cpcm_200_moread E -770.203916901077
  C       5.730846      2.050843      2.202023
  O       6.174113      0.761449      1.861474
  C       5.089376      0.084329      0.596858
  C       3.833801     -0.502120      0.938171
  O       2.654789     -1.374094     -0.532810
  C       2.175791     -0.402083     -1.379792
  C       0.997419     -0.876067     -2.222970
  O      -0.112121     -1.150723     -1.373538
  C      -1.227229     -1.658974     -2.072559
  C      -2.375072     -1.860292     -1.107826
  O      -2.845298     -0.597699     -0.668828
  C      -3.891253     -0.705556      0.278764
  C      -4.320371      0.702612      0.651901
  O      -5.364972      0.604299      1.603492
  C      -5.833438      1.875280      2.016327
  H       4.737680      2.041042      2.677875
  H       5.676867      2.706835      1.318107
  H       6.444497      2.469111      2.922165
  H       5.824953     -0.618710      0.206865
  H       4.999131      0.997097      0.001629
  H       3.865256     -1.432717      1.501487
  H       3.060831      0.191287      1.270758
  H       1.832690      0.504315     -0.832809
  H       2.943863     -0.050135     -2.107699
  H       0.710577     -0.094424     -2.950146
  H       1.268030     -1.787292     -2.783942
  H      -1.534104     -0.969622     -2.877562
  H      -0.981507     -2.631508     -2.534175
  H      -2.038489     -2.464810     -0.250020
  H      -3.181664     -2.412681     -1.618713
  H      -3.545919     -1.242631      1.177111
  H      -4.745320     -1.258521     -0.145704
  H      -3.464278      1.253610      1.074611
  H      -4.664870      1.239910     -0.246834
  H      -6.629225      1.701436      2.742932
  H      -5.030718      2.460679      2.488027
  H      -6.234663      2.446524      1.166439
37
Coordinates from ORCA-job TEGDME_anion_cpcm_200_moread E -770.207599729476
  C       5.651165      2.078460      2.146739
  O       6.185166      0.811165      1.864880
  C       5.136726      0.053682      0.577288
  C       3.904152     -0.484103      1.005395
  O       2.644858     -1.456255     -0.484581
  C       2.208990     -0.472743     -1.350206
  C       1.024369     -0.913338     -2.200022
  O      -0.105938     -1.167034     -1.354513
  C      -1.232285     -1.630023     -2.087833
  C      -2.393605     -1.828818     -1.151264
  O      -2.832047     -0.561455     -0.661834
  C      -3.910774     -0.688831      0.258420
  C      -4.310365      0.711498      0.678924
  O      -5.385235      0.586171      1.603412
  C      -5.837410      1.860241      2.059402
  H       4.624068      2.030451      2.560569
  H       5.615961      2.741273      1.259769
  H       6.282302      2.571049      2.903510
  H       5.902039     -0.650356      0.254186
  H       5.075607      0.947724     -0.046290
  H       3.895304     -1.408033      1.574066
  H       3.097956      0.207105      1.233018
  H       1.895214      0.464721     -0.831818
  H       2.979175     -0.146024     -2.091004
  H       0.769397     -0.117365     -2.923035
  H       1.272329     -1.827478     -2.768321
  H      -1.505768     -0.912761     -2.881436
  H      -1.010380     -2.596778     -2.572532
  H      -2.096236     -2.481107     -0.312962
  H      -3.207986     -2.331935     -1.698662
  H      -3.603150     -1.275787      1.139720
  H      -4.766176     -1.201577     -0.212107
  H      -3.453569      1.225720      1.145671
  H      -4.621583      1.297117     -0.202205
  H      -6.656354      1.683944      2.760951
  H      -5.032408      2.407057      2.572671
  H      -6.203510      2.474425      1.223125
37
Coordinates from ORCA-job TEGDME_anion_cpcm_200_moread E -770.209063205230
  C       5.591192      2.019575      2.152009
  O       6.220874      0.839550      1.762698
  C       5.194262      0.076351      0.480146
  C       4.010309     -0.494960      0.987650
  O       2.699699     -1.489169     -0.501652
  C       2.233777     -0.484375     -1.319744
  C       1.036402     -0.913962     -2.163911
  O      -0.090700     -1.163588     -1.314196
  C      -1.220774     -1.614744     -2.049565
  C      -2.384750     -1.813927     -1.114781
  O      -2.836199     -0.545208     -0.641372
  C      -3.919816     -0.673373      0.272481
  C      -4.340082      0.727298      0.672567
  O      -5.420453      0.599439      1.589598
  C      -5.894727      1.872975      2.023196
  H       4.585373      1.861549      2.590340
  H       5.466046      2.753518      1.329877
  H       6.197527      2.516451      2.927880
  H       5.977056     -0.595632      0.133488
  H       5.082529      0.972081     -0.131758
  H       4.051365     -1.437348      1.522050
  H       3.175209      0.155840      1.224185
  H       1.915893      0.431696     -0.767161
  H       2.982263     -0.119888     -2.065480
  H       0.786177     -0.113943     -2.883879
  H       1.278037     -1.829037     -2.732285
  H      -1.490335     -0.887850     -2.835258
  H      -1.003621     -2.577552     -2.543692
  H      -2.083940     -2.453933     -0.268571
  H      -3.193533     -2.328940     -1.659209
  H      -3.613272     -1.246023      1.163443
  H      -4.765870     -1.201448     -0.197980
  H      -3.493242      1.258384      1.138468
  H      -4.651449      1.297479     -0.218625
  H      -6.716372      1.694564      2.721040
  H      -5.101699      2.439053      2.534106
  H      -6.263154      2.469097      1.174984
37
Coordinates from ORCA-job TEGDME_anion_cpcm_200_moread E -770.210241580114
  C       5.542158      1.986050      2.121825
  O       6.227779      0.866390      1.648648
  C       5.212734      0.078941      0.415996
  C       4.069570     -0.506591      1.003521
  O       2.729830     -1.511567     -0.480554
  C       2.253964     -0.489494     -1.271537
  C       1.054947     -0.900057     -2.122431
  O      -0.075704     -1.153414     -1.279417
  C      -1.203272     -1.593276     -2.026337
  C      -2.374234     -1.798219     -1.100947
  O      -2.834370     -0.530514     -0.632471
  C      -3.923387     -0.663195      0.273807
  C      -4.358042      0.735293      0.666326
  O      -5.441868      0.602340      1.578330
  C      -5.930553      1.873397      2.001452
  H       4.572089      1.745542      2.597141
  H       5.331991      2.743887      1.340118
  H       6.151047      2.492003      2.888914
  H       5.995124     -0.585481      0.051714
  H       5.055228      0.950221     -0.221877
  H       4.154282     -1.455835      1.520708
  H       3.220082      0.117869      1.255972
  H       1.935001      0.407859     -0.689918
  H       3.001147     -0.102093     -2.006546
  H       0.811105     -0.092713     -2.837124
  H       1.295989     -1.810580     -2.697945
  H      -1.464562     -0.853609     -2.802564
  H      -0.983456     -2.549072     -2.532375
  H      -2.076901     -2.433810     -0.250472
  H      -3.178788     -2.314865     -1.649958
  H      -3.618719     -1.230999      1.168524
  H      -4.761622     -1.199220     -0.201814
  H      -3.518876      1.276166      1.134861
  H      -4.670483      1.299243     -0.228498
  H      -6.753418      1.690111      2.696721
  H      -5.144822      2.449821      2.512221
  H      -6.300987      2.459470      1.147072
37
Coordinates from ORCA-job TEGDME_anion_cpcm_200_moread E -770.212840894482
  C       5.548555      1.924765      2.062661
  O       6.238028      0.888938      1.413683
  C       5.199082      0.094775      0.328613
  C       4.134014     -0.509682      1.055126
  O       2.759555     -1.525163     -0.422173
  C       2.273564     -0.478633     -1.174640
  C       1.080276     -0.858121     -2.046494
  O      -0.058529     -1.127441     -1.223903
  C      -1.174648     -1.558564     -1.991214
  C      -2.357817     -1.778896     -1.082556
  O      -2.839746     -0.515696     -0.627119
  C      -3.933231     -0.656249      0.269453
  C      -4.398263      0.737914      0.643408
  O      -5.483042      0.598171      1.551116
  C      -6.000523      1.862333      1.951718
  H       4.679180      1.578475      2.644682
  H       5.182414      2.702684      1.365184
  H       6.227948      2.425856      2.766910
  H       5.944609     -0.577043     -0.098274
  H       4.947557      0.915410     -0.348454
  H       4.300369     -1.460769      1.548579
  H       3.269268      0.072817      1.346335
  H       1.945810      0.384991     -0.547951
  H       3.028520     -0.056221     -1.881134
  H       0.844030     -0.038273     -2.750811
  H       1.329734     -1.756650     -2.637287
  H      -1.427771     -0.802011     -2.753508
  H      -0.940363     -2.501868     -2.513302
  H      -2.062198     -2.402513     -0.223143
  H      -3.151714     -2.304782     -1.637993
  H      -3.626168     -1.208848      1.172861
  H      -4.757023     -1.212108     -0.208917
  H      -3.572882      1.300986      1.110288
  H      -4.717775      1.284469     -0.259689
  H      -6.821299      1.668745      2.646532
  H      -5.228982      2.462871      2.456419
  H      -6.380537      2.425331      1.086079
37
Coordinates from ORCA-job TEGDME_anion_cpcm_200_moread E -770.214689796878
  C       5.647477      1.876604      1.859847
  O       6.144408      0.902664      0.942202
  C       5.054344      0.082617      0.226351
  C       4.198758     -0.508130      1.246477
  O       2.784081     -1.558774     -0.248262
  C       2.302984     -0.464868     -0.936132
  C       1.138365     -0.760121     -1.871784
  O      -0.029004     -1.077520     -1.118880
  C      -1.107992     -1.469260     -1.953642
  C      -2.330807     -1.733212     -1.106231
  O      -2.836219     -0.487703     -0.634144
  C      -3.953956     -0.655040      0.219897
  C      -4.452793      0.724718      0.605579
  O      -5.557352      0.561060      1.480272
  C      -6.106870      1.805740      1.879766
  H       5.042600      1.438211      2.654703
  H       5.040484      2.630746      1.333940
  H       6.500442      2.383951      2.313667
  H       5.665371     -0.655435     -0.303803
  H       4.575720      0.739182     -0.513146
  H       4.524539     -1.436525      1.703083
  H       3.305753     -0.013651      1.597354
  H       1.955001      0.328295     -0.229823
  H       3.095122      0.011032     -1.561399
  H       0.923873      0.097529     -2.540518
  H       1.416278     -1.618811     -2.508709
  H      -1.330217     -0.663464     -2.673713
  H      -0.835750     -2.374720     -2.521092
  H      -2.064344     -2.372794     -0.249946
  H      -3.106585     -2.236946     -1.705523
  H      -3.667927     -1.221032      1.122118
  H      -4.753279     -1.211375     -0.298587
  H      -3.650650      1.292330      1.106490
  H      -4.758131      1.281440     -0.296324
  H      -6.939545      1.582134      2.550903
  H      -5.358117      2.412652      2.410997
  H      -6.476060      2.368476      1.009100
37
Coordinates from ORCA-job TEGDME_anion_cpcm_200_moread E -770.217795155295
  C       5.645931      1.892887      1.976806
  O       6.210595      0.907469      1.125356
  C       5.121835      0.108474      0.294421
  C       4.162522     -0.493566      1.196045
  O       2.779894     -1.539008     -0.367428
  C       2.282057     -0.464827     -1.070148
  C       1.100578     -0.798159     -1.973222
  O      -0.049051     -1.097510     -1.182689
  C      -1.148830     -1.516086     -1.976786
  C      -2.344767     -1.762173     -1.088838
  O      -2.848122     -0.507496     -0.637529
  C      -3.942089     -0.659439      0.251658
  C      -4.437117      0.727941      0.613194
  O      -5.517216      0.580350      1.522017
  C      -6.062837      1.833961      1.905168
  H       4.950532      1.474220      2.711957
  H       5.108963      2.662799      1.396566
  H       6.459959      2.384479      2.518215
  H       5.772320     -0.614374     -0.205626
  H       4.735307      0.827183     -0.435908
  H       4.421039     -1.438738      1.659710
  H       3.261697      0.019951      1.499369
  H       1.937179      0.350791     -0.387456
  H       3.045984      0.003347     -1.735171
  H       0.869520      0.040897     -2.658470
  H       1.365173     -1.674659     -2.591613
  H      -1.395932     -0.735561     -2.716754
  H      -0.893041     -2.439384     -2.523244
  H      -2.050540     -2.378615     -0.224200
  H      -3.128591     -2.292168     -1.654164
  H      -3.628946     -1.198964      1.161064
  H      -4.752344     -1.233897     -0.228458
  H      -3.623998      1.312148      1.075916
  H      -4.768817      1.258739     -0.294972
  H      -6.876439      1.626226      2.604155
  H      -5.304147      2.458636      2.400342
  H      -6.458258      2.374125      1.031805
37
Coordinates from ORCA-job TEGDME_anion_cpcm_200_moread E -770.221542646621
  C       5.662555      1.892444      1.969758
  O       6.210526      0.872374      1.153283
  C       5.133191      0.091945      0.377435
  C       4.124981     -0.458044      1.267360
  O       2.765964     -1.513585     -0.412034
  C       2.279194     -0.445801     -1.126421
  C       1.093097     -0.786970     -2.023076
  O      -0.052008     -1.081121     -1.222382
  C      -1.158026     -1.513277     -2.000505
  C      -2.338923     -1.763043     -1.094619
  O      -2.851211     -0.509353     -0.648606
  C      -3.926423     -0.664278      0.263416
  C      -4.432843      0.721613      0.613911
  O      -5.490234      0.571783      1.549089
  C      -6.048009      1.823412      1.925370
  H       4.956280      1.504538      2.715415
  H       5.140892      2.654768      1.365646
  H       6.491779      2.378033      2.495092
  H       5.755576     -0.676481     -0.089942
  H       4.769951      0.783690     -0.388793
  H       4.334304     -1.408289      1.744734
  H       3.209737      0.065594      1.505056
  H       1.934291      0.385627     -0.460925
  H       3.036355      0.012417     -1.807183
  H       0.859545      0.046348     -2.713416
  H       1.353809     -1.668467     -2.637171
  H      -1.422859     -0.741656     -2.744221
  H      -0.904152     -2.439551     -2.542982
  H      -2.024880     -2.368103     -0.228460
  H      -3.122041     -2.310521     -1.643957
  H      -3.589542     -1.185462      1.175257
  H      -4.738209     -1.256747     -0.191755
  H      -3.617199      1.323859      1.048647
  H      -4.791348      1.233200     -0.295229
  H      -6.842512      1.615427      2.646081
  H      -5.289570      2.469105      2.393464
  H      -6.472038      2.344567      1.053747
37
Coordinates from ORCA-job TEGDME_anion_cpcm_200_moread E -770.225888312022
  C       5.768533      1.975801      1.850587
  O       6.169089      0.754976      1.220504
  C       5.062648      0.029447      0.626632
  C       3.958806     -0.377096      1.524926
  O       2.722187     -1.481559     -0.429818
  C       2.273233     -0.431208     -1.187095
  C       1.096142     -0.771570     -2.098543
  O      -0.060332     -1.061269     -1.305926
  C      -1.167099     -1.488304     -2.088089
  C      -2.340601     -1.753599     -1.180847
  O      -2.841464     -0.507907     -0.691728
  C      -3.904370     -0.685301      0.234568
  C      -4.393019      0.693627      0.631554
  O      -5.433500      0.520982      1.585036
  C      -5.974862      1.768432      2.008877
  H       5.042274      1.789046      2.652541
  H       5.321957      2.663093      1.114800
  H       6.676712      2.420269      2.264890
  H       5.542263     -0.866372      0.212054
  H       4.697862      0.629022     -0.221912
  H       4.057254     -1.316055      2.059642
  H       3.026586      0.165912      1.602441
  H       1.929354      0.436145     -0.563594
  H       3.041808     -0.000921     -1.878990
  H       0.869237      0.062430     -2.790319
  H       1.352445     -1.653044     -2.715952
  H      -1.437915     -0.714844     -2.828325
  H      -0.916187     -2.410892     -2.638581
  H      -2.025316     -2.387432     -0.335608
  H      -3.129470     -2.282940     -1.739457
  H      -3.555437     -1.233379      1.125905
  H      -4.727047     -1.261081     -0.221970
  H      -3.564246      1.277862      1.066101
  H      -4.765644      1.233555     -0.255047
  H      -6.757714      1.549496      2.739207
  H      -5.203103      2.395338      2.480538
  H      -6.411064      2.319342      1.162084
37
Coordinates from ORCA-job TEGDME_anion_cpcm_200_moread E -770.227038252290
  C       5.671954      2.032978      1.815439
  O       6.145538      0.790838      1.302673
  C       5.064074      0.010333      0.679722
  C       3.955668     -0.395251      1.561259
  O       2.715878     -1.539003     -0.438481
  C       2.286520     -0.485851     -1.197174
  C       1.103603     -0.803428     -2.112589
  O      -0.057869     -1.092276     -1.321914
  C      -1.169825     -1.486649     -2.115992
  C      -2.353127     -1.745106     -1.222127
  O      -2.819740     -0.501181     -0.691622
  C      -3.899415     -0.680191      0.218224
  C      -4.348177      0.699030      0.657880
  O      -5.407058      0.523422      1.592911
  C      -5.912602      1.775283      2.054752
  H       4.893908      1.878607      2.578588
  H       5.258108      2.664637      1.011888
  H       6.532326      2.538170      2.263909
  H       5.584291     -0.871909      0.289142
  H       4.699861      0.600331     -0.177886
  H       4.027189     -1.328848      2.107667
  H       3.020895      0.145562      1.601306
  H       1.962326      0.400729     -0.588784
  H       3.060462     -0.069092     -1.896685
  H       0.886258      0.048859     -2.784170
  H       1.343341     -1.676794     -2.747301
  H      -1.421341     -0.701179     -2.850366
  H      -0.937780     -2.408206     -2.676864
  H      -2.064637     -2.420912     -0.399985
  H      -3.152213     -2.231688     -1.804746
  H      -3.578088     -1.270563      1.092577
  H      -4.733856     -1.213751     -0.266802
  H      -3.506926      1.241047      1.121775
  H      -4.691880      1.282157     -0.212767
  H      -6.713358      1.560483      2.766705
  H      -5.127093      2.358593      2.558183
  H      -6.317214      2.370819      1.222737
37
Coordinates from ORCA-job TEGDME_anion_cpcm_200_moread E -770.227718978330
  C       5.466782      2.087408      1.819844
  O       6.040940      0.869950      1.377443
  C       5.044105      0.030223      0.718533
  C       3.959630     -0.457666      1.591392
  O       2.778082     -1.627292     -0.538009
  C       2.316943     -0.558465     -1.243691
  C       1.115137     -0.848870     -2.149396
  O      -0.037274     -1.148020     -1.347573
  C      -1.163271     -1.503941     -2.137561
  C      -2.349626     -1.746039     -1.242426
  O      -2.778484     -0.501353     -0.685342
  C      -3.865045     -0.665745      0.219587
  C      -4.271429      0.718617      0.685284
  O      -5.339135      0.559110      1.613228
  C      -5.804377      1.818663      2.096234
  H       4.664452      1.914752      2.554799
  H       5.046898      2.669554      0.981561
  H       6.264342      2.670917      2.290403
  H       5.630836     -0.801652      0.316398
  H       4.630716      0.608826     -0.123326
  H       4.053850     -1.400987      2.116222
  H       2.993235      0.027554      1.603062
  H       1.999335      0.313699     -0.609253
  H       3.067422     -0.105064     -1.950965
  H       0.895018      0.028416     -2.786712
  H       1.333226     -1.707293     -2.810276
  H      -1.400190     -0.705798     -2.862875
  H      -0.961505     -2.425677     -2.710459
  H      -2.080146     -2.451047     -0.438648
  H      -3.162146     -2.197757     -1.834871
  H      -3.564685     -1.283089      1.082299
  H      -4.714483     -1.163242     -0.276972
  H      -3.414431      1.224369      1.160525
  H      -4.592625      1.328970     -0.175023
  H      -6.615508      1.618948      2.800426
  H      -5.002412      2.366057      2.613349
  H      -6.184176      2.442964      1.273877
37
Coordinates from ORCA-job TEGDME_anion_cpcm_200_moread E -770.228053953055
  C       5.436077      2.138971      1.767832
  O       5.984682      0.870673      1.436917
  C       4.994689      0.010579      0.776498
  C       3.889862     -0.444863      1.650099
  O       2.763582     -1.665997     -0.528837
  C       2.328862     -0.596137     -1.249155
  C       1.128489     -0.864806     -2.161354
  O      -0.031129     -1.160794     -1.368119
  C      -1.156835     -1.491422     -2.167608
  C      -2.352605     -1.731202     -1.283253
  O      -2.757615     -0.495046     -0.693489
  C      -3.853197     -0.663035      0.198936
  C      -4.233513      0.713914      0.706476
  O      -5.310847      0.549027      1.621735
  C      -5.751270      1.801248      2.142667
  H       4.602962      2.048294      2.480736
  H       5.068848      2.663401      0.870222
  H       6.233245      2.732748      2.224251
  H       5.581420     -0.837768      0.408357
  H       4.592182      0.555980     -0.090715
  H       3.961671     -1.372510      2.207122
  H       2.923177      0.043183      1.614289
  H       2.027543      0.288222     -0.623000
  H       3.096400     -0.165919     -1.952838
  H       0.920599      0.021692     -2.790239
  H       1.340157     -1.719236     -2.829109
  H      -1.378147     -0.680605     -2.883775
  H      -0.963395     -2.408305     -2.751510
  H      -2.103495     -2.464082     -0.498023
  H      -3.172315     -2.148015     -1.891567
  H      -3.571171     -1.314112      1.042910
  H      -4.709404     -1.126088     -0.319121
  H      -3.369709      1.185610      1.204049
  H      -4.536056      1.358263     -0.135747
  H      -6.572215      1.595543      2.833828
  H      -4.940870      2.312407      2.683452
  H      -6.110659      2.460189      1.338168
37
Coordinates from ORCA-job TEGDME_anion_cpcm_200_moread E -770.228280698879
  C       5.343108      2.182259      1.730931
  O       5.887250      0.888565      1.492946
  C       4.927690      0.003310      0.834016
  C       3.800392     -0.415759      1.703213
  O       2.762605     -1.716199     -0.536820
  C       2.350961     -0.647132     -1.273516
  C       1.150944     -0.900043     -2.189711
  O      -0.016432     -1.178563     -1.401459
  C      -1.146507     -1.481094     -2.204596
  C      -2.346604     -1.714392     -1.323363
  O      -2.727067     -0.484923     -0.706729
  C      -3.826248     -0.652343      0.180332
  C      -4.174475      0.716391      0.731000
  O      -5.255441      0.548793      1.640583
  C      -5.665113      1.791920      2.204239
  H       4.486636      2.146538      2.419673
  H       5.014226      2.652581      0.790275
  H       6.131187      2.794688      2.177742
  H       5.526012     -0.858018      0.517974
  H       4.545889      0.505654     -0.066476
  H       3.853840     -1.322996      2.295253
  H       2.832267      0.061910      1.605875
  H       2.062919      0.247771     -0.655603
  H       3.132142     -0.239171     -1.975362
  H       0.959678     -0.011866     -2.821652
  H       1.354045     -1.759720     -2.853444
  H      -1.354321     -0.656945     -2.909619
  H      -0.967402     -2.393405     -2.800344
  H      -2.111177     -2.467899     -0.553399
  H      -3.174965     -2.102446     -1.939212
  H      -3.559600     -1.335619      1.003753
  H      -4.693081     -1.078821     -0.351667
  H      -3.300152      1.151302      1.243789
  H      -4.461535      1.393914     -0.090514
  H      -6.492209      1.581656      2.886773
  H      -4.842912      2.262985      2.763568
  H      -6.006553      2.487119      1.422635
37
Coordinates from ORCA-job TEGDME_anion_cpcm_200_moread E -770.228446409992
  C       5.224907      2.210424      1.737124
  O       5.806572      0.928454      1.513973
  C       4.885792      0.011175      0.849654
  C       3.763518     -0.431612      1.715552
  O       2.801966     -1.768967     -0.593941
  C       2.376082     -0.688202     -1.308799
  C       1.167089     -0.929440     -2.216097
  O       0.002730     -1.198088     -1.421360
  C      -1.136483     -1.482065     -2.217437
  C      -2.332463     -1.708832     -1.328214
  O      -2.702137     -0.478552     -0.708989
  C      -3.801669     -0.638216      0.177907
  C      -4.128429      0.728958      0.745533
  O      -5.213360      0.568527      1.650537
  C      -5.601372      1.808881      2.233096
  H       4.370207      2.161402      2.426409
  H       4.884822      2.657370      0.789453
  H       5.995090      2.849523      2.177400
  H       5.515556     -0.833454      0.551764
  H       4.500971      0.493892     -0.059755
  H       3.837844     -1.334238      2.312448
  H       2.782040      0.013100      1.597763
  H       2.091511      0.191804     -0.669003
  H       3.149785     -0.267402     -2.010654
  H       0.979262     -0.039660     -2.847011
  H       1.359070     -1.791316     -2.880409
  H      -1.340728     -0.649606     -2.913620
  H      -0.971959     -2.391712     -2.821314
  H      -2.095281     -2.463332     -0.559722
  H      -3.166623     -2.092690     -1.938904
  H      -3.544154     -1.334743      0.993073
  H      -4.675971     -1.045037     -0.357359
  H      -3.247931      1.142136      1.265685
  H      -4.402370      1.421588     -0.067774
  H      -6.435019      1.602125      2.908455
  H      -4.772708      2.254409      2.803587
  H      -5.926157      2.523395      1.462037
37
Coordinates from ORCA-job TEGDME_anion_cpcm_200_moread E -770.228616854020
  C       5.140575      2.222775      1.738217
  O       5.760524      0.957779      1.527939
  C       4.868556      0.012551      0.863766
  C       3.741400     -0.438364      1.716166
  O       2.814767     -1.796492     -0.623284
  C       2.389262     -0.708636     -1.331296
  C       1.176057     -0.946582     -2.233782
  O       0.012865     -1.204498     -1.435296
  C      -1.131424     -1.481634     -2.226800
  C      -2.323225     -1.706520     -1.331391
  O      -2.689175     -0.474800     -0.713336
  C      -3.788397     -0.629302      0.174329
  C      -4.098330      0.736591      0.754654
  O      -5.187294      0.581384      1.655021
  C      -5.557821      1.819151      2.253815
  H       4.286049      2.154667      2.426761
  H       4.790302      2.652321      0.786195
  H       5.892193      2.885882      2.175673
  H       5.523289     -0.822165      0.593982
  H       4.496080      0.479410     -0.059215
  H       3.823765     -1.334291      2.322462
  H       2.756471     -0.002961      1.591249
  H       2.108008      0.165277     -0.684048
  H       3.161955     -0.289072     -2.033389
  H       0.992000     -0.059927     -2.870029
  H       1.362771     -1.812733     -2.894231
  H      -1.336625     -0.645400     -2.918068
  H      -0.973476     -2.389528     -2.834813
  H      -2.080588     -2.458635     -0.562235
  H      -3.160259     -2.092445     -1.936782
  H      -3.537641     -1.335312      0.983478
  H      -4.668720     -1.021432     -0.362136
  H      -3.213406      1.132362      1.280883
  H      -4.360471      1.440931     -0.052517
  H      -6.397659      1.616148      2.922586
  H      -4.724846      2.243199      2.834354
  H      -5.867533      2.550298      1.492207
37
Coordinates from ORCA-job TEGDME_anion_cpcm_200_moread E -770.228944204590
  C       4.889759      2.275245      1.719358
  O       5.591906      1.043748      1.604278
  C       4.782441      0.020837      0.943567
  C       3.622605     -0.436087      1.742191
  O       2.832533     -1.876537     -0.686995
  C       2.422550     -0.778924     -1.394973
  C       1.203693     -1.006282     -2.293027
  O       0.038961     -1.233208     -1.489824
  C      -1.116354     -1.484156     -2.274892
  C      -2.302380     -1.698735     -1.369355
  O      -2.638105     -0.467151     -0.734090
  C      -3.737601     -0.605388      0.155472
  C      -3.980232      0.750180      0.790302
  O      -5.080300      0.613443      1.679359
  C      -5.382067      1.838530      2.339836
  H       4.013221      2.189202      2.378742
  H       4.554182      2.633367      0.733058
  H       5.585139      3.001675      2.149905
  H       5.491646     -0.794277      0.769735
  H       4.458429      0.428753     -0.024966
  H       3.701665     -1.301840      2.391382
  H       2.635885     -0.021304      1.569569
  H       2.152973      0.094472     -0.746240
  H       3.200650     -0.376046     -2.098078
  H       1.033985     -0.125835     -2.941856
  H       1.376395     -1.882799     -2.943828
  H      -1.315134     -0.636587     -2.954032
  H      -0.978873     -2.387452     -2.894171
  H      -2.061748     -2.462529     -0.611160
  H      -3.152425     -2.064333     -1.969041
  H      -3.515324     -1.351697      0.936298
  H      -4.638924     -0.936224     -0.387480
  H      -3.078449      1.077392      1.334724
  H      -4.200579      1.499795      0.011812
  H      -6.238938      1.652599      2.991722
  H      -4.531328      2.181789      2.947446
  H      -5.639857      2.626363      1.616341
37
Coordinates from ORCA-job TEGDME_anion_cpcm_200_moread E -770.229185279847
  C       4.417209      2.339950      1.669304
  O       5.215254      1.167593      1.761258
  C       4.564992      0.032877      1.108521
  C       3.339804     -0.444182      1.786266
  O       2.895044     -1.993051     -0.838456
  C       2.496720     -0.877461     -1.530459
  C       1.261171     -1.082602     -2.411792
  O       0.106221     -1.277810     -1.588538
  C      -1.072458     -1.493193     -2.349919
  C      -2.239596     -1.688989     -1.415891
  O      -2.521065     -0.456244     -0.756574
  C      -3.606939     -0.565965      0.153166
  C      -3.743774      0.771123      0.856189
  O      -4.846805      0.672573      1.746124
  C      -5.042107      1.876297      2.482131
  H       3.482920      2.243664      2.243241
  H       4.166386      2.568954      0.621590
  H       5.010514      3.157188      2.089594
  H       5.338929     -0.740673      1.108064
  H       4.349012      0.336210      0.073236
  H       3.384181     -1.258919      2.501490
  H       2.361952     -0.069421      1.504452
  H       2.246837     -0.009671     -0.870481
  H       3.273638     -0.486378     -2.239034
  H       1.100138     -0.203541     -3.065004
  H       1.407286     -1.965561     -3.060609
  H      -1.268174     -0.632922     -3.013725
  H      -0.971665     -2.392005     -2.982157
  H      -1.997319     -2.468852     -0.674860
  H      -3.115087     -2.023852     -1.996370
  H      -3.417902     -1.360688      0.893859
  H      -4.540901     -0.811166     -0.379991
  H      -2.816748      1.002053      1.407374
  H      -3.909736      1.573055      0.117194
  H      -5.911910      1.726123      3.125970
  H      -4.165547      2.108311      3.105538
  H      -5.230477      2.727173      1.810386
37
Coordinates from ORCA-job TEGDME_anion_cpcm_200_moread E -770.229492079899
  C       3.893636      2.350624      1.621749
  O       4.775906      1.271299      1.896810
  C       4.320959      0.042780      1.249631
  C       3.057794     -0.504714      1.791108
  O       3.014365     -2.079079     -1.038832
  C       2.593716     -0.943087     -1.683570
  C       1.327351     -1.124707     -2.527320
  O       0.199846     -1.315593     -1.666082
  C      -1.007679     -1.508802     -2.387749
  C      -2.146170     -1.684061     -1.414733
  O      -2.382198     -0.444423     -0.749468
  C      -3.447728     -0.525118      0.187235
  C      -3.502973      0.801890      0.920713
  O      -4.604023      0.747263      1.817306
  C      -4.716376      1.939754      2.588703
  H       2.911293      2.204068      2.095764
  H       3.746311      2.480114      0.537984
  H       4.359684      3.248956      2.036603
  H       5.146863     -0.657024      1.408264
  H       4.221920      0.261027      0.176100
  H       3.067855     -1.279103      2.550620
  H       2.094689     -0.178719      1.413700
  H       2.364806     -0.092280     -0.995010
  H       3.347107     -0.533971     -2.406869
  H       1.152134     -0.236634     -3.164990
  H       1.442733     -2.001014     -3.190802
  H      -1.210471     -0.644066     -3.043502
  H      -0.943910     -2.407742     -3.024413
  H      -1.893713     -2.467848     -0.681586
  H      -3.046356     -2.003256     -1.965284
  H      -3.277486     -1.343558      0.906008
  H      -4.406022     -0.714854     -0.324757
  H      -2.560147      0.968003      1.468015
  H      -3.627531      1.627781      0.200150
  H      -5.591044      1.829340      3.233873
  H      -3.823716      2.096260      3.212617
  H      -4.851423      2.820495      1.943099
37
Coordinates from ORCA-job TEGDME_anion_cpcm_200_moread E -770.230238667438
  C       3.412928      2.312157      1.570345
  O       4.326431      1.317697      2.016071
  C       4.065690      0.031967      1.376143
  C       2.777449     -0.589431      1.762685
  O       3.151536     -2.109187     -1.252771
  C       2.696203     -0.961254     -1.843098
  C       1.392205     -1.122360     -2.634545
  O       0.306356     -1.333768     -1.723549
  C      -0.930985     -1.528517     -2.393036
  C      -2.031717     -1.687658     -1.374740
  O      -2.238900     -0.436589     -0.718345
  C      -3.274198     -0.498006      0.254412
  C      -3.286442      0.835422      0.978551
  O      -4.373604      0.814486      1.895355
  C      -4.438643      2.016421      2.658974
  H       2.388985      2.107087      1.915029
  H       3.402903      2.385955      0.471149
  H       3.748504      3.263718      1.991886
  H       4.904385     -0.601120      1.681178
  H       4.101010      0.186019      0.288157
  H       2.728796     -1.327159      2.555538
  H       1.844243     -0.289941      1.298626
  H       2.492329     -0.121697     -1.129185
  H       3.413503     -0.523448     -2.588340
  H       1.185161     -0.218236     -3.239917
  H       1.474739     -1.981802     -3.323637
  H      -1.155903     -0.670938     -3.050988
  H      -0.895041     -2.434045     -3.022668
  H      -1.758839     -2.464220     -0.641721
  H      -2.953506     -2.008156     -1.887248
  H      -3.092363     -1.314912      0.971527
  H      -4.251216     -0.676756     -0.224659
  H      -2.330823      0.986295      1.507075
  H      -3.405368      1.657496      0.252753
  H      -5.302432      1.935514      3.322855
  H      -3.529441      2.153985      3.262802
  H      -4.563934      2.894979      2.008422
37
Coordinates from ORCA-job TEGDME_anion_cpcm_200_moread E -770.229984551999
  C       3.606093      2.255180      1.722203
  O       4.524162      1.206676      2.036835
  C       4.262984     -0.018764      1.297713
  C       2.998509     -0.686391      1.710013
  O       3.146627     -2.048415     -1.330269
  C       2.670666     -0.912761     -1.898247
  C       1.333154     -1.039572     -2.636525
  O       0.289295     -1.317769     -1.686202
  C      -0.957154     -1.557279     -2.323192
  C      -2.042099     -1.709754     -1.288953
  O      -2.279380     -0.444130     -0.666476
  C      -3.285790     -0.525178      0.337684
  C      -3.435019      0.861767      0.931366
  O      -4.479992      0.807729      1.899214
  C      -4.683617      2.079541      2.512536
  H       2.580771      2.006657      2.023260
  H       3.602638      2.473202      0.641450
  H       3.925314      3.155240      2.253485
  H       5.121345     -0.672405      1.485342
  H       4.230870      0.186042      0.217676
  H       2.990234     -1.436634      2.492813
  H       2.041328     -0.350078      1.327576
  H       2.506669     -0.049869     -1.185576
  H       3.354725     -0.455600     -2.671755
  H       1.089231     -0.101113     -3.171475
  H       1.380441     -1.858501     -3.375603
  H      -1.208386     -0.729084     -3.009079
  H      -0.908028     -2.481438     -2.925814
  H      -1.757822     -2.459852     -0.533439
  H      -2.962776     -2.060286     -1.784131
  H      -3.000549     -1.249986      1.117067
  H      -4.243466     -0.852751     -0.099844
  H      -2.489542      1.181867      1.398998
  H      -3.683773      1.584825      0.136620
  H      -5.491464      1.965037      3.239446
  H      -3.773841      2.418462      3.029588
  H      -4.972356      2.835386      1.766784
37
Coordinates from ORCA-job TEGDME_anion_cpcm_200_moread E -770.230952791624
  C       3.023027      2.237316      1.501083
  O       3.927211      1.299679      2.079456
  C       3.840574     -0.005682      1.441114
  C       2.559196     -0.707735      1.697404
  O       3.284428     -2.097295     -1.424698
  C       2.801486     -0.946005     -1.977450
  C       1.457346     -1.082343     -2.701934
  O       0.419068     -1.322620     -1.740495
  C      -0.842728     -1.532052     -2.358459
  C      -1.906060     -1.679537     -1.301127
  O      -2.102225     -0.418548     -0.659452
  C      -3.100865     -0.479052      0.351574
  C      -3.135373      0.877831      1.028129
  O      -4.193483      0.855304      1.979409
  C      -4.283650      2.087433      2.690954
  H       1.975840      1.974614      1.704393
  H       3.161014      2.303940      0.410254
  H       3.240081      3.211210      1.947469
  H       4.679259     -0.577125      1.850335
  H       3.990921      0.119201      0.357801
  H       2.466847     -1.418804      2.512224
  H       1.650869     -0.424002      1.175433
  H       2.640067     -0.107995     -1.245531
  H       3.481276     -0.493581     -2.751667
  H       1.218694     -0.159595     -3.265582
  H       1.497619     -1.921443     -3.419563
  H      -1.094676     -0.686441     -3.022186
  H      -0.824801     -2.447012     -2.975671
  H      -1.607755     -2.441266     -0.562525
  H      -2.843122     -2.012860     -1.777148
  H      -2.865809     -1.265674      1.086910
  H      -4.086626     -0.706219     -0.088000
  H      -2.170991      1.081121      1.522301
  H      -3.306247      1.667803      0.277420
  H      -5.119325      1.999979      3.389431
  H      -3.360003      2.289448      3.253449
  H      -4.471082      2.928008      2.006031
37
Coordinates from ORCA-job TEGDME_anion_cpcm_200_moread E -770.231675005241
  C       2.539190      2.158831      1.331960
  O       3.354463      1.294243      2.117485
  C       3.431573     -0.040827      1.545565
  C       2.157807     -0.796010      1.615777
  O       3.445822     -2.052796     -1.556572
  C       2.924350     -0.901638     -2.079075
  C       1.560434     -1.058919     -2.759891
  O       0.556860     -1.306819     -1.765115
  C      -0.722745     -1.532421     -2.339812
  C      -1.747881     -1.672353     -1.244944
  O      -1.926787     -0.403681     -0.614505
  C      -2.893535     -0.449087      0.427236
  C      -2.888428      0.909376      1.101558
  O      -3.928894      0.908466      2.071326
  C      -3.980210      2.140059      2.787450
  H       1.478728      1.873227      1.375098
  H       2.861066      2.161120      0.278948
  H       2.655289      3.163761      1.746379
  H       4.208676     -0.547659      2.125334
  H       3.762871      0.050333      0.498891
  H       1.971109     -1.489737      2.429967
  H       1.315542     -0.534619      0.982186
  H       2.770058     -0.080150     -1.329865
  H       3.571544     -0.431000     -2.868711
  H       1.292305     -0.142662     -3.320535
  H       1.589202     -1.901081     -3.475009
  H      -1.002909     -0.695145     -3.002741
  H      -0.720245     -2.454121     -2.946917
  H      -1.416891     -2.421472     -0.507070
  H      -2.698579     -2.018489     -1.683414
  H      -2.645858     -1.237166      1.157033
  H      -3.896052     -0.663586      0.020010
  H      -1.911165      1.094011      1.577741
  H      -3.057164      1.701251      0.352195
  H      -4.807703      2.069936      3.497549
  H      -3.044440      2.319510      3.337607
  H      -4.157403      2.987315      2.107965
37
Coordinates from ORCA-job TEGDME_anion_cpcm_200_moread E -770.232437245999
  C       1.936896      2.051909      1.099207
  O       2.632578      1.286329      2.078269
  C       2.900627     -0.065803      1.612759
  C       1.683481     -0.902353      1.490696
  O       3.629544     -1.974126     -1.596592
  C       3.065176     -0.840865     -2.116325
  C       1.699676     -1.039532     -2.782995
  O       0.713551     -1.294398     -1.773411
  C      -0.575889     -1.529782     -2.320987
  C      -1.573235     -1.656573     -1.199284
  O      -1.714714     -0.383932     -0.567442
  C      -2.645958     -0.410197      0.506593
  C      -2.575282      0.941663      1.190629
  O      -3.589469      0.969631      2.187164
  C      -3.575239      2.194253      2.916858
  H       0.902744      1.704260      0.964621
  H       2.451226      2.014472      0.126785
  H       1.921595      3.083404      1.461263
  H       3.582647     -0.486922      2.357016
  H       3.417707      0.003319      0.642296
  H       1.401037     -1.583769      2.287731
  H       0.932997     -0.687808      0.735547
  H       2.892319     -0.023693     -1.366887
  H       3.690446     -0.353003     -2.912483
  H       1.405175     -0.136801     -3.352352
  H       1.740188     -1.890102     -3.487532
  H      -0.871680     -0.698748     -2.984955
  H      -0.585950     -2.457725     -2.918301
  H      -1.229460     -2.407097     -0.468573
  H      -2.540225     -1.991556     -1.609745
  H      -2.396563     -1.211470      1.221255
  H      -3.668209     -0.590949      0.133505
  H      -1.579866      1.087646      1.642487
  H      -2.734880      1.745040      0.451532
  H      -4.387822      2.148805      3.645912
  H      -2.620442      2.331075      3.446246
  H      -3.734730      3.055397      2.250580
37
Coordinates from ORCA-job TEGDME_anion_cpcm_200_moread E -770.230432241710
  C       1.274830      1.936096      0.962162
  O       1.896881      1.253755      2.047160
  C       2.399346     -0.061664      1.659001
  C       1.303478     -1.028352      1.402985
  O       3.741378     -1.848896     -1.496078
  C       3.138286     -0.768121     -2.068676
  C       1.813629     -1.035304     -2.789448
  O       0.805601     -1.315463     -1.808026
  C      -0.480409     -1.553547     -2.357291
  C      -1.460081     -1.653683     -1.217366
  O      -1.515432     -0.383535     -0.565885
  C      -2.372645     -0.383596      0.569174
  C      -2.232343      0.975666      1.226853
  O      -3.153027      1.026971      2.310390
  C      -3.074577      2.269311      3.005787
  H       0.330856      1.462247      0.656951
  H       1.941671      1.978141      0.087704
  H       1.062132      2.954601      1.300377
  H       3.028323     -0.383397      2.494529
  H       3.029868      0.065738      0.766994
  H       0.996184     -1.728553      2.171605
  H       0.647263     -0.898800      0.549458
  H       2.894390      0.062764     -1.347637
  H       3.768201     -0.258320     -2.849017
  H       1.506921     -0.146979     -3.375047
  H       1.910726     -1.891192     -3.480860
  H      -0.772310     -0.724558     -3.025704
  H      -0.502528     -2.488019     -2.944403
  H      -1.131218     -2.425246     -0.501123
  H      -2.452752     -1.935748     -1.604650
  H      -2.083128     -1.179688      1.274252
  H      -3.420198     -0.553941      0.270116
  H      -1.199584      1.118594      1.588472
  H      -2.450918      1.770965      0.494563
  H      -3.813376      2.239104      3.810176
  H      -2.073851      2.420187      3.437365
  H      -3.301586      3.112463      2.336222
37
Coordinates from ORCA-job TEGDME_anion_cpcm_200_moread E -770.233207059990
  C       1.794961      2.009020      1.068509
  O       2.451501      1.285636      2.107277
  C       2.831106     -0.058691      1.683585
  C       1.661554     -0.967994      1.566325
  O       3.638894     -1.927722     -1.550840
  C       3.056995     -0.823299     -2.097322
  C       1.710292     -1.041778     -2.797724
  O       0.700337     -1.314832     -1.813709
  C      -0.587526     -1.526944     -2.371846
  C      -1.586851     -1.642721     -1.248418
  O      -1.675370     -0.380343     -0.582133
  C      -2.571486     -0.410747      0.524590
  C      -2.504758      0.951522      1.187549
  O      -3.469732      0.972014      2.234632
  C      -3.464724      2.223534      2.920503
  H       0.813036      1.581936      0.822378
  H       2.404220      2.024340      0.151358
  H       1.654849      3.035461      1.420376
  H       3.538135     -0.415361      2.439534
  H       3.359680      0.023366      0.723523
  H       1.420340     -1.665092      2.359971
  H       0.917930     -0.806476      0.796284
  H       2.861465      0.016808     -1.370026
  H       3.680813     -0.327623     -2.893071
  H       1.421056     -0.134484     -3.363184
  H       1.773428     -1.885636     -3.507279
  H      -0.864904     -0.687250     -3.033377
  H      -0.612708     -2.451664     -2.974076
  H      -1.271055     -2.421995     -0.534622
  H      -2.568320     -1.929193     -1.659432
  H      -2.281597     -1.198815      1.238435
  H      -3.600721     -0.615968      0.187375
  H      -1.493923      1.129882      1.590095
  H      -2.720275      1.740257      0.447270
  H      -4.230156      2.172630      3.698459
  H      -2.486652      2.417054      3.385638
  H      -3.699835      3.051169      2.234479
37
Coordinates from ORCA-job TEGDME_anion_cpcm_200_moread E -770.233423443109
  C       1.745698      1.959983      0.921923
  O       2.311704      1.264833      2.027999
  C       2.698129     -0.088901      1.669090
  C       1.543025     -1.005299      1.501098
  O       3.699811     -1.920264     -1.578060
  C       3.126016     -0.806970     -2.123210
  C       1.759351     -1.023596     -2.785829
  O       0.772546     -1.277002     -1.775926
  C      -0.523492     -1.485073     -2.316685
  C      -1.518989     -1.608204     -1.190054
  O      -1.635338     -0.344691     -0.533115
  C      -2.536733     -0.388998      0.566890
  C      -2.487458      0.969715      1.238676
  O      -3.464688      0.974803      2.272831
  C      -3.474962      2.217749      2.972697
  H       0.778148      1.534209      0.620530
  H       2.420834      1.941276      0.052220
  H       1.595639      2.995002      1.240240
  H       3.344852     -0.430388      2.482509
  H       3.290471     -0.039857      0.740726
  H       1.262709     -1.690788      2.295028
  H       0.824597     -0.848160      0.702536
  H       2.955623      0.036754     -1.400583
  H       3.741725     -0.334368     -2.938559
  H       1.461956     -0.124780     -3.359976
  H       1.803145     -1.877801     -3.485539
  H      -0.809154     -0.646599     -2.975985
  H      -0.552839     -2.409122     -2.919314
  H      -1.189023     -2.379615     -0.474826
  H      -2.494675     -1.916774     -1.599667
  H      -2.245122     -1.178061      1.279375
  H      -3.562737     -0.601566      0.222647
  H      -1.482376      1.151782      1.653588
  H      -2.699342      1.761814      0.500668
  H      -4.251891      2.155379      3.738308
  H      -2.504986      2.410295      3.455157
  H      -3.702175      3.053285      2.293676
37
Coordinates from ORCA-job TEGDME_anion_cpcm_200_moread E -770.234132827293
  C       1.665122      1.969394      0.924206
  O       2.216255      1.285303      2.039713
  C       2.647088     -0.052969      1.697246
  C       1.529332     -1.015981      1.547721
  O       3.647814     -1.947838     -1.507998
  C       3.125388     -0.847933     -2.123031
  C       1.771776     -1.063613     -2.810380
  O       0.770948     -1.279681     -1.810812
  C      -0.525760     -1.451974     -2.354236
  C      -1.522197     -1.573931     -1.227201
  O      -1.622742     -0.319433     -0.556105
  C      -2.491741     -0.381588      0.565352
  C      -2.456615      0.979202      1.233144
  O      -3.388445      0.955670      2.305738
  C      -3.417003      2.200293      2.998632
  H       0.736893      1.498047      0.568403
  H       2.378150      2.009133      0.085766
  H       1.441674      2.984487      1.260595
  H       3.302961     -0.360770      2.515384
  H       3.243846      0.006381      0.768446
  H       1.289805     -1.703919      2.354308
  H       0.815400     -0.917537      0.731362
  H       2.951547      0.025791     -1.441765
  H       3.777695     -0.426138     -2.939305
  H       1.502119     -0.175955     -3.414250
  H       1.820823     -1.936876     -3.486696
  H      -0.795323     -0.600940     -3.003761
  H      -0.574884     -2.369120     -2.966051
  H      -1.196181     -2.358276     -0.524894
  H      -2.503322     -1.867665     -1.635316
  H      -2.159393     -1.160049      1.272385
  H      -3.521902     -0.621706      0.251340
  H      -1.440348      1.189447      1.607240
  H      -2.721619      1.763828      0.504623
  H      -4.155823      2.111207      3.798375
  H      -2.434706      2.433826      3.436149
  H      -3.706630      3.021882      2.326760
37
Coordinates from ORCA-job TEGDME_anion_cpcm_200_moread E -770.234778007605
  C       1.471998      1.927022      0.819719
  O       1.997815      1.313298      1.992804
  C       2.521869     -0.020431      1.738438
  C       1.448570     -1.036819      1.601963
  O       3.660869     -1.954331     -1.454599
  C       3.163065     -0.874524     -2.125326
  C       1.816174     -1.088041     -2.826901
  O       0.797323     -1.255902     -1.837307
  C      -0.500055     -1.409451     -2.383974
  C      -1.492200     -1.526692     -1.253790
  O      -1.569608     -0.281277     -0.561716
  C      -2.429135     -0.355355      0.567834
  C      -2.373374      0.988152      1.268478
  O      -3.305265      0.955050      2.341972
  C      -3.310339      2.183546      3.064470
  H       0.607107      1.379984      0.418676
  H       2.235851      1.992237      0.029356
  H       1.153292      2.934204      1.101155
  H       3.164966     -0.248274      2.593758
  H       3.151213      0.029619      0.834772
  H       1.225522     -1.706707      2.424811
  H       0.774302     -1.016357      0.752718
  H       3.000663      0.031923     -1.479697
  H       3.831967     -0.495952     -2.948250
  H       1.574014     -0.216014     -3.465376
  H       1.858919     -1.983290     -3.473776
  H      -0.756770     -0.553351     -3.032039
  H      -0.563392     -2.325694     -2.997174
  H      -1.174405     -2.325316     -0.562819
  H      -2.480915     -1.798618     -1.658194
  H      -2.098669     -1.153503      1.253559
  H      -3.464132     -0.577937      0.258476
  H      -1.354081      1.171981      1.648458
  H      -2.624921      1.795295      0.560457
  H      -4.049857      2.088960      3.862843
  H      -2.323116      2.387329      3.505614
  H      -3.585264      3.025235      2.411693
37
Coordinates from ORCA-job TEGDME_anion_cpcm_200_moread E -770.235169278865
  C       1.286354      1.869778      0.547686
  O       1.672837      1.364184      1.823545
  C       2.293781      0.049238      1.729662
  C       1.287516     -1.032715      1.595261
  O       3.645558     -2.015371     -1.323921
  C       3.241508     -0.946876     -2.073011
  C       1.899044     -1.117102     -2.793625
  O       0.858929     -1.234585     -1.818190
  C      -0.436958     -1.311036     -2.385998
  C      -1.451851     -1.438628     -1.277454
  O      -1.490466     -0.227244     -0.523566
  C      -2.350402     -0.331954      0.604138
  C      -2.279413      0.983450      1.355069
  O      -3.197389      0.912178      2.438977
  C      -3.194578      2.115602      3.203269
  H       0.556826      1.217054      0.047793
  H       2.159013      1.983525     -0.114148
  H       0.828096      2.848588      0.714553
  H       2.875157     -0.066945      2.649441
  H       2.993769      0.066556      0.878866
  H       1.050496     -1.665327      2.443820
  H       0.669456     -1.100253      0.705591
  H       3.123416      0.003095     -1.480421
  H       3.955761     -0.661780     -2.894337
  H       1.701911     -0.245718     -3.447849
  H       1.916833     -2.022602     -3.427702
  H      -0.648134     -0.419644     -3.002106
  H      -0.529169     -2.198025     -3.037941
  H      -1.180263     -2.284182     -0.623149
  H      -2.444218     -1.647418     -1.710093
  H      -2.029787     -1.159075      1.259812
  H      -3.387940     -0.530749      0.286854
  H      -1.254672      1.148366      1.728851
  H      -2.536725      1.818930      0.682516
  H      -3.920932      1.991125      4.009879
  H      -2.200709      2.307433      3.635196
  H      -3.482657      2.978126      2.583817
37
Coordinates from ORCA-job TEGDME_anion_cpcm_200_moread E -770.235298382035
  C       1.360763      1.920788      0.650256
  O       1.802438      1.389432      1.898901
  C       2.397542      0.069273      1.752500
  C       1.372051     -0.999414      1.648171
  O       3.608379     -2.021620     -1.322766
  C       3.204478     -0.955166     -2.073662
  C       1.862259     -1.123962     -2.795358
  O       0.814686     -1.250093     -1.827013
  C      -0.475191     -1.336707     -2.410259
  C      -1.501791     -1.468475     -1.314276
  O      -1.542690     -0.256051     -0.561673
  C      -2.401509     -0.351875      0.567915
  C      -2.319676      0.968545      1.308561
  O      -3.221975      0.902710      2.406314
  C      -3.207197      2.109035      3.166341
  H       0.600242      1.284049      0.177154
  H       2.204212      2.036824     -0.048129
  H       0.922994      2.901905      0.855297
  H       3.020808     -0.070396      2.641189
  H       3.056217      0.087728      0.869072
  H       1.158925     -1.639033      2.498092
  H       0.730272     -1.060738      0.775069
  H       3.091935     -0.001167     -1.484552
  H       3.918175     -0.676716     -2.897418
  H       1.662537     -0.249440     -3.444101
  H       1.881990     -2.025923     -3.434462
  H      -0.684891     -0.444764     -3.026192
  H      -0.553759     -2.222291     -3.065699
  H      -1.237125     -2.313497     -0.656409
  H      -2.489556     -1.675381     -1.758330
  H      -2.082976     -1.176163      1.227889
  H      -3.440676     -0.547054      0.253791
  H      -1.289638      1.137900      1.665525
  H      -2.588954      1.798818      0.633984
  H      -3.920977      1.987163      3.984627
  H      -2.206837      2.302419      3.582239
  H      -3.505484      2.969337      2.548501
37
Coordinates from ORCA-job TEGDME_anion_cpcm_200_moread E -770.235413083514
  C       1.327399      1.888592      0.589929
  O       1.739437      1.397368      1.864773
  C       2.349178      0.080927      1.774077
  C       1.337708     -1.003094      1.676891
  O       3.638457     -1.996087     -1.330818
  C       3.217372     -0.934751     -2.079105
  C       1.870409     -1.112366     -2.790057
  O       0.823104     -1.222373     -1.819705
  C      -0.464269     -1.328348     -2.406015
  C      -1.492097     -1.464745     -1.312301
  O      -1.539178     -0.251332     -0.562732
  C      -2.406218     -0.342788      0.560292
  C      -2.296484      0.965249      1.318787
  O      -3.218618      0.912651      2.400139
  C      -3.170028      2.101091      3.185820
  H       0.582853      1.233273      0.116519
  H       2.189307      1.991234     -0.087263
  H       0.878683      2.872131      0.756755
  H       2.949007     -0.025135      2.683088
  H       3.030550      0.077268      0.907035
  H       1.124851     -1.634626      2.533119
  H       0.711688     -1.089832      0.794992
  H       3.110405      0.021874     -1.494986
  H       3.918097     -0.660189     -2.914784
  H       1.667942     -0.248302     -3.451710
  H       1.886596     -2.024671     -3.414655
  H      -0.682870     -0.441609     -3.026452
  H      -0.529729     -2.217857     -3.057072
  H      -1.224113     -2.306375     -0.651658
  H      -2.477209     -1.677690     -1.759177
  H      -2.110544     -1.182759      1.210989
  H      -3.447952     -0.509081      0.238085
  H      -1.267849      1.098935      1.694210
  H      -2.529211      1.811419      0.650218
  H      -3.902713      1.990464      3.988805
  H      -2.170642      2.246165      3.623068
  H      -3.423318      2.985371      2.581989
37
Coordinates from ORCA-job TEGDME_anion_cpcm_200_moread E -770.235458743584
  C       1.295228      1.880519      0.542759
  O       1.686914      1.409274      1.831669
  C       2.309001      0.096116      1.773819
  C       1.308828     -0.998263      1.679783
  O       3.631984     -2.021369     -1.318763
  C       3.235709     -0.958295     -2.077921
  C       1.886336     -1.114539     -2.787800
  O       0.837687     -1.207959     -1.816290
  C      -0.449808     -1.306245     -2.403787
  C      -1.480407     -1.449521     -1.312635
  O      -1.533510     -0.239384     -0.558754
  C      -2.399862     -0.337387      0.563966
  C      -2.287724      0.965339      1.331559
  O      -3.205845      0.905589      2.415806
  C      -3.150085      2.085224      3.213539
  H       0.570934      1.209926      0.060289
  H       2.170728      1.990772     -0.115644
  H       0.828228      2.858803      0.689535
  H       2.893338      0.012102      2.695165
  H       3.005387      0.081317      0.918842
  H       1.089723     -1.617415      2.543142
  H       0.695857     -1.104255      0.790552
  H       3.149923      0.005966     -1.503262
  H       3.942250     -0.708006     -2.916967
  H       1.696537     -0.248123     -3.450230
  H       1.888306     -2.028551     -3.410151
  H      -0.666182     -0.413552     -3.016575
  H      -0.514421     -2.189674     -3.062841
  H      -1.212860     -2.292675     -0.653969
  H      -2.463261     -1.663633     -1.763940
  H      -2.104812     -1.182171      1.208661
  H      -3.442093     -0.499824      0.241410
  H      -1.257871      1.096562      1.704030
  H      -2.522816      1.815967      0.669435
  H      -3.879204      1.967983      4.018827
  H      -2.148138      2.222821      3.647349
  H      -3.403999      2.976562      2.620477
37
Coordinates from ORCA-job TEGDME_anion_cpcm_200_moread E -770.235482358747
  C       1.307305      1.897327      0.550618
  O       1.701075      1.417588      1.835484
  C       2.310163      0.098392      1.770800
  C       1.301435     -0.987195      1.670207
  O       3.626578     -2.034967     -1.325526
  C       3.236872     -0.967217     -2.081581
  C       1.886451     -1.115848     -2.790601
  O       0.839504     -1.209632     -1.816647
  C      -0.448955     -1.309917     -2.401587
  C      -1.477846     -1.454912     -1.308571
  O      -1.536244     -0.242953     -0.558011
  C      -2.403939     -0.341035      0.563639
  C      -2.292448      0.961419      1.332063
  O      -3.212528      0.902861      2.414705
  C      -3.154358      2.080971      3.214378
  H       0.570070      1.238607      0.071775
  H       2.179520      1.997269     -0.113863
  H       0.855347      2.881772      0.702965
  H       2.892842      0.004481      2.692302
  H       3.006432      0.081169      0.915919
  H       1.071983     -1.604460      2.532081
  H       0.691208     -1.087475      0.778210
  H       3.156692     -0.004013     -1.504845
  H       3.943958     -0.718564     -2.921190
  H       1.698495     -0.245593     -3.448649
  H       1.884502     -2.027390     -3.416325
  H      -0.668696     -0.417017     -3.013002
  H      -0.511812     -2.192719     -3.061428
  H      -1.206799     -2.295112     -0.647683
  H      -2.459879     -1.674626     -1.759030
  H      -2.110393     -1.186287      1.208368
  H      -3.445859     -0.502599      0.239731
  H      -1.263107      1.091546      1.706101
  H      -2.525310      1.812286      0.669464
  H      -3.884925      1.964780      4.018492
  H      -2.152593      2.214899      3.649754
  H      -3.404740      2.974163      2.622568
37
Coordinates from ORCA-job TEGDME_anion_cpcm_200_moread E -770.235504413544
  C       1.311503      1.913534      0.552459
  O       1.705027      1.433721      1.837378
  C       2.302141      0.109543      1.774879
  C       1.285173     -0.967753      1.668974
  O       3.621533     -2.049908     -1.330435
  C       3.238904     -0.978326     -2.084663
  C       1.887412     -1.117144     -2.793349
  O       0.840392     -1.209471     -1.818333
  C      -0.448221     -1.314512     -2.402574
  C      -1.476271     -1.460098     -1.308990
  O      -1.537371     -0.246649     -0.560869
  C      -2.407617     -0.344304      0.558975
  C      -2.289795      0.954103      1.333266
  O      -3.214802      0.898639      2.411859
  C      -3.146522      2.070954      3.219319
  H       0.560625      1.264747      0.081328
  H       2.181177      1.996203     -0.117720
  H       0.876634      2.906010      0.702076
  H       2.881230      0.010794      2.698172
  H       3.000680      0.086662      0.922022
  H       1.043195     -1.581465      2.530108
  H       0.684668     -1.068752      0.770274
  H       3.166691     -0.015164     -1.506758
  H       3.946443     -0.732467     -2.925286
  H       1.703501     -0.242574     -3.446773
  H       1.879920     -2.026008     -3.422503
  H      -0.671685     -0.422646     -3.014300
  H      -0.507626     -2.197872     -3.061795
  H      -1.203977     -2.298186     -0.645923
  H      -2.457754     -1.682831     -1.759408
  H      -2.120396     -1.194085      1.200552
  H      -3.449903     -0.498142      0.232440
  H      -1.260912      1.074484      1.712115
  H      -2.513077      1.809379      0.672997
  H      -3.881188      1.957902      4.020175
  H      -2.144828      2.190954      3.658937
  H      -3.384904      2.970727      2.632459
37
Coordinates from ORCA-job TEGDME_anion_cpcm_200_moread E -770.235519310333
  C       1.310066      1.928072      0.543912
  O       1.697407      1.454305      1.832932
  C       2.284455      0.125640      1.780712
  C       1.260938     -0.944887      1.669768
  O       3.618880     -2.060155     -1.326944
  C       3.240372     -0.987613     -2.081836
  C       1.889415     -1.121179     -2.792534
  O       0.840182     -1.211088     -1.819508
  C      -0.447202     -1.317985     -2.406268
  C      -1.476959     -1.462371     -1.314488
  O      -1.536177     -0.249389     -0.565385
  C      -2.408218     -0.347069      0.553111
  C      -2.279603      0.944622      1.336596
  O      -3.209115      0.891702      2.411318
  C      -3.128770      2.056196      3.228979
  H       0.548314      1.286762      0.079595
  H       2.180170      1.990188     -0.127934
  H       0.891217      2.928685      0.684516
  H       2.856292      0.026517      2.708423
  H       2.989398      0.094791      0.933058
  H       1.006322     -1.554207      2.530584
  H       0.673620     -1.050123      0.762885
  H       3.171261     -0.024334     -1.503522
  H       3.949682     -0.743256     -2.921469
  H       1.709794     -0.244819     -3.444627
  H       1.879403     -2.029080     -3.422928
  H      -0.670617     -0.426992     -3.019367
  H      -0.504534     -2.202210     -3.064468
  H      -1.207373     -2.301355     -0.651370
  H      -2.458411     -1.682635     -1.766308
  H      -2.128581     -1.203578      1.189063
  H      -3.451533     -0.489891      0.224658
  H      -1.250735      1.050643      1.720282
  H      -2.491051      1.806856      0.681437
  H      -3.867710      1.945829      4.026303
  H      -2.127131      2.159512      3.672986
  H      -3.353470      2.963894      2.648925
37
Coordinates from ORCA-job TEGDME_anion_cpcm_200_moread E -770.235526454113
  C       1.307473      1.938706      0.531055
  O       1.689573      1.474245      1.825111
  C       2.268808      0.142136      1.786115
  C       1.240118     -0.923112      1.672088
  O       3.616935     -2.067679     -1.317510
  C       3.240401     -0.995932     -2.074370
  C       1.891308     -1.127294     -2.788817
  O       0.838570     -1.214889     -1.819828
  C      -0.446729     -1.318581     -2.411548
  C      -1.480522     -1.461143     -1.323633
  O      -1.536324     -0.250073     -0.571197
  C      -2.408151     -0.349117      0.547350
  C      -2.269612      0.936057      1.339477
  O      -3.199764      0.882780      2.413565
  C      -3.110077      2.040350      3.240037
  H       0.538010      1.301432      0.073448
  H       2.178060      1.982515     -0.141605
  H       0.900715      2.945673      0.661169
  H       2.832802      0.045443      2.718828
  H       2.981114      0.102375      0.944588
  H       0.975375     -1.527800      2.533252
  H       0.664550     -1.033269      0.758268
  H       3.170040     -0.032528     -1.495831
  H       3.952631     -0.751638     -2.911310
  H       1.715933     -0.250742     -3.441710
  H       1.881204     -2.035228     -3.419349
  H      -0.665672     -0.427126     -3.025573
  H      -0.504225     -2.202798     -3.069846
  H      -1.216019     -2.302915     -0.661933
  H      -2.461813     -1.676063     -1.778340
  H      -2.133076     -1.211480      1.177367
  H      -3.452692     -0.483232      0.218984
  H      -1.239929      1.030380      1.724390
  H      -2.474040      1.804614      0.690442
  H      -3.850226      1.929936      4.036254
  H      -2.107716      2.131859      3.685046
  H      -3.327033      2.954138      2.666654
37
Coordinates from ORCA-job TEGDME_anion_cpcm_200_moread E -770.235530617484
  C       1.311691      1.934539      0.533708
  O       1.698114      1.470495      1.826807
  C       2.277964      0.138995      1.786768
  C       1.249173     -0.926299      1.673254
  O       3.619256     -2.067803     -1.319188
  C       3.238808     -0.996206     -2.073995
  C       1.889601     -1.127898     -2.787861
  O       0.837002     -1.217370     -1.819295
  C      -0.448144     -1.316744     -2.411862
  C      -1.483070     -1.458165     -1.325005
  O      -1.539468     -0.247118     -0.572576
  C      -2.407760     -0.348340      0.548536
  C      -2.275777      0.940077      1.336285
  O      -3.199095      0.880921      2.416004
  C      -3.116789      2.042080      3.238201
  H       0.541721      1.296370      0.077962
  H       2.180301      1.978824     -0.141447
  H       0.904251      2.941034      0.665063
  H       2.842947      0.042197      2.718845
  H       2.990143      0.099591      0.944801
  H       0.986246     -1.532345      2.534084
  H       0.672932     -1.035484      0.759670
  H       3.165439     -0.034150     -1.492958
  H       3.950569     -0.747737     -2.909936
  H       1.713756     -0.250939     -3.440015
  H       1.879781     -2.035125     -3.419690
  H      -0.663731     -0.424586     -3.025956
  H      -0.508331     -2.200649     -3.070511
  H      -1.219008     -2.299969     -0.663144
  H      -2.464163     -1.673070     -1.780074
  H      -2.124707     -1.206764      1.180443
  H      -3.452204     -0.490947      0.223427
  H      -1.244804      1.044147      1.715096
  H      -2.491925      1.805219      0.686535
  H      -3.850974      1.926171      4.039156
  H      -2.112804      2.145563      3.676896
  H      -3.346942      2.951485      2.663057
37
Coordinates from ORCA-job TEGDME_anion_cpcm_200_moread E -770.235532704161
  C       1.313183      1.934215      0.526585
  O       1.693668      1.472160      1.822134
  C       2.272935      0.140117      1.787080
  C       1.244495     -0.925270      1.671479
  O       3.620078     -2.067344     -1.316137
  C       3.238756     -0.995845     -2.070682
  C       1.890517     -1.129133     -2.785864
  O       0.837149     -1.219777     -1.818416
  C      -0.447666     -1.315339     -2.412244
  C      -1.483891     -1.456777     -1.326523
  O      -1.539225     -0.246914     -0.572158
  C      -2.406179     -0.349006      0.549918
  C      -2.274883      0.939766      1.337319
  O      -3.194915      0.878330      2.419757
  C      -3.113847      2.039964      3.241396
  H       0.545604      1.295258      0.068098
  H       2.184941      1.977803     -0.144535
  H       0.904835      2.940738      0.654948
  H       2.833607      0.045108      2.721951
  H       2.988792      0.098579      0.948385
  H       0.979758     -1.531087      2.531819
  H       0.670628     -1.034762      0.756520
  H       3.162800     -0.034306     -1.489175
  H       3.951154     -0.746076     -2.905619
  H       1.714606     -0.252373     -3.438289
  H       1.882197     -2.036281     -3.417956
  H      -0.660437     -0.421751     -3.025182
  H      -0.509485     -2.198055     -3.072387
  H      -1.221410     -2.300104     -0.665982
  H      -2.464857     -1.669609     -1.782780
  H      -2.121333     -1.206894      1.181771
  H      -3.450754     -0.493046      0.225995
  H      -1.243081      1.046144      1.713066
  H      -2.494927      1.804487      0.688369
  H      -3.845300      1.921865      4.044515
  H      -2.108943      2.146723      3.677183
  H      -3.348569      2.948491      2.666728
37
Coordinates from ORCA-job TEGDME_anion_cpcm_200_moread E -770.235533767740
  C       1.315458      1.935656      0.523177
  O       1.692874      1.474515      1.819962
  C       2.270607      0.141684      1.787956
  C       1.241436     -0.922785      1.670241
  O       3.618926     -2.068667     -1.313801
  C       3.237848     -0.996509     -2.067627
  C       1.890691     -1.130261     -2.784591
  O       0.836483     -1.222784     -1.818241
  C      -0.448083     -1.314940     -2.413157
  C      -1.485281     -1.456482     -1.328313
  O      -1.539655     -0.247529     -0.572535
  C      -2.405305     -0.350296      0.550443
  C      -2.274776      0.939047      1.337106
  O      -3.191219      0.875578      2.422510
  C      -3.111060      2.037896      3.243242
  H       0.548888      1.296523      0.063423
  H       2.188750      1.978758     -0.145945
  H       0.906925      2.942303      0.649990
  H       2.827988      0.047143      2.724864
  H       2.988979      0.098224      0.951612
  H       0.974630     -1.528470      2.529951
  H       0.669931     -1.032234      0.753809
  H       3.160040     -0.035692     -1.485269
  H       3.951137     -0.745492     -2.901434
  H       1.714909     -0.252930     -3.436332
  H       1.883685     -2.036679     -3.417746
  H      -0.658468     -0.419843     -3.024674
  H      -0.511208     -2.196346     -3.074951
  H      -1.224105     -2.300976     -0.668762
  H      -2.466136     -1.667591     -1.785579
  H      -2.118783     -1.207478      1.182503
  H      -3.449990     -0.495806      0.227627
  H      -1.242030      1.048069      1.709439
  H      -2.498987      1.803098      0.688726
  H      -3.839382      1.917827      4.048899
  H      -2.105054      2.148083      3.675604
  H      -3.350664      2.945386      2.668958
