37
Coordinates from ORCA-job TEGDME_anion_cpcm_20_moread E -770.140175891463
  C       5.774851      1.228589      2.111082
  O       6.091665      0.401239      1.018047
  C       5.079890      0.298388      0.047002
  C       3.878755     -0.554644      0.501861
  O       3.056781     -0.958734     -0.564011
  C       2.276725      0.067464     -1.135245
  C       1.125117     -0.565870     -1.909485
  O       0.090122     -0.875393     -1.009651
  C      -0.976222     -1.568493     -1.609330
  C      -2.082253     -1.760374     -0.578498
  O      -2.871382     -0.595043     -0.531429
  C      -3.849864     -0.634914      0.478411
  C      -4.616419      0.682454      0.456521
  O      -5.600564      0.644068      1.462031
  C      -6.361369      1.823163      1.524406
  H       4.996566      0.792596      2.746104
  H       5.446161      2.219560      1.774220
  H       6.690992      1.330496      2.689759
  H       5.547272     -0.191996     -0.811022
  H       4.740860      1.301571     -0.254495
  H       4.257167     -1.477985      0.948434
  H       3.284295     -0.010036      1.250634
  H       1.855899      0.711683     -0.351834
  H       2.882759      0.680147     -1.818068
  H       0.761706      0.133714     -2.678687
  H       1.491080     -1.476338     -2.405372
  H      -1.377820     -0.996639     -2.458549
  H      -0.631269     -2.548451     -1.974567
  H      -1.622322     -1.953632      0.400478
  H      -2.705297     -2.625837     -0.853384
  H      -3.386889     -0.771830      1.466487
  H      -4.548982     -1.468528      0.312273
  H      -3.916445      1.513719      0.627030
  H      -5.076061      0.822231     -0.533340
  H      -7.080142      1.686689      2.329577
  H      -5.729877      2.693839      1.740615
  H      -6.895487      2.003128      0.583083
37
Coordinates from ORCA-job TEGDME_anion_cpcm_20_moread E -770.146492765427
  C       5.773861      1.338395      2.076513
  O       6.079927      0.395448      1.050591
  C       5.052118      0.239849      0.072835
  C       3.862458     -0.597644      0.579780
  O       3.021848     -1.011479     -0.502063
  C       2.282239      0.039500     -1.112501
  C       1.130436     -0.560460     -1.898798
  O       0.080169     -0.895381     -1.006383
  C      -0.986621     -1.575993     -1.645474
  C      -2.108249     -1.785064     -0.647606
  O      -2.857662     -0.584340     -0.542155
  C      -3.863748     -0.653348      0.449139
  C      -4.577918      0.687598      0.475515
  O      -5.590351      0.619921      1.460571
  C      -6.322133      1.828708      1.567762
  H       4.981424      0.965502      2.748592
  H       5.461169      2.303011      1.644025
  H       6.693461      1.494616      2.648206
  H       5.519074     -0.271246     -0.781699
  H       4.714190      1.229265     -0.282479
  H       4.225732     -1.522164      1.049943
  H       3.267750     -0.031327      1.317938
  H       1.871648      0.714324     -0.342519
  H       2.915813      0.628950     -1.793422
  H       0.776717      0.163019     -2.653385
  H       1.490731     -1.458296     -2.429085
  H      -1.369532     -0.982538     -2.493075
  H      -0.645627     -2.551267     -2.031195
  H      -1.673760     -2.055279      0.328923
  H      -2.757758     -2.610159     -0.984113
  H      -3.427553     -0.861485      1.440829
  H      -4.587662     -1.454536      0.219983
  H      -3.854464      1.487743      0.708577
  H      -5.010261      0.897289     -0.518136
  H      -7.071796      1.682114      2.349147
  H      -5.668095      2.670057      1.844925
  H      -6.827575      2.076695      0.621381
37
Coordinates from ORCA-job TEGDME_anion_cpcm_20_moread E -770.151710566018
  C       5.728828      1.511616      2.019133
  O       6.056016      0.393227      1.148554
  C       5.030637      0.134365      0.138706
  C       3.828611     -0.636241      0.690515
  O       2.973428     -1.092935     -0.418320
  C       2.299030     -0.023156     -1.097911
  C       1.151681     -0.584933     -1.899085
  O       0.072495     -0.918058     -1.022528
  C      -0.998225     -1.561779     -1.714108
  C      -2.138938     -1.786147     -0.757213
  O      -2.836209     -0.551465     -0.568866
  C      -3.874916     -0.665859      0.396220
  C      -4.528153      0.696307      0.513828
  O      -5.571690      0.579891      1.472881
  C      -6.257733      1.817578      1.661511
  H       4.887123      1.244025      2.689630
  H       5.471246      2.402544      1.417740
  H       6.622483      1.745563      2.606777
  H       5.522717     -0.441899     -0.663170
  H       4.725551      1.094736     -0.321414
  H       4.133267     -1.549787      1.218889
  H       3.225517     -0.018481      1.378121
  H       1.908449      0.700998     -0.358934
  H       2.974870      0.518515     -1.778010
  H       0.822931      0.156568     -2.649004
  H       1.492851     -1.479615     -2.449909
  H      -1.344465     -0.933369     -2.553861
  H      -0.669724     -2.529796     -2.127859
  H      -1.746116     -2.151156      0.207358
  H      -2.820658     -2.548930     -1.168101
  H      -3.470923     -0.977113      1.375238
  H      -4.622036     -1.415995      0.081950
  H      -3.782782      1.446482      0.831956
  H      -4.929070      1.008670     -0.466643
  H      -7.037981      1.650328      2.410225
  H      -5.573765      2.602650      2.021968
  H      -6.724347      2.162650      0.724821
37
Coordinates from ORCA-job TEGDME_anion_cpcm_20_moread E -770.158090224750
  C       5.802081      1.652426      1.987039
  O       6.143082      0.409390      1.216292
  C       5.057669      0.058258      0.196349
  C       3.864150     -0.657641      0.779737
  O       2.951887     -1.170687     -0.370980
  C       2.304841     -0.086005     -1.090677
  C       1.151479     -0.607905     -1.890475
  O       0.048931     -0.935193     -1.018176
  C      -1.029859     -1.540630     -1.754728
  C      -2.185342     -1.772419     -0.834857
  O      -2.851100     -0.515584     -0.588813
  C      -3.921338     -0.669631      0.350969
  C      -4.538681      0.697315      0.533557
  O      -5.611047      0.538702      1.469213
  C      -6.269026      1.794894      1.712768
  H       4.939521      1.425135      2.649963
  H       5.562510      2.464186      1.270347
  H       6.679703      1.954691      2.568015
  H       5.556331     -0.554203     -0.576721
  H       4.777929      1.005674     -0.312280
  H       4.114843     -1.566401      1.339533
  H       3.251323     -0.012837      1.429335
  H       1.948633      0.668510     -0.360456
  H       2.998086      0.427386     -1.776853
  H       0.833780      0.150831     -2.632083
  H       1.459203     -1.498980     -2.467286
  H      -1.336798     -0.881933     -2.587431
  H      -0.715638     -2.503033     -2.191896
  H      -1.836905     -2.200116      0.121317
  H      -2.884755     -2.486046     -1.299910
  H      -3.543530     -1.054000      1.314224
  H      -4.673761     -1.383139     -0.028143
  H      -3.789057      1.412604      0.914973
  H      -4.916148      1.081586     -0.430269
  H      -7.074184      1.617790      2.433436
  H      -5.568091      2.534580      2.131442
  H      -6.700720      2.202425      0.784611
37
Coordinates from ORCA-job TEGDME_anion_cpcm_20_moread E -770.165847842505
  C       5.895750      1.754330      1.994232
  O       6.250257      0.442498      1.287153
  C       5.092131      0.027191      0.254766
  C       3.916259     -0.648859      0.836125
  O       2.927818     -1.230375     -0.364619
  C       2.292970     -0.145873     -1.107806
  C       1.130896     -0.639614     -1.903678
  O       0.016332     -0.959863     -1.030682
  C      -1.069038     -1.536494     -1.790984
  C      -2.234888     -1.768653     -0.890799
  O      -2.875974     -0.498911     -0.605397
  C      -3.963869     -0.672782      0.319552
  C      -4.557465      0.695963      0.546539
  O      -5.645926      0.517640      1.469500
  C      -6.280188      1.784775      1.747829
  H       5.032516      1.543598      2.653636
  H       5.654477      2.502955      1.217895
  H       6.764301      2.102347      2.560909
  H       5.604297     -0.600373     -0.493228
  H       4.838221      0.969810     -0.267509
  H       4.124308     -1.560252      1.405985
  H       3.284532      0.006966      1.450882
  H       1.964301      0.628645     -0.384716
  H       2.995157      0.346774     -1.802663
  H       0.813791      0.130340     -2.637044
  H       1.409222     -1.528652     -2.497186
  H      -1.348302     -0.859346     -2.617851
  H      -0.764319     -2.495734     -2.241562
  H      -1.917070     -2.235012      0.057011
  H      -2.949568     -2.444820     -1.387012
  H      -3.599809     -1.102671      1.267876
  H      -4.719741     -1.359701     -0.097402
  H      -3.804781      1.385786      0.964412
  H      -4.923320      1.124913     -0.401789
  H      -7.097924      1.604362      2.452879
  H      -5.565445      2.490477      2.198443
  H      -6.689907      2.228614      0.827393
37
Coordinates from ORCA-job TEGDME_anion_cpcm_20_moread E -770.176990918145
  C       6.029071      1.857367      2.052249
  O       6.416243      0.513569      1.383773
  C       5.146894      0.030774      0.325743
  C       4.003533     -0.621510      0.865572
  O       2.898713     -1.302038     -0.409422
  C       2.263931     -0.228601     -1.155399
  C       1.084807     -0.692776     -1.943920
  O      -0.033561     -0.999692     -1.064626
  C      -1.128431     -1.546637     -1.832537
  C      -2.301858     -1.772784     -0.938294
  O      -2.917615     -0.494232     -0.623134
  C      -4.014607     -0.675187      0.294067
  C      -4.589272      0.695302      0.557681
  O      -5.686481      0.512542      1.475413
  C      -6.293568      1.787239      1.777434
  H       5.183494      1.638723      2.711726
  H       5.761473      2.549948      1.246379
  H       6.887577      2.246879      2.601756
  H       5.693149     -0.589753     -0.393736
  H       4.918659      0.978683     -0.178008
  H       4.169970     -1.547497      1.420146
  H       3.333142      0.024846      1.440114
  H       1.963207      0.558495     -0.435353
  H       2.967157      0.249434     -1.863787
  H       0.761614      0.086881     -2.666518
  H       1.326138     -1.583101     -2.547903
  H      -1.385428     -0.856056     -2.652767
  H      -0.834589     -2.504928     -2.291888
  H      -2.006873     -2.264879      0.001162
  H      -3.034866     -2.415139     -1.451464
  H      -3.656725     -1.137731      1.227062
  H      -4.774185     -1.339604     -0.146862
  H      -3.833045      1.363287      0.998314
  H      -4.950734      1.156117     -0.374897
  H      -7.116015      1.606722      2.474047
  H      -5.563262      2.461940      2.245237
  H      -6.687657      2.253399      0.863725
37
Coordinates from ORCA-job TEGDME_anion_cpcm_20_moread E -770.186845239980
  C       5.972957      1.926577      2.141940
  O       6.407644      0.597473      1.556256
  C       5.149774      0.056750      0.400389
  C       3.976960     -0.582609      0.847492
  O       2.832045     -1.325129     -0.489070
  C       2.227212     -0.284411     -1.243496
  C       1.039896     -0.752551     -2.044942
  O      -0.066679     -1.047026     -1.169994
  C      -1.165151     -1.590339     -1.902967
  C      -2.334067     -1.805199     -0.975733
  O      -2.916428     -0.532248     -0.644935
  C      -3.985305     -0.681871      0.293418
  C      -4.534734      0.700240      0.581890
  O      -5.605136      0.555629      1.523043
  C      -6.171036      1.826115      1.843624
  H       5.095944      1.750735      2.749755
  H       5.750741      2.590660      1.311501
  H       6.794492      2.314166      2.742309
  H       5.778251     -0.580505     -0.216027
  H       4.967109      1.000547     -0.106086
  H       4.102251     -1.524014      1.383132
  H       3.264002      0.063673      1.363417
  H       1.913727      0.521058     -0.556884
  H       2.950402      0.163463     -1.955252
  H       0.712085      0.022418     -2.766537
  H       1.281035     -1.652890     -2.628918
  H      -1.438942     -0.907280     -2.720324
  H      -0.874095     -2.553539     -2.353707
  H      -2.018923     -2.304912     -0.050378
  H      -3.093154     -2.430439     -1.471814
  H      -3.611810     -1.148946      1.215655
  H      -4.769271     -1.328154     -0.126949
  H      -3.752581      1.347466      1.002384
  H      -4.910394      1.167131     -0.339652
  H      -6.972107      1.644945      2.559816
  H      -5.415465      2.481071      2.294051
  H      -6.581250      2.301945      0.944682
37
Coordinates from ORCA-job TEGDME_anion_cpcm_20_moread E -770.194014107723
  C       5.855679      1.975531      2.184274
  O       6.326536      0.674180      1.702849
  C       5.126561      0.067692      0.459901
  C       3.906532     -0.543699      0.858094
  O       2.743945     -1.340931     -0.513066
  C       2.194148     -0.328991     -1.299954
  C       1.013105     -0.804638     -2.124929
  O      -0.091732     -1.090261     -1.264646
  C      -1.191921     -1.627016     -1.975504
  C      -2.350095     -1.834783     -1.025235
  O      -2.891789     -0.566818     -0.665775
  C      -3.935579     -0.690334      0.288577
  C      -4.440607      0.704732      0.606136
  O      -5.486147      0.588714      1.563942
  C      -6.009960      1.856307      1.921195
  H       4.917505      1.856182      2.726201
  H       5.707871      2.636038      1.326197
  H       6.621718      2.365023      2.857476
  H       5.824206     -0.607109     -0.028713
  H       4.999022      1.008142     -0.074121
  H       3.984562     -1.487749      1.394506
  H       3.161544      0.123974      1.293239
  H       1.855543      0.515693     -0.670807
  H       2.941847      0.079734     -2.013728
  H       0.699055     -0.030343     -2.850363
  H       1.273172     -1.712022     -2.692117
  H      -1.487836     -0.946090     -2.788922
  H      -0.911731     -2.595097     -2.424308
  H      -2.012472     -2.360915     -0.121040
  H      -3.129691     -2.440242     -1.515091
  H      -3.557722     -1.173241      1.202340
  H      -4.752602     -1.306747     -0.117171
  H      -3.623813      1.319301      1.013310
  H      -4.818702      1.189684     -0.306605
  H      -6.797217      1.673322      2.652965
  H      -5.230720      2.488058      2.367752
  H      -6.432213      2.364720      1.044226
37
Coordinates from ORCA-job TEGDME_anion_cpcm_20_moread E -770.198415972437
  C       5.733822      2.008143      2.201776
  O       6.254239      0.751864      1.793353
  C       5.103833      0.067889      0.492992
  C       3.869300     -0.505928      0.889003
  O       2.676641     -1.374648     -0.509566
  C       2.182646     -0.381244     -1.335486
  C       1.007770     -0.855278     -2.178464
  O      -0.105581     -1.127984     -1.328961
  C      -1.214190     -1.650136     -2.034182
  C      -2.363155     -1.851525     -1.075380
  O      -2.864899     -0.582881     -0.676501
  C      -3.900555     -0.693487      0.283979
  C      -4.354982      0.711259      0.632015
  O      -5.393203      0.606558      1.593146
  C      -5.880008      1.877795      1.991893
  H       4.745651      1.907957      2.682439
  H       5.632789      2.689838      1.339184
  H       6.430075      2.429037      2.938582
  H       5.847949     -0.630933      0.114461
  H       5.020078      1.001641     -0.067940
  H       3.906915     -1.444965      1.434452
  H       3.095626      0.180332      1.230188
  H       1.831804      0.508415     -0.766894
  H       2.945448     -0.007124     -2.056691
  H       0.720236     -0.077286     -2.909917
  H       1.280489     -1.768334     -2.736032
  H      -1.521548     -0.964173     -2.842924
  H      -0.955675     -2.622089     -2.489731
  H      -2.017561     -2.417030     -0.194601
  H      -3.157796     -2.432273     -1.572614
  H      -3.534436     -1.204373      1.189914
  H      -4.746459     -1.273406     -0.122300
  H      -3.508902      1.287794      1.041717
  H      -4.718752      1.225703     -0.273052
  H      -6.668259      1.699675      2.726888
  H      -5.082594      2.481622      2.450479
  H      -6.296755      2.429574      1.135862
37
Coordinates from ORCA-job TEGDME_anion_cpcm_20_moread E -770.200564804498
  C       5.671601      2.007597      2.189095
  O       6.256542      0.807331      1.770451
  C       5.120531      0.062091      0.464597
  C       3.908284     -0.497469      0.917327
  O       2.667409     -1.410701     -0.489321
  C       2.194561     -0.415259     -1.323502
  C       1.017466     -0.876829     -2.172146
  O      -0.104437     -1.143118     -1.326532
  C      -1.219275     -1.647299     -2.043183
  C      -2.371647     -1.846817     -1.093891
  O      -2.853596     -0.576183     -0.667110
  C      -3.904228     -0.688976      0.280620
  C      -4.333799      0.718152      0.646822
  O      -5.388531      0.608969      1.591282
  C      -5.861889      1.884512      2.009834
  H       4.673934      1.863654      2.655980
  H       5.541769      2.730492      1.355774
  H       6.320244      2.469074      2.951973
  H       5.886913     -0.631815      0.121271
  H       5.036400      0.987127     -0.111085
  H       3.944334     -1.437241      1.460039
  H       3.115148      0.184194      1.215362
  H       1.849267      0.492613     -0.773928
  H       2.955049     -0.047620     -2.052301
  H       0.750002     -0.090438     -2.901897
  H       1.288308     -1.789671     -2.733136
  H      -1.518611     -0.951504     -2.847918
  H      -0.976623     -2.618412     -2.509315
  H      -2.038740     -2.442591     -0.226590
  H      -3.169909     -2.407037     -1.609047
  H      -3.562097     -1.224195      1.182801
  H      -4.757818     -1.244732     -0.144735
  H      -3.480720      1.271033      1.076603
  H      -4.671581      1.256512     -0.255426
  H      -6.665342      1.712497      2.731043
  H      -5.062434      2.468942      2.491220
  H      -6.256484      2.463118      1.160053
37
Coordinates from ORCA-job TEGDME_anion_cpcm_20_moread E -770.201720924094
  C       5.643853      1.986750      2.158990
  O       6.292446      0.849169      1.682867
  C       5.152134      0.055237      0.403889
  C       3.984709     -0.504648      0.940834
  O       2.687453     -1.441006     -0.459384
  C       2.216852     -0.434936     -1.283381
  C       1.034360     -0.879971     -2.133130
  O      -0.094919     -1.141181     -1.290639
  C      -1.211268     -1.626814     -2.024950
  C      -2.374600     -1.827883     -1.092007
  O      -2.852186     -0.556978     -0.650701
  C      -3.923946     -0.679390      0.276482
  C      -4.352975      0.725233      0.651747
  O      -5.428198      0.604884      1.575164
  C      -5.905229      1.881518      1.997360
  H       4.668209      1.768775      2.646175
  H       5.439794      2.745218      1.370751
  H       6.269024      2.482560      2.923293
  H       5.927180     -0.622982      0.050952
  H       5.039069      0.966806     -0.185158
  H       4.046158     -1.447439      1.474964
  H       3.178317      0.160254      1.236188
  H       1.883193      0.472959     -0.725809
  H       2.971409     -0.060690     -2.015284
  H       0.780723     -0.085783     -2.859322
  H       1.296172     -1.791472     -2.699874
  H      -1.492800     -0.919220     -2.825295
  H      -0.975536     -2.594104     -2.501893
  H      -2.061428     -2.440874     -0.229551
  H      -3.170302     -2.373778     -1.626048
  H      -3.603167     -1.230005      1.176909
  H      -4.771061     -1.225555     -0.172671
  H      -3.506851      1.270554      1.103658
  H      -4.670385      1.277022     -0.249543
  H      -6.723652      1.710465      2.701698
  H      -5.112482      2.457932      2.498502
  H      -6.280072      2.469375      1.145304
37
Coordinates from ORCA-job TEGDME_anion_cpcm_20_moread E -770.202295345010
  C       5.667026      1.956106      2.124897
  O       6.347575      0.876828      1.562716
  C       5.177890      0.056828      0.337604
  C       4.063595     -0.516427      0.959744
  O       2.710147     -1.458693     -0.423390
  C       2.233038     -0.439046     -1.227007
  C       1.047363     -0.867338     -2.079938
  O      -0.087161     -1.129909     -1.243240
  C      -1.199782     -1.601655     -1.994723
  C      -2.375775     -1.807553     -1.078568
  O      -2.859533     -0.538383     -0.634908
  C      -3.949900     -0.671407      0.270914
  C      -4.394543      0.728597      0.645166
  O      -5.486671      0.597314      1.549273
  C      -5.978710      1.871561      1.962923
  H       4.739477      1.665307      2.659406
  H       5.372009      2.734557      1.388321
  H       6.304703      2.467016      2.868249
  H       5.946468     -0.604996     -0.055950
  H       5.019220      0.956746     -0.256417
  H       4.165850     -1.463223      1.479649
  H       3.251511      0.126384      1.283339
  H       1.907373      0.457322     -0.648208
  H       2.984260     -0.051672     -1.955458
  H       0.799815     -0.065496     -2.799968
  H       1.301961     -1.775119     -2.654562
  H      -1.464268     -0.883312     -2.790254
  H      -0.961913     -2.563958     -2.480223
  H      -2.079203     -2.425914     -0.214977
  H      -3.165657     -2.346932     -1.627495
  H      -3.643250     -1.226601      1.172845
  H      -4.783477     -1.220011     -0.198802
  H      -3.562012      1.278564      1.114880
  H      -4.700404      1.282770     -0.258051
  H      -6.808137      1.695483      2.652372
  H      -5.197536      2.450970      2.477499
  H      -6.341346      2.455291      1.103425
37
Coordinates from ORCA-job TEGDME_anion_cpcm_20_moread E -770.202796641420
  C       5.691416      1.938699      2.107756
  O       6.373408      0.897631      1.471424
  C       5.172809      0.069164      0.302611
  C       4.099881     -0.519872      0.981466
  O       2.715843     -1.469229     -0.398906
  C       2.236904     -0.440937     -1.189210
  C       1.053882     -0.858815     -2.049784
  O      -0.084744     -1.125202     -1.220310
  C      -1.193166     -1.589938     -1.981619
  C      -2.376582     -1.798668     -1.074354
  O      -2.863976     -0.530450     -0.632292
  C      -3.960730     -0.667724      0.264996
  C      -4.416699      0.729507      0.635744
  O      -5.511725      0.594753      1.536320
  C      -6.012953      1.866894      1.941572
  H       4.814146      1.598762      2.689062
  H       5.326026      2.721305      1.411438
  H       6.359380      2.452255      2.819885
  H       5.927707     -0.583657     -0.129745
  H       4.975413      0.958987     -0.293894
  H       4.238324     -1.467922      1.490040
  H       3.282880      0.101613      1.331210
  H       1.911084      0.443952     -0.594623
  H       2.991704     -0.044169     -1.908855
  H       0.808044     -0.052762     -2.765852
  H       1.307409     -1.763569     -2.628937
  H      -1.448065     -0.864857     -2.773443
  H      -0.950873     -2.548969     -2.471265
  H      -2.088063     -2.416436     -0.208344
  H      -3.164306     -2.334747     -1.629456
  H      -3.656484     -1.221263      1.168404
  H      -4.786438     -1.221303     -0.211997
  H      -3.591144      1.286249      1.108867
  H      -4.724416      1.280122     -0.268599
  H      -6.842863      1.686338      2.628770
  H      -5.236485      2.452238      2.455883
  H      -6.376547      2.442021      1.077122
37
Coordinates from ORCA-job TEGDME_anion_cpcm_20_moread E -770.204517573389
  C       5.745301      1.898783      2.032525
  O       6.362485      1.020213      1.117635
  C       5.087878      0.131097      0.209744
  C       4.216866     -0.544586      1.080643
  O       2.733995     -1.529366     -0.307172
  C       2.248281     -0.466075     -1.041473
  C       1.081864     -0.839205     -1.941810
  O      -0.074852     -1.131212     -1.149611
  C      -1.165854     -1.557926     -1.953194
  C      -2.379136     -1.775190     -1.083706
  O      -2.866316     -0.510090     -0.635501
  C      -3.984594     -0.655242      0.231307
  C      -4.459610      0.735173      0.602266
  O      -5.564052      0.596058      1.490808
  C      -6.080485      1.862150      1.881204
  H       5.126121      1.376631      2.770719
  H       5.111860      2.649124      1.531593
  H       6.522223      2.450240      2.577984
  H       5.777844     -0.474853     -0.373251
  H       4.702865      0.965565     -0.373115
  H       4.514867     -1.488468      1.522710
  H       3.382851     -0.032439      1.543603
  H       1.910039      0.369351     -0.388514
  H       3.018808     -0.026740     -1.718412
  H       0.842691     -0.010274     -2.634172
  H       1.340193     -1.724433     -2.547145
  H      -1.383366     -0.800931     -2.724410
  H      -0.911676     -2.502282     -2.464490
  H      -2.123960     -2.403006     -0.216379
  H      -3.162502     -2.286187     -1.667422
  H      -3.695474     -1.214158      1.135637
  H      -4.791522     -1.209925     -0.274168
  H      -3.648693      1.298423      1.090725
  H      -4.767177      1.285392     -0.301395
  H      -6.912932      1.668294      2.560407
  H      -5.312843      2.453900      2.399882
  H      -6.441988      2.422194      1.007035
37
Coordinates from ORCA-job TEGDME_anion_cpcm_20_moread E -770.206543482194
  C       5.739619      1.892122      1.964145
  O       6.265732      1.053851      0.945785
  C       5.001934      0.144129      0.218104
  C       4.230543     -0.553492      1.182322
  O       2.724213     -1.552088     -0.257475
  C       2.256543     -0.472406     -0.977137
  C       1.105437     -0.820388     -1.906718
  O      -0.062845     -1.126971     -1.140477
  C      -1.143201     -1.535484     -1.963664
  C      -2.368645     -1.760805     -1.109663
  O      -2.854868     -0.499669     -0.653571
  C      -3.972766     -0.649998      0.209942
  C      -4.455096      0.736035      0.587630
  O      -5.550516      0.593353      1.485265
  C      -6.073150      1.853194      1.877144
  H       5.277908      1.321546      2.771266
  H       4.998377      2.594142      1.559778
  H       6.569290      2.475492      2.374333
  H       5.632710     -0.471241     -0.421213
  H       4.515718      0.917891     -0.372789
  H       4.603672     -1.480347      1.603388
  H       3.391219     -0.092564      1.686670
  H       1.906623      0.343748     -0.306910
  H       3.046488     -0.025053     -1.625135
  H       0.872273      0.019582     -2.588124
  H       1.372910     -1.694686     -2.523851
  H      -1.348121     -0.761803     -2.721269
  H      -0.880801     -2.470699     -2.487323
  H      -2.123001     -2.394549     -0.244567
  H      -3.151549     -2.259363     -1.704350
  H      -3.680253     -1.210604      1.112039
  H      -4.775793     -1.205802     -0.300230
  H      -3.644870      1.302874      1.072613
  H      -4.776038      1.285201     -0.311726
  H      -6.895906      1.647811      2.564298
  H      -5.305045      2.450920      2.387907
  H      -6.448745      2.406122      1.004650
37
Coordinates from ORCA-job TEGDME_anion_cpcm_20_moread E -770.203174529946
  C       5.669719      1.955921      1.732570
  O       5.957766      1.030738      0.661475
  C       4.758943      0.087523      0.334458
  C       4.158206     -0.577533      1.487188
  O       2.656024     -1.597786     -0.142726
  C       2.265663     -0.479416     -0.840169
  C       1.173072     -0.761135     -1.859786
  O      -0.028710     -1.101537     -1.175140
  C      -1.079118     -1.464651     -2.042894
  C      -2.329359     -1.717206     -1.221259
  O      -2.803731     -0.473667     -0.723457
  C      -3.908756     -0.641057      0.142441
  C      -4.388559      0.730379      0.573189
  O      -5.456149      0.572373      1.494472
  C      -5.974343      1.808813      1.932193
  H       5.511626      1.425878      2.660716
  H       4.790474      2.529956      1.450886
  H       6.560228      2.572747      1.766862
  H       5.246100     -0.631396     -0.327857
  H       4.076166      0.666023     -0.286398
  H       4.657305     -1.443440      1.911690
  H       3.306256     -0.194666      2.034446
  H       1.869294      0.296574     -0.148857
  H       3.119919     -0.029038     -1.396222
  H       0.963732      0.104788     -2.516738
  H       1.476829     -1.608055     -2.499293
  H      -1.264820     -0.649219     -2.760872
  H      -0.794114     -2.373849     -2.599599
  H      -2.096117     -2.378452     -0.374304
  H      -3.117770     -2.174821     -1.840471
  H      -3.602292     -1.225577      1.025029
  H      -4.716922     -1.179643     -0.378656
  H      -3.567660      1.281407      1.058825
  H      -4.739265      1.302233     -0.300481
  H      -6.771186      1.561993      2.635752
  H      -5.195589      2.396704      2.438760
  H      -6.382860      2.378095      1.085313
37
Coordinates from ORCA-job TEGDME_anion_cpcm_20_moread E -770.207269101570
  C       5.692856      1.748680      1.934434
  O       6.054510      1.100050      0.707675
  C       4.930793      0.255398      0.189361
  C       4.356174     -0.490889      1.252816
  O       2.758647     -1.529254     -0.212326
  C       2.284117     -0.456940     -0.939515
  C       1.127792     -0.805681     -1.860169
  O      -0.039950     -1.117524     -1.093367
  C      -1.111396     -1.524413     -1.930928
  C      -2.349680     -1.750194     -1.095140
  O      -2.847365     -0.484517     -0.658157
  C      -3.961878     -0.638915      0.211522
  C      -4.477074      0.743211      0.556615
  O      -5.548741      0.602180      1.486403
  C      -6.100292      1.862076      1.833418
  H       5.528776      1.033638      2.730688
  H       4.794628      2.357322      1.799736
  H       6.512509      2.415632      2.204515
  H       5.479121     -0.331787     -0.545753
  H       4.320850      0.961340     -0.364007
  H       4.837702     -1.394466      1.604893
  H       3.510885     -0.139894      1.825714
  H       1.946742      0.358573     -0.264374
  H       3.072497     -0.025442     -1.597311
  H       0.879417      0.028656     -2.543886
  H       1.391487     -1.680440     -2.476531
  H      -1.298561     -0.744561     -2.684725
  H      -0.833954     -2.455761     -2.453008
  H      -2.120657     -2.368759     -0.216624
  H      -3.126224     -2.250071     -1.696358
  H      -3.650663     -1.171614      1.123064
  H      -4.748588     -1.226132     -0.286549
  H      -3.677597      1.350046      1.007083
  H      -4.839146      1.253377     -0.348790
  H      -6.896740      1.659205      2.550145
  H      -5.336473      2.501347      2.295708
  H      -6.514523      2.356521      0.944813
37
Coordinates from ORCA-job TEGDME_anion_cpcm_20_moread E -770.212517245006
  C       5.795340      1.856818      2.072130
  O       6.216684      1.109967      0.925377
  C       5.012665      0.261714      0.295938
  C       4.244490     -0.493918      1.247716
  O       2.670013     -1.509147     -0.300870
  C       2.215848     -0.463851     -1.069396
  C       1.068095     -0.849790     -1.989092
  O      -0.094877     -1.141183     -1.208563
  C      -1.182359     -1.578372     -2.003829
  C      -2.389556     -1.788075     -1.120049
  O      -2.880341     -0.517623     -0.696465
  C      -3.954973     -0.652562      0.221481
  C      -4.455794      0.736738      0.558570
  O      -5.485428      0.612447      1.533241
  C      -6.027496      1.873428      1.890272
  H       5.505297      1.202063      2.893242
  H       4.955851      2.510369      1.808042
  H       6.651478      2.466107      2.368741
  H       5.610279     -0.350275     -0.384042
  H       4.495271      1.018565     -0.288282
  H       4.632513     -1.433780      1.623345
  H       3.380393     -0.095291      1.762235
  H       1.854072      0.380791     -0.439427
  H       3.005683     -0.051554     -1.738434
  H       0.820473     -0.038716     -2.699820
  H       1.341272     -1.743867     -2.575825
  H      -1.406403     -0.824291     -2.776211
  H      -0.918997     -2.525521     -2.504881
  H      -2.116405     -2.384023     -0.236544
  H      -3.180215     -2.314663     -1.678496
  H      -3.606342     -1.161562      1.134210
  H      -4.764135     -1.250966     -0.227119
  H      -3.634495      1.349138      0.962893
  H      -4.852801      1.228944     -0.343204
  H      -6.792724      1.676126      2.643006
  H      -5.249840      2.524291      2.314081
  H      -6.482535      2.361527      1.017114
37
Coordinates from ORCA-job TEGDME_anion_cpcm_20_moread E -770.215204871914
  C       5.830986      1.860461      2.034121
  O       6.163639      1.126902      0.847671
  C       4.995820      0.275198      0.311666
  C       4.283148     -0.525567      1.300500
  O       2.671952     -1.525050     -0.284624
  C       2.219287     -0.466632     -1.033670
  C       1.073799     -0.832498     -1.969487
  O      -0.092976     -1.137204     -1.200909
  C      -1.178239     -1.563773     -2.003698
  C      -2.388620     -1.780280     -1.124972
  O      -2.884470     -0.513352     -0.698287
  C      -3.960672     -0.651117      0.216147
  C      -4.469701      0.737054      0.546904
  O      -5.497742      0.610326      1.521374
  C      -6.052720      1.867413      1.872318
  H       5.638259      1.194039      2.875201
  H       4.951973      2.488318      1.848549
  H       6.699766      2.487047      2.239673
  H       5.542978     -0.339993     -0.410269
  H       4.391431      0.993880     -0.248927
  H       4.714236     -1.463228      1.635469
  H       3.420595     -0.167393      1.847308
  H       1.850142      0.368400     -0.392383
  H       3.013080     -0.036050     -1.690841
  H       0.831207     -0.007797     -2.666777
  H       1.351759     -1.715526     -2.571407
  H      -1.402285     -0.802256     -2.769453
  H      -0.916853     -2.506418     -2.514409
  H      -2.114057     -2.380802     -0.244365
  H      -3.175041     -2.308396     -1.688040
  H      -3.614269     -1.154664      1.133209
  H      -4.766364     -1.254707     -0.232610
  H      -3.650029      1.355149      0.947177
  H      -4.868218      1.222986     -0.357986
  H      -6.816018      1.667265      2.626780
  H      -5.282415      2.529921      2.292469
  H      -6.513367      2.348344      0.997664
37
Coordinates from ORCA-job TEGDME_anion_cpcm_20_moread E -770.217669462119
  C       5.824118      1.860269      1.994010
  O       6.159598      1.112166      0.824633
  C       5.022367      0.273407      0.312209
  C       4.324088     -0.530857      1.314143
  O       2.686450     -1.542688     -0.266478
  C       2.233564     -0.479503     -1.009165
  C       1.080019     -0.830205     -1.946430
  O      -0.091037     -1.137124     -1.180925
  C      -1.176457     -1.548826     -1.996607
  C      -2.392131     -1.773158     -1.132056
  O      -2.890027     -0.509482     -0.691126
  C      -3.977579     -0.653552      0.211894
  C      -4.476653      0.736875      0.549255
  O      -5.519107      0.601343      1.507742
  C      -6.071508      1.861759      1.869149
  H       5.623596      1.206040      2.851053
  H       4.943075      2.494383      1.811150
  H       6.690097      2.493122      2.205664
  H       5.543666     -0.353369     -0.419981
  H       4.373519      0.977699     -0.230566
  H       4.756624     -1.470895      1.641588
  H       3.462207     -0.166249      1.857920
  H       1.870303      0.365413     -0.371785
  H       3.023205     -0.041067     -1.672909
  H       0.848656      0.007490     -2.632591
  H       1.355337     -1.706064     -2.561127
  H      -1.397225     -0.779378     -2.756758
  H      -0.923804     -2.487429     -2.519651
  H      -2.123994     -2.392144     -0.260685
  H      -3.169385     -2.297719     -1.711601
  H      -3.649274     -1.169793      1.129366
  H      -4.785571     -1.245428     -0.249718
  H      -3.653799      1.342630      0.964101
  H      -4.853674      1.237386     -0.357878
  H      -6.849581      1.665857      2.610808
  H      -5.304130      2.516485      2.308432
  H      -6.515553      2.362609      0.996007
37
Coordinates from ORCA-job TEGDME_anion_cpcm_20_moread E -770.219168215804
  C       5.839176      1.867585      1.971115
  O       6.183592      1.103430      0.822898
  C       5.060824      0.278109      0.324669
  C       4.365434     -0.536019      1.327876
  O       2.692214     -1.558176     -0.268779
  C       2.237284     -0.492995     -1.001087
  C       1.075724     -0.830252     -1.936283
  O      -0.095759     -1.139777     -1.169845
  C      -1.182233     -1.540732     -1.991701
  C      -2.400802     -1.770095     -1.135726
  O      -2.899726     -0.509702     -0.684911
  C      -3.995496     -0.657257      0.208967
  C      -4.486766      0.735290      0.551393
  O      -5.540941      0.595090      1.496107
  C      -6.089969      1.857779      1.864288
  H       5.618947      1.228216      2.838979
  H       4.962103      2.509029      1.778921
  H       6.703961      2.499931      2.195032
  H       5.555491     -0.355915     -0.420576
  H       4.377082      0.970050     -0.192390
  H       4.791207     -1.483216      1.642152
  H       3.502420     -0.166975      1.866821
  H       1.878828      0.360982     -0.367830
  H       3.014880     -0.045783     -1.675117
  H       0.852549      0.019007     -2.610634
  H       1.346588     -1.699833     -2.562548
  H      -1.402253     -0.766802     -2.748380
  H      -0.938090     -2.476638     -2.523782
  H      -2.136803     -2.402843     -0.272005
  H      -3.171267     -2.292297     -1.726627
  H      -3.681725     -1.182701      1.126574
  H      -4.805344     -1.239922     -0.261705
  H      -3.661404      1.330810      0.977164
  H      -4.845579      1.246727     -0.357522
  H      -6.880179      1.666479      2.594771
  H      -5.324943      2.505469      2.318721
  H      -6.519028      2.373947      0.992084
37
Coordinates from ORCA-job TEGDME_anion_cpcm_20_moread E -770.220379579087
  C       5.872108      1.903246      1.926134
  O       6.237192      1.066145      0.839658
  C       5.111833      0.257446      0.354950
  C       4.411746     -0.551438      1.364584
  O       2.684268     -1.585329     -0.263004
  C       2.237660     -0.514935     -0.985410
  C       1.069006     -0.825924     -1.922680
  O      -0.106280     -1.139492     -1.160716
  C      -1.191197     -1.524654     -1.993403
  C      -2.416929     -1.760124     -1.151280
  O      -2.911571     -0.505073     -0.680299
  C      -4.021563     -0.660854      0.195538
  C      -4.501374      0.730433      0.559883
  O      -5.576550      0.580334      1.479389
  C      -6.116641      1.842662      1.866577
  H       5.587054      1.321109      2.817310
  H       5.026149      2.564648      1.666328
  H       6.745025      2.520076      2.163972
  H       5.575604     -0.388487     -0.400395
  H       4.407451      0.944041     -0.142679
  H       4.816131     -1.510272      1.671224
  H       3.547475     -0.169058      1.892362
  H       1.891812      0.349870     -0.355375
  H       3.008663     -0.063774     -1.666746
  H       0.857480      0.040211     -2.578894
  H       1.330665     -1.685633     -2.566616
  H      -1.404242     -0.742976     -2.744547
  H      -0.953337     -2.455525     -2.537373
  H      -2.165905     -2.415310     -0.299983
  H      -3.183378     -2.267216     -1.760607
  H      -3.729147     -1.209653      1.106616
  H      -4.832095     -1.224160     -0.297290
  H      -3.675792      1.305595      1.012878
  H      -4.833014      1.267267     -0.344958
  H      -6.926572      1.649555      2.574953
  H      -5.353553      2.469748      2.352550
  H      -6.518184      2.387499      0.998432
37
Coordinates from ORCA-job TEGDME_anion_cpcm_20_moread E -770.221499759274
  C       5.924097      1.962290      1.844257
  O       6.299283      1.001672      0.868577
  C       5.158403      0.218814      0.409145
  C       4.463234     -0.573625      1.441349
  O       2.660566     -1.628186     -0.246237
  C       2.231293     -0.546017     -0.952260
  C       1.060520     -0.815519     -1.900994
  O      -0.123422     -1.137542     -1.154432
  C      -1.201387     -1.500065     -2.004990
  C      -2.439616     -1.743045     -1.183632
  O      -2.923638     -0.496875     -0.680657
  C      -4.053690     -0.663969      0.166708
  C      -4.517103      0.721463      0.572400
  O      -5.621521      0.558448      1.454261
  C      -6.145749      1.815762      1.876204
  H       5.544478      1.488077      2.763176
  H       5.140762      2.642695      1.465982
  H       6.816115      2.548179      2.086625
  H       5.581888     -0.440116     -0.358072
  H       4.442974      0.906323     -0.070025
  H       4.842287     -1.544911      1.739442
  H       3.593178     -0.182491      1.952991
  H       1.901437      0.323853     -0.317471
  H       3.004114     -0.091144     -1.631858
  H       0.864275      0.074219     -2.529559
  H       1.311682     -1.659039     -2.569994
  H      -1.400002     -0.705648     -2.746707
  H      -0.965123     -2.422719     -2.563801
  H      -2.210786     -2.429458     -0.350993
  H      -3.204699     -2.220130     -1.818670
  H      -3.790113     -1.251285      1.062324
  H      -4.863663     -1.194559     -0.361896
  H      -3.694139      1.262530      1.069628
  H      -4.812020      1.299267     -0.319797
  H      -6.981932      1.613550      2.550512
  H      -5.384908      2.404966      2.410562
  H      -6.507074      2.404234      1.018987
37
Coordinates from ORCA-job TEGDME_anion_cpcm_20_moread E -770.222422468861
  C       5.915360      2.048019      1.790336
  O       6.300800      0.990179      0.923385
  C       5.149408      0.208197      0.487303
  C       4.480602     -0.570327      1.553200
  O       2.633899     -1.708455     -0.262790
  C       2.221601     -0.616108     -0.954430
  C       1.054841     -0.848223     -1.919186
  O      -0.141214     -1.165076     -1.188643
  C      -1.218363     -1.495737     -2.050879
  C      -2.464546     -1.733225     -1.239997
  O      -2.919670     -0.492755     -0.699144
  C      -4.062160     -0.659354      0.130668
  C      -4.487926      0.720535      0.591625
  O      -5.609903      0.555566      1.450576
  C      -6.096920      1.808139      1.924685
  H       5.465329      1.670693      2.721713
  H       5.186051      2.719210      1.305292
  H       6.816403      2.617718      2.034844
  H       5.551854     -0.456937     -0.285725
  H       4.422457      0.887145      0.015350
  H       4.854888     -1.544717      1.844173
  H       3.578087     -0.205669      2.026200
  H       1.899197      0.252966     -0.312309
  H       3.000767     -0.155166     -1.625922
  H       0.878584      0.058755     -2.528500
  H       1.294579     -1.683004     -2.603140
  H      -1.399062     -0.686351     -2.780962
  H      -0.993384     -2.412572     -2.624023
  H      -2.257425     -2.450522     -0.428200
  H      -3.239299     -2.170545     -1.891863
  H      -3.823940     -1.291789      1.002229
  H      -4.882317     -1.142806     -0.426491
  H      -3.657022      1.213031      1.124329
  H      -4.752470      1.345843     -0.277649
  H      -6.950684      1.601804      2.574939
  H      -5.325275      2.342983      2.498950
  H      -6.423128      2.448555      1.091145
37
Coordinates from ORCA-job TEGDME_anion_cpcm_20_moread E -770.222691048501
  C       5.866529      2.094563      1.791840
  O       6.256492      1.001958      0.965831
  C       5.108881      0.216117      0.533596
  C       4.454754     -0.560966      1.612658
  O       2.627015     -1.753773     -0.307994
  C       2.219500     -0.653131     -0.990582
  C       1.053395     -0.875600     -1.958752
  O      -0.142805     -1.188630     -1.228067
  C      -1.226136     -1.508008     -2.084967
  C      -2.469036     -1.738062     -1.265148
  O      -2.904982     -0.496792     -0.711906
  C      -4.045197     -0.655351      0.121533
  C      -4.446018      0.724053      0.605404
  O      -5.569973      0.567466      1.462973
  C      -6.031035      1.819675      1.959995
  H       5.394064      1.751754      2.723769
  H       5.159867      2.754750      1.264114
  H       6.772315      2.656401      2.034405
  H       5.513348     -0.448780     -0.238377
  H       4.382301      0.888848      0.055047
  H       4.839638     -1.532241      1.902686
  H       3.526861     -0.226511      2.059957
  H       1.896221      0.206133     -0.337382
  H       3.005607     -0.190340     -1.653302
  H       0.879372      0.034096     -2.564517
  H       1.287866     -1.709804     -2.644809
  H      -1.404156     -0.693739     -2.809906
  H      -1.009523     -2.424614     -2.661678
  H      -2.262704     -2.461311     -0.458791
  H      -3.255502     -2.161179     -1.912234
  H      -3.811607     -1.304306      0.982057
  H      -4.875777     -1.116756     -0.438700
  H      -3.607092      1.192523      1.146736
  H      -4.700974      1.367794     -0.253019
  H      -6.888695      1.615899      2.605622
  H      -5.248721      2.326621      2.544745
  H      -6.344092      2.481243      1.138252
37
Coordinates from ORCA-job TEGDME_anion_cpcm_20_moread E -770.222801987351
  C       5.892901      2.097233      1.779029
  O       6.267472      0.974847      0.986203
  C       5.100935      0.203722      0.550956
  C       4.425467     -0.530222      1.644505
  O       2.610838     -1.753415     -0.309042
  C       2.216813     -0.650952     -1.003658
  C       1.051989     -0.877204     -1.972798
  O      -0.144719     -1.182412     -1.241130
  C      -1.229833     -1.500949     -2.096358
  C      -2.470418     -1.734717     -1.273266
  O      -2.907110     -0.495447     -0.716052
  C      -4.047885     -0.657592      0.115881
  C      -4.444150      0.718628      0.612448
  O      -5.574777      0.558387      1.460501
  C      -6.030512      1.806691      1.972271
  H       5.394413      1.790157      2.710028
  H       5.217194      2.765145      1.221594
  H       6.810395      2.638422      2.026450
  H       5.504762     -0.485207     -0.199561
  H       4.403138      0.888776      0.047025
  H       4.793256     -1.499732      1.963410
  H       3.491113     -0.177645      2.064940
  H       1.896669      0.210830     -0.354816
  H       3.015048     -0.204653     -1.662301
  H       0.880211      0.027537     -2.586880
  H       1.286630     -1.716873     -2.651780
  H      -1.410544     -0.684700     -2.818254
  H      -1.012793     -2.416324     -2.674754
  H      -2.258914     -2.458363     -0.468575
  H      -3.258339     -2.158462     -1.918063
  H      -3.816602     -1.315404      0.970330
  H      -4.880141     -1.110341     -0.449003
  H      -3.606587      1.175943      1.165360
  H      -4.689677      1.373300     -0.240469
  H      -6.894453      1.599313      2.608418
  H      -5.249039      2.299155      2.570393
  H      -6.332750      2.482524      1.158105
37
Coordinates from ORCA-job TEGDME_anion_cpcm_20_moread E -770.222880165818
  C       5.900956      2.092280      1.791393
  O       6.256613      0.980054      0.974513
  C       5.086537      0.214252      0.554149
  C       4.422150     -0.516740      1.658550
  O       2.621540     -1.760907     -0.341985
  C       2.217816     -0.651497     -1.024756
  C       1.049278     -0.879912     -1.988528
  O      -0.141947     -1.184595     -1.249836
  C      -1.232368     -1.503385     -2.098134
  C      -2.467091     -1.738570     -1.266101
  O      -2.907636     -0.497687     -0.716062
  C      -4.045394     -0.658502      0.119939
  C      -4.442497      0.719245      0.612267
  O      -5.573839      0.561251      1.459480
  C      -6.028988      1.810408      1.969350
  H       5.427778      1.772168      2.730724
  H       5.211748      2.766248      1.258850
  H       6.825347      2.629193      2.021028
  H       5.480411     -0.479571     -0.197065
  H       4.386528      0.898950      0.053585
  H       4.800633     -1.481110      1.980133
  H       3.481295     -0.176356      2.074168
  H       1.894219      0.197619     -0.363235
  H       3.013386     -0.198687     -1.679650
  H       0.872221      0.022355     -2.605161
  H       1.282892     -1.720914     -2.666106
  H      -1.418916     -0.686180     -2.817303
  H      -1.017808     -2.418382     -2.677844
  H      -2.245053     -2.454097     -0.457053
  H      -3.256409     -2.172174     -1.902400
  H      -3.810504     -1.312565      0.976156
  H      -4.878798     -1.114212     -0.440799
  H      -3.605688      1.178106      1.164919
  H      -4.687052      1.371184     -0.242946
  H      -6.893782      1.604240      2.604599
  H      -5.247871      2.302731      2.567932
  H      -6.329705      2.485760      1.154316
37
Coordinates from ORCA-job TEGDME_anion_cpcm_20_moread E -770.222978895712
  C       5.864222      2.105203      1.814909
  O       6.219282      0.993298      0.998128
  C       5.050203      0.229365      0.579476
  C       4.378096     -0.486033      1.690611
  O       2.634776     -1.784990     -0.401180
  C       2.219944     -0.670722     -1.074937
  C       1.046630     -0.903172     -2.031795
  O      -0.138437     -1.202765     -1.283011
  C      -1.238620     -1.518037     -2.120494
  C      -2.464811     -1.749515     -1.274420
  O      -2.897228     -0.505921     -0.724311
  C      -4.028462     -0.658964      0.121863
  C      -4.406774      0.721458      0.622669
  O      -5.538451      0.573208      1.470833
  C      -5.972690      1.824632      1.993623
  H       5.394029      1.784984      2.755794
  H       5.173010      2.778926      1.284264
  H       6.788603      2.643025      2.042677
  H       5.444965     -0.477703     -0.158312
  H       4.354574      0.910429      0.067672
  H       4.763194     -1.439868      2.035488
  H       3.421605     -0.154359      2.076825
  H       1.892359      0.167179     -0.403312
  H       3.012407     -0.211296     -1.726470
  H       0.865258     -0.005091     -2.653843
  H       1.278365     -1.747791     -2.705533
  H      -1.431181     -0.699098     -2.835966
  H      -1.033219     -2.433351     -2.702863
  H      -2.232600     -2.462050     -0.465515
  H      -3.261495     -2.185194     -1.900000
  H      -3.792521     -1.318403      0.973581
  H      -4.872242     -1.103608     -0.432269
  H      -3.562845      1.166318      1.175963
  H      -4.643532      1.380850     -0.229053
  H      -6.839730      1.627014      2.628547
  H      -5.182929      2.298978      2.595436
  H      -6.263755      2.513064      1.186015
37
Coordinates from ORCA-job TEGDME_anion_cpcm_20_moread E -770.223138994763
  C       5.772750      2.145679      1.862119
  O       6.136894      1.032703      1.051868
  C       4.974907      0.264896      0.633945
  C       4.285948     -0.427293      1.752520
  O       2.656832     -1.842541     -0.502487
  C       2.225281     -0.727504     -1.169449
  C       1.042557     -0.964638     -2.113461
  O      -0.135055     -1.250609     -1.348674
  C      -1.252186     -1.551269     -2.170121
  C      -2.466993     -1.768672     -1.304066
  O      -2.872222     -0.520036     -0.744377
  C      -3.993836     -0.655669      0.117680
  C      -4.324271      0.727461      0.645457
  O      -5.456188      0.600032      1.496558
  C      -5.839159      1.853789      2.054126
  H       5.302420      1.826791      2.804004
  H       5.076911      2.813700      1.329228
  H       6.691604      2.692734      2.091230
  H       5.375019     -0.462156     -0.081008
  H       4.282370      0.934403      0.102689
  H       4.681132     -1.359615      2.142495
  H       3.302012     -0.114302      2.081713
  H       1.896072      0.102708     -0.490356
  H       3.010075     -0.260585     -1.822822
  H       0.858165     -0.073153     -2.744591
  H       1.267133     -1.816373     -2.780855
  H      -1.446761     -0.727674     -2.879682
  H      -1.068549     -2.467511     -2.758040
  H      -2.228824     -2.486052     -0.501067
  H      -3.279721     -2.193059     -1.916602
  H      -3.763774     -1.334812      0.955346
  H      -4.859370     -1.067160     -0.428610
  H      -3.463174      1.134665      1.201358
  H      -4.542122      1.409144     -0.193825
  H      -6.710297      1.675367      2.689242
  H      -5.028730      2.282216      2.662988
  H      -6.106848      2.574392      1.266609
37
Coordinates from ORCA-job TEGDME_anion_cpcm_20_moread E -770.223230512303
  C       5.796257      2.151494      1.848044
  O       6.148817      1.013722      1.067294
  C       4.978317      0.257368      0.657407
  C       4.270971     -0.406434      1.782378
  O       2.648831     -1.848381     -0.511528
  C       2.223528     -0.732939     -1.179427
  C       1.037480     -0.961975     -2.121198
  O      -0.140032     -1.250513     -1.356187
  C      -1.257163     -1.549462     -2.178317
  C      -2.472792     -1.767925     -1.313782
  O      -2.875249     -0.521101     -0.747968
  C      -3.998463     -0.658582      0.111697
  C      -4.323446      0.721671      0.649823
  O      -5.460247      0.593808      1.494420
  C      -5.836415      1.844663      2.062961
  H       5.311322      1.862623      2.792269
  H       5.115794      2.817882      1.293764
  H       6.721322      2.689522      2.073230
  H       5.368457     -0.487862     -0.044438
  H       4.295956      0.927353      0.113825
  H       4.652305     -1.333983      2.197474
  H       3.286447     -0.076056      2.093424
  H       1.902024      0.103662     -0.503223
  H       3.008568     -0.270525     -1.836999
  H       0.853970     -0.066886     -2.747167
  H       1.258514     -1.810323     -2.794292
  H      -1.450732     -0.725077     -2.887312
  H      -1.073768     -2.464635     -2.768020
  H      -2.238128     -2.490653     -0.514545
  H      -3.286288     -2.186518     -1.929329
  H      -3.772424     -1.345559      0.944136
  H      -4.865179     -1.062069     -0.438788
  H      -3.462665      1.119553      1.212954
  H      -4.533549      1.411612     -0.184783
  H      -6.711451      1.666493      2.692832
  H      -5.025231      2.261155      2.679072
  H      -6.095658      2.574874      1.281387
37
Coordinates from ORCA-job TEGDME_anion_cpcm_20_moread E -770.223366809174
  C       5.891765      2.146352      1.800003
  O       6.221031      0.965325      1.076236
  C       5.031712      0.226716      0.677700
  C       4.289265     -0.383711      1.808804
  O       2.618795     -1.836097     -0.471034
  C       2.212374     -0.725423     -1.147527
  C       1.025752     -0.936588     -2.093042
  O      -0.158609     -1.234636     -1.339169
  C      -1.264982     -1.532512     -2.175505
  C      -2.492121     -1.756285     -1.329832
  O      -2.897402     -0.516038     -0.751267
  C      -4.030215     -0.664940      0.093857
  C      -4.362611      0.707027      0.646622
  O      -5.508234      0.567484      1.477767
  C      -5.890316      1.810351      2.059251
  H       5.378740      1.915815      2.745616
  H       5.241647      2.808711      1.205921
  H       6.828125      2.666885      2.019422
  H       5.406948     -0.546851     -0.001856
  H       4.371950      0.899599      0.110344
  H       4.638400     -1.302304      2.270087
  H       3.321862      0.002620      2.109971
  H       1.908909      0.133169     -0.486214
  H       2.998585     -0.275277     -1.817111
  H       0.848553     -0.030443     -2.703818
  H       1.242529     -1.775164     -2.780092
  H      -1.449291     -0.707926     -2.886985
  H      -1.072457     -2.445258     -2.766374
  H      -2.276034     -2.493032     -0.538294
  H      -3.299033     -2.160579     -1.963579
  H      -3.812516     -1.363321      0.919152
  H      -4.889948     -1.062607     -0.471698
  H      -3.508577      1.099329      1.223743
  H      -4.566003      1.407788     -0.180731
  H      -6.769872      1.622706      2.680003
  H      -5.084004      2.219688      2.686359
  H      -6.144719      2.549427      1.284355
37
Coordinates from ORCA-job TEGDME_anion_cpcm_20_moread E -770.223435103928
  C       5.897209      2.153733      1.807008
  O       6.216075      0.965124      1.090634
  C       5.022999      0.229931      0.698635
  C       4.274455     -0.359612      1.837850
  O       2.621434     -1.851554     -0.506119
  C       2.208984     -0.737918     -1.172364
  C       1.017919     -0.944399     -2.113738
  O      -0.163411     -1.245320     -1.356115
  C      -1.273350     -1.539349     -2.188648
  C      -2.497967     -1.760434     -1.338731
  O      -2.897765     -0.519556     -0.757742
  C      -4.028171     -0.666052      0.090901
  C      -4.352637      0.705465      0.649236
  O      -5.497564      0.569100      1.481870
  C      -5.869903      1.811029      2.071358
  H       5.385892      1.933935      2.755902
  H       5.250315      2.816121      1.209668
  H       6.838505      2.668314      2.018680
  H       5.395051     -0.555253      0.030627
  H       4.370110      0.898898      0.118986
  H       4.624778     -1.264585      2.324332
  H       3.304606      0.030865      2.125507
  H       1.908374      0.116596     -0.504230
  H       2.990166     -0.281483     -1.844604
  H       0.837874     -0.035069     -2.719018
  H       1.230382     -1.780145     -2.805541
  H      -1.457773     -0.713696     -2.898854
  H      -1.085018     -2.452151     -2.780848
  H      -2.281612     -2.498178     -0.548273
  H      -3.308274     -2.161910     -1.969959
  H      -3.810239     -1.368141      0.912941
  H      -4.891557     -1.058174     -0.472919
  H      -3.496012      1.091340      1.226721
  H      -4.554072      1.410261     -0.175138
  H      -6.748751      1.625006      2.693494
  H      -5.059090      2.211433      2.698312
  H      -6.121964      2.555829      1.301264
37
Coordinates from ORCA-job TEGDME_anion_cpcm_20_moread E -770.223605214059
  C       5.934281      2.164637      1.791056
  O       6.219369      0.934168      1.131557
  C       5.012157      0.223435      0.750125
  C       4.225409     -0.278086      1.905877
  O       2.596081     -1.872113     -0.516269
  C       2.195081     -0.763026     -1.195219
  C       1.006990     -0.966656     -2.142028
  O      -0.180081     -1.258852     -1.389676
  C      -1.290233     -1.537527     -2.226297
  C      -2.518233     -1.755458     -1.380226
  O      -2.904034     -0.518661     -0.781546
  C      -4.033430     -0.666923      0.067974
  C      -4.338588      0.696350      0.656152
  O      -5.482192      0.556894      1.490231
  C      -5.832625      1.788200      2.113758
  H       5.405449      2.005557      2.741637
  H       5.320503      2.821239      1.154548
  H       6.892935      2.650788      1.990229
  H       5.372440     -0.606670      0.131993
  H       4.398202      0.881480      0.118210
  H       4.557908     -1.141762      2.473441
  H       3.262236      0.154175      2.154663
  H       1.900934      0.100507     -0.536359
  H       2.983039     -0.319924     -1.870454
  H       0.834080     -0.056847     -2.749005
  H       1.216201     -1.805668     -2.830476
  H      -1.466120     -0.705069     -2.930655
  H      -1.107226     -2.447705     -2.824419
  H      -2.311455     -2.505444     -0.598942
  H      -3.333138     -2.138635     -2.017011
  H      -3.820791     -1.388411      0.874394
  H      -4.903431     -1.036600     -0.500766
  H      -3.476011      1.058563      1.239908
  H      -4.534550      1.421295     -0.151811
  H      -6.710506      1.597298      2.735708
  H      -5.012353      2.159477      2.746197
  H      -6.078297      2.555973      1.364586
37
Coordinates from ORCA-job TEGDME_anion_cpcm_20_moread E -770.223943910638
  C       5.984225      2.173535      1.774720
  O       6.205884      0.893487      1.188649
  C       4.967387      0.229680      0.828261
  C       4.134943     -0.135620      2.004359
  O       2.575750     -1.918619     -0.551711
  C       2.184888     -0.814221     -1.242618
  C       0.996174     -1.010907     -2.191121
  O      -0.196760     -1.285534     -1.440784
  C      -1.311552     -1.535160     -2.280169
  C      -2.541643     -1.748262     -1.436400
  O      -2.905406     -0.517903     -0.810957
  C      -4.035828     -0.666489      0.037402
  C      -4.305526      0.682823      0.672834
  O      -5.453768      0.543295      1.500862
  C      -5.766244      1.756898      2.177546
  H       5.438537      2.098759      2.726226
  H       5.416023      2.827088      1.094171
  H       6.967799      2.613956      1.958244
  H       5.290113     -0.663926      0.281893
  H       4.405591      0.871506      0.134118
  H       4.437966     -0.931802      2.677403
  H       3.175567      0.339576      2.179438
  H       1.900698      0.060618     -0.594045
  H       2.976670     -0.385241     -1.924153
  H       0.835165     -0.101583     -2.802283
  H       1.196419     -1.855936     -2.874871
  H      -1.475395     -0.689949     -2.972274
  H      -1.143106     -2.439331     -2.891644
  H      -2.346949     -2.517248     -0.670613
  H      -3.363713     -2.104721     -2.079505
  H      -3.838201     -1.419797      0.818083
  H      -4.916467     -0.995500     -0.539949
  H      -3.435053      1.001175      1.270197
  H      -4.481355      1.440927     -0.108915
  H      -6.649334      1.565885      2.792050
  H      -4.934803      2.075188      2.824068
  H      -5.988697      2.563353      1.462577
37
Coordinates from ORCA-job TEGDME_anion_cpcm_20_moread E -770.224092771857
  C       6.015594      2.171776      1.791171
  O       6.210615      0.891345      1.195905
  C       4.955225      0.245947      0.854385
  C       4.133965     -0.100342      2.043962
  O       2.595675     -1.950330     -0.628280
  C       2.181164     -0.832853     -1.285242
  C       0.982598     -1.020410     -2.222845
  O      -0.201447     -1.304795     -1.461800
  C      -1.326336     -1.540921     -2.291889
  C      -2.548733     -1.756658     -1.437914
  O      -2.910126     -0.525997     -0.811519
  C      -4.035963     -0.672648      0.043657
  C      -4.302196      0.679462      0.675019
  O      -5.448110      0.543300      1.506998
  C      -5.759881      1.761163      2.177122
  H       5.488206      2.098971      2.753481
  H       5.441993      2.835220      1.124470
  H       7.007640      2.599890      1.957864
  H       5.255805     -0.656771      0.309937
  H       4.391774      0.891885      0.164251
  H       4.458443     -0.869073      2.738499
  H       3.170923      0.368385      2.216208
  H       1.893616      0.021497     -0.611433
  H       2.958540     -0.377511     -1.966006
  H       0.814661     -0.103716     -2.820646
  H       1.176385     -1.857366     -2.918282
  H      -1.493960     -0.688196     -2.973746
  H      -1.169706     -2.439933     -2.913933
  H      -2.345555     -2.524988     -0.673545
  H      -3.374324     -2.116342     -2.074565
  H      -3.834801     -1.422986      0.826180
  H      -4.919767     -1.003252     -0.527823
  H      -3.429154      0.999537      1.267646
  H      -4.479693      1.434662     -0.109059
  H      -6.641912      1.574489      2.794413
  H      -4.927728      2.084002      2.820459
  H      -5.983427      2.563555      1.457984
37
Coordinates from ORCA-job TEGDME_anion_cpcm_20_moread E -770.224300173717
  C       6.045000      2.168612      1.791769
  O       6.204411      0.868242      1.228231
  C       4.934257      0.255999      0.896649
  C       4.104957     -0.054847      2.090161
  O       2.586168     -1.968026     -0.672049
  C       2.170871     -0.843370     -1.319344
  C       0.970937     -1.026504     -2.255481
  O      -0.209173     -1.316131     -1.490811
  C      -1.340077     -1.543664     -2.314878
  C      -2.557025     -1.762907     -1.452824
  O      -2.911570     -0.534497     -0.819035
  C      -4.029210     -0.680897      0.046529
  C      -4.289313      0.671856      0.679854
  O      -5.426807      0.536931      1.523134
  C      -5.736229      1.757333      2.188957
  H       5.514410      2.133266      2.753835
  H       5.492062      2.830018      1.106895
  H       7.048796      2.570922      1.951022
  H       5.207764     -0.662816      0.364245
  H       4.385853      0.906343      0.198599
  H       4.437027     -0.794464      2.812692
  H       3.143815      0.422193      2.249955
  H       1.879498      0.001633     -0.636348
  H       2.949951     -0.382846     -1.993287
  H       0.800565     -0.106768     -2.847715
  H       1.164326     -1.859634     -2.955399
  H      -1.511280     -0.684678     -2.987642
  H      -1.190127     -2.437988     -2.945266
  H      -2.347509     -2.534547     -0.693582
  H      -3.388063     -2.118849     -2.084464
  H      -3.821324     -1.430759      0.827704
  H      -4.918381     -1.011002     -0.516777
  H      -3.410082      0.992206      1.263134
  H      -4.474391      1.426403     -0.103034
  H      -6.613443      1.572206      2.813526
  H      -4.900323      2.085437      2.824831
  H      -5.966340      2.555593      1.467300
37
Coordinates from ORCA-job TEGDME_anion_cpcm_20_moread E -770.224489084806
  C       6.074690      2.169794      1.797752
  O       6.207753      0.857176      1.256753
  C       4.925510      0.266894      0.934368
  C       4.092431     -0.013045      2.133594
  O       2.576597     -1.993487     -0.715316
  C       2.160860     -0.862474     -1.351489
  C       0.957021     -1.036184     -2.284467
  O      -0.220235     -1.328655     -1.516167
  C      -1.356267     -1.546968     -2.335808
  C      -2.569129     -1.766801     -1.468134
  O      -2.916306     -0.540022     -0.827163
  C      -4.027661     -0.686528      0.046514
  C      -4.281829      0.666239      0.682325
  O      -5.411274      0.531212      1.536368
  C      -5.717692      1.753385      2.200603
  H       5.543083      2.161950      2.760124
  H       5.535623      2.830994      1.101630
  H       7.086031      2.555294      1.951520
  H       5.179252     -0.664170      0.412549
  H       4.388190      0.918944      0.229027
  H       4.431466     -0.724996      2.880249
  H       3.132849      0.470280      2.282202
  H       1.871289     -0.022929     -0.660592
  H       2.938170     -0.396506     -2.023386
  H       0.786548     -0.111805     -2.869414
  H       1.145705     -1.864958     -2.990804
  H      -1.528213     -0.683081     -3.002087
  H      -1.213585     -2.437861     -2.972708
  H      -2.357348     -2.542485     -0.713615
  H      -3.404581     -2.117758     -2.096734
  H      -3.814614     -1.436910      0.825813
  H      -4.921304     -1.015651     -0.510271
  H      -3.396882      0.986758      1.256887
  H      -4.474280      1.420772     -0.098827
  H      -6.589530      1.569246      2.832997
  H      -4.877405      2.085485      2.828661
  H      -5.954936      2.548851      1.478132
37
Coordinates from ORCA-job TEGDME_anion_cpcm_20_moread E -770.224645418379
  C       6.124150      2.179364      1.805989
  O       6.268091      0.870544      1.262623
  C       4.986813      0.270419      0.945308
  C       4.167670     -0.039153      2.147209
  O       2.545189     -2.009112     -0.723784
  C       2.140480     -0.868579     -1.349574
  C       0.934874     -1.025763     -2.283123
  O      -0.242138     -1.324634     -1.516333
  C      -1.377310     -1.544691     -2.337476
  C      -2.589532     -1.767760     -1.470252
  O      -2.939955     -0.541671     -0.829247
  C      -4.045369     -0.693340      0.051270
  C      -4.315511      0.663984      0.670168
  O      -5.430923      0.521940      1.541473
  C      -5.758936      1.752707      2.179835
  H       5.593323      2.166242      2.769709
  H       5.577007      2.839311      1.114135
  H       7.130442      2.578829      1.960307
  H       5.245233     -0.647975      0.401683
  H       4.437077      0.931651      0.257899
  H       4.534151     -0.750764      2.880728
  H       3.212401      0.442456      2.322622
  H       1.855280     -0.031854     -0.651846
  H       2.920612     -0.400411     -2.015540
  H       0.766693     -0.094328     -2.857608
  H       1.120192     -1.846554     -2.999758
  H      -1.551207     -0.680619     -3.003230
  H      -1.232528     -2.434317     -2.975608
  H      -2.375900     -2.543277     -0.715954
  H      -3.424071     -2.121023     -2.098781
  H      -3.817853     -1.430361      0.839373
  H      -4.936760     -1.043044     -0.496641
  H      -3.428382      1.009042      1.227218
  H      -4.531591      1.403202     -0.119568
  H      -6.619396      1.564895      2.826782
  H      -4.919919      2.119876      2.790005
  H      -6.022396      2.524766      1.441075
37
Coordinates from ORCA-job TEGDME_anion_cpcm_20_moread E -770.224747456192
  C       6.168487      2.184750      1.814330
  O       6.328359      0.891687      1.238906
  C       5.055173      0.276363      0.925744
  C       4.262819     -0.087792      2.130451
  O       2.514647     -2.003886     -0.690323
  C       2.121953     -0.859735     -1.319808
  C       0.920452     -1.011576     -2.258979
  O      -0.259883     -1.310583     -1.498030
  C      -1.389080     -1.540014     -2.325241
  C      -2.604889     -1.765706     -1.463771
  O      -2.964761     -0.538886     -0.829028
  C      -4.068373     -0.695916      0.052811
  C      -4.361256      0.665452      0.651828
  O      -5.464399      0.514944      1.537225
  C      -5.818954      1.751661      2.149319
  H       5.649854      2.140268      2.783791
  H       5.601121      2.850719      1.144804
  H       7.168977      2.599449      1.965523
  H       5.321700     -0.619007      0.348056
  H       4.482367      0.947987      0.267876
  H       4.661614     -0.816451      2.829797
  H       3.309303      0.379719      2.348160
  H       1.836796     -0.022195     -0.622988
  H       2.909781     -0.397057     -1.978909
  H       0.755048     -0.079805     -2.833850
  H       1.108176     -1.831023     -2.976625
  H      -1.563520     -0.679347     -2.995306
  H      -1.234899     -2.431108     -2.958929
  H      -2.390906     -2.536841     -0.705095
  H      -3.435080     -2.125255     -2.094392
  H      -3.828849     -1.417468      0.851695
  H      -4.953210     -1.068819     -0.490378
  H      -3.475816      1.038042      1.193790
  H      -4.600910      1.386856     -0.147496
  H      -6.669071      1.557311      2.807948
  H      -4.984717      2.154411      2.743415
  H      -6.108053      2.498850      1.394768
37
Coordinates from ORCA-job TEGDME_anion_cpcm_20_moread E -770.224835696100
  C       6.237193      2.186742      1.831938
  O       6.400648      0.926740      1.187220
  C       5.131844      0.301975      0.884890
  C       4.387402     -0.132843      2.096455
  O       2.479199     -1.991922     -0.623937
  C       2.096046     -0.850408     -1.267858
  C       0.904735     -1.007820     -2.218122
  O      -0.283594     -1.299204     -1.468131
  C      -1.402502     -1.536884     -2.307162
  C      -2.627437     -1.763081     -1.458865
  O      -2.997498     -0.535515     -0.830910
  C      -4.106935     -0.696119      0.042986
  C      -4.420231      0.667101      0.627189
  O      -5.516561      0.508697      1.519612
  C      -5.893926      1.747490      2.113250
  H       5.751013      2.084338      2.813289
  H       5.637997      2.873874      1.213762
  H       7.235310      2.610384      1.971491
  H       5.396595     -0.561402      0.260060
  H       4.526632      0.989828      0.274615
  H       4.829615     -0.882506      2.746131
  H       3.434464      0.305397      2.370815
  H       1.805730     -0.008843     -0.579165
  H       2.893578     -0.396932     -1.920114
  H       0.745099     -0.081647     -2.803626
  H       1.099843     -1.832783     -2.927577
  H      -1.571909     -0.679628     -2.982849
  H      -1.236347     -2.429997     -2.934723
  H      -2.419373     -2.530965     -0.695322
  H      -3.450454     -2.125937     -2.096776
  H      -3.865813     -1.407167      0.850759
  H      -4.982419     -1.084651     -0.504215
  H      -3.538528      1.059875      1.160945
  H      -4.675438      1.375488     -0.178744
  H      -6.738605      1.546293      2.776707
  H      -5.066328      2.175071      2.699139
  H      -6.199044      2.476961      1.347928
37
Coordinates from ORCA-job TEGDME_anion_cpcm_20_moread E -770.224871785698
  C       6.251313      2.191010      1.845926
  O       6.409138      0.947637      1.166702
  C       5.138829      0.324158      0.871170
  C       4.417201     -0.136490      2.086690
  O       2.471211     -1.989794     -0.603336
  C       2.085001     -0.852562     -1.254067
  C       0.899943     -1.020368     -2.209954
  O      -0.291715     -1.307642     -1.464240
  C      -1.408074     -1.543993     -2.306807
  C      -2.636609     -1.767043     -1.462674
  O      -3.004509     -0.538641     -0.835116
  C      -4.118962     -0.694919      0.033103
  C      -4.425948      0.668144      0.621383
  O      -5.525654      0.513052      1.510095
  C      -5.895152      1.750920      2.110201
  H       5.783084      2.060901      2.832181
  H       5.638852      2.889520      1.254605
  H       7.250779      2.613431      1.977972
  H       5.397172     -0.527391      0.228205
  H       4.519805      1.019037      0.283069
  H       4.876008     -0.890309      2.720050
  H       3.460222      0.282191      2.377601
  H       1.787719     -0.010828     -0.569689
  H       2.884713     -0.399448     -1.904126
  H       0.741737     -0.098904     -2.803218
  H       1.100855     -1.850294     -2.911917
  H      -1.573211     -0.686789     -2.983528
  H      -1.241241     -2.438007     -2.932913
  H      -2.433385     -2.535915     -0.698862
  H      -3.458708     -2.126600     -2.103582
  H      -3.886491     -1.410360      0.839477
  H      -4.994278     -1.075512     -0.519819
  H      -3.543394      1.053260      1.159198
  H      -4.674615      1.381231     -0.182343
  H      -6.743223      1.551649      2.769808
  H      -5.065969      2.168203      2.701194
  H      -6.192441      2.487467      1.348651
37
Coordinates from ORCA-job TEGDME_anion_cpcm_20_moread E -770.224919813026
  C       6.301230      2.193566      1.860733
  O       6.435689      0.979545      1.123160
  C       5.155622      0.365445      0.849508
  C       4.477715     -0.134829      2.074153
  O       2.451427     -1.978663     -0.552651
  C       2.061077     -0.851800     -1.218694
  C       0.889463     -1.040071     -2.186868
  O      -0.309793     -1.323930     -1.452149
  C      -1.419411     -1.555822     -2.304494
  C      -2.656631     -1.774153     -1.471869
  O      -3.021826     -0.545495     -0.843362
  C      -4.149628     -0.694653      0.008654
  C      -4.442976      0.665925      0.609860
  O      -5.556275      0.517161      1.482499
  C      -5.907938      1.750923      2.101295
  H       5.868621      2.018761      2.855826
  H       5.667704      2.914224      1.321026
  H       7.305509      2.609678      1.974175
  H       5.391892     -0.466112      0.172651
  H       4.513924      1.076216      0.306321
  H       4.962363     -0.895686      2.679052
  H       3.516170      0.251483      2.393367
  H       1.750477     -0.006247     -0.546093
  H       2.864313     -0.399196     -1.865964
  H       0.734311     -0.126290     -2.792657
  H       1.103562     -1.877487     -2.875750
  H      -1.574472     -0.697905     -2.982597
  H      -1.250881     -2.450656     -2.929103
  H      -2.465897     -2.547178     -0.709087
  H      -3.474828     -2.125833     -2.122087
  H      -3.939190     -1.422807      0.809622
  H      -5.023209     -1.054896     -0.560347
  H      -3.561394      1.030047      1.163541
  H      -4.670166      1.393090     -0.187543
  H      -6.767502      1.556210      2.747157
  H      -5.077530      2.140128      2.709398
  H      -6.181523      2.507306      1.350405
37
Coordinates from ORCA-job TEGDME_anion_cpcm_20_moread E -770.224927918698
  C       6.493259      2.167735      1.864845
  O       6.542369      1.026807      1.006366
  C       5.234312      0.447283      0.799276
  C       4.662626     -0.145075      2.036664
  O       2.396359     -1.925724     -0.414470
  C       2.004106     -0.818605     -1.111085
  C       0.861435     -1.043416     -2.105149
  O      -0.353344     -1.330388     -1.397500
  C      -1.442522     -1.563940     -2.275020
  C      -2.699432     -1.783541     -1.472909
  O      -3.079105     -0.556327     -0.850555
  C      -4.236156     -0.702871     -0.038369
  C      -4.533108      0.653003      0.571882
  O      -5.675249      0.505504      1.406571
  C      -6.024672      1.731614      2.041469
  H       6.147135      1.900040      2.872490
  H       5.826266      2.940070      1.452881
  H       7.511231      2.560666      1.925222
  H       5.398045     -0.330644      0.041221
  H       4.552799      1.200685      0.374737
  H       5.201263     -0.931333      2.557242
  H       3.707006      0.177596      2.434334
  H       1.667871      0.035489     -0.463090
  H       2.815828     -0.367606     -1.750697
  H       0.711403     -0.142048     -2.730372
  H       1.104901     -1.890038     -2.772419
  H      -1.581338     -0.707012     -2.957712
  H      -1.259003     -2.459472     -2.894645
  H      -2.529856     -2.559369     -0.708082
  H      -3.500703     -2.132427     -2.145414
  H      -4.062049     -1.443578      0.759751
  H      -5.093944     -1.044836     -0.641544
  H      -3.665231      0.998655      1.157940
  H      -4.726612      1.394204     -0.221446
  H      -6.906133      1.537336      2.657122
  H      -5.206291      2.093155      2.681946
  H      -6.263465      2.508406      1.299608
37
Coordinates from ORCA-job TEGDME_anion_cpcm_20_moread E -770.224985839784
  C       6.424368      2.174048      1.851176
  O       6.497237      0.993939      1.051264
  C       5.194860      0.409104      0.827300
  C       4.581305     -0.133685      2.067384
  O       2.425522     -1.953443     -0.483671
  C       2.032332     -0.833796     -1.159589
  C       0.874062     -1.035685     -2.140862
  O      -0.332308     -1.326857     -1.420528
  C      -1.431542     -1.556545     -2.286649
  C      -2.679231     -1.778287     -1.470669
  O      -3.054736     -0.551664     -0.844837
  C      -4.200386     -0.701229     -0.017194
  C      -4.497114      0.655776      0.590526
  O      -5.632728      0.507776      1.434032
  C      -5.984360      1.736482      2.062801
  H       6.045053      1.957262      2.859550
  H       5.773663      2.927873      1.382147
  H       7.440319      2.569843      1.926763
  H       5.379569     -0.396398      0.103775
  H       4.532034      1.149049      0.352652
  H       5.099417     -0.904903      2.629851
  H       3.620311      0.215800      2.428117
  H       1.708318      0.013040     -0.495121
  H       2.838578     -0.377659     -1.801561
  H       0.720132     -0.124536     -2.750782
  H       1.103114     -1.873699     -2.823975
  H      -1.578304     -0.697014     -2.964394
  H      -1.255604     -2.449755     -2.911727
  H      -2.498887     -2.553325     -0.707471
  H      -3.487433     -2.129561     -2.133604
  H      -4.011611     -1.437921      0.781319
  H      -5.064373     -1.050227     -0.607430
  H      -3.626326      1.006976      1.168967
  H      -4.698701      1.392850     -0.204704
  H      -6.860312      1.542330      2.686379
  H      -5.163488      2.107406      2.694718
  H      -6.232751      2.506636      1.317133
37
Coordinates from ORCA-job TEGDME_anion_cpcm_20_moread E -770.225022967947
  C       6.480364      2.155009      1.838459
  O       6.512828      0.989876      1.014877
  C       5.197449      0.425121      0.821402
  C       4.612760     -0.130114      2.069728
  O       2.422811     -1.942294     -0.465993
  C       2.027098     -0.821958     -1.139340
  C       0.870898     -1.023870     -2.123064
  O      -0.335697     -1.322453     -1.406113
  C      -1.431981     -1.553737     -2.275635
  C      -2.681588     -1.779631     -1.463674
  O      -3.064913     -0.553904     -0.841232
  C      -4.215606     -0.706248     -0.021235
  C      -4.519853      0.650227      0.583976
  O      -5.665110      0.501223      1.414116
  C      -6.023717      1.729144      2.040500
  H       6.128126      1.924006      2.853681
  H       5.826526      2.926744      1.403961
  H       7.503241      2.536461      1.891460
  H       5.350408     -0.370359      0.079106
  H       4.530706      1.180980      0.378334
  H       5.145455     -0.903988      2.614621
  H       3.651464      0.202542      2.445203
  H       1.698684      0.021824     -0.472795
  H       2.832741     -0.360838     -1.778197
  H       0.714948     -0.110902     -2.729672
  H       1.104119     -1.858495     -2.808923
  H      -1.579108     -0.693785     -2.952698
  H      -1.252272     -2.445767     -2.901355
  H      -2.500689     -2.552973     -0.698885
  H      -3.485690     -2.135550     -2.129169
  H      -4.030562     -1.442488      0.778562
  H      -5.074909     -1.057210     -0.617150
  H      -3.656063      1.001831      1.172557
  H      -4.712446      1.387394     -0.213460
  H      -6.905920      1.534217      2.654970
  H      -5.209561      2.100009      2.681062
  H      -6.264943      2.499951      1.293103
37
Coordinates from ORCA-job TEGDME_anion_cpcm_20_moread E -770.225088871370
  C       6.668817      2.075407      1.772138
  O       6.529318      0.975322      0.876211
  C       5.171337      0.494817      0.815950
  C       4.707483     -0.123016      2.084176
  O       2.415841     -1.897600     -0.400820
  C       2.010497     -0.772979     -1.061867
  C       0.864369     -0.975189     -2.057347
  O      -0.342414     -1.304170     -1.354504
  C      -1.426150     -1.547131     -2.236840
  C      -2.682382     -1.787181     -1.438940
  O      -3.092222     -0.564213     -0.829354
  C      -4.258709     -0.725491     -0.034273
  C      -4.588098      0.629694      0.560770
  O      -5.767617      0.479464      1.340855
  C      -6.149207      1.705014      1.958091
  H       6.420309      1.791417      2.805238
  H       6.021532      2.914638      1.472844
  H       7.713162      2.395605      1.730650
  H       5.182257     -0.246385      0.002977
  H       4.502828      1.316302      0.513882
  H       5.301008     -0.905816      2.547552
  H       3.744814      0.127297      2.515589
  H       1.661738      0.055658     -0.385268
  H       2.815049     -0.289953     -1.684002
  H       0.699061     -0.055102     -2.650381
  H       1.115338     -1.795425     -2.754502
  H      -1.576374     -0.688150     -2.914300
  H      -1.229729     -2.436376     -2.861463
  H      -2.498695     -2.553659     -0.667780
  H      -3.472586     -2.159634     -2.112169
  H      -4.085032     -1.459629      0.770057
  H      -5.102739     -1.083770     -0.647626
  H      -3.750761      0.981557      1.186242
  H      -4.745877      1.366973     -0.244466
  H      -7.053298      1.508659      2.539501
  H      -5.359248      2.074437      2.629083
  H      -6.363622      2.478607      1.205179
37
Coordinates from ORCA-job TEGDME_anion_cpcm_20_moread E -770.225111654682
  C       6.697040      2.064375      1.756732
  O       6.532378      0.955451      0.875490
  C       5.166447      0.500423      0.827446
  C       4.702646     -0.106119      2.101137
  O       2.404136     -1.892139     -0.387694
  C       2.005730     -0.769430     -1.055233
  C       0.863086     -0.972374     -2.054538
  O      -0.346593     -1.298224     -1.355132
  C      -1.427098     -1.543967     -2.240423
  C      -2.685348     -1.784992     -1.446060
  O      -3.096006     -0.563192     -0.834374
  C      -4.263108     -0.727014     -0.040689
  C      -4.593100      0.625776      0.559290
  O      -5.774092      0.472641      1.336626
  C      -6.155567      1.694952      1.960095
  H       6.447186      1.798677      2.794144
  H       6.064760      2.911445      1.448146
  H       7.747363      2.362541      1.706200
  H       5.156032     -0.243204      0.016566
  H       4.508829      1.331815      0.527356
  H       5.297728     -0.882582      2.573465
  H       3.739049      0.147218      2.529158
  H       1.658127      0.064247     -0.384117
  H       2.814396     -0.292220     -1.677340
  H       0.700698     -0.053252     -2.649898
  H       1.114891     -1.794356     -2.749374
  H      -1.576321     -0.686220     -2.919789
  H      -1.226937     -2.433776     -2.863038
  H      -2.503889     -2.553098     -0.675974
  H      -3.474405     -2.155385     -2.121690
  H      -4.089705     -1.464226      0.760898
  H      -5.106720     -1.083125     -0.655877
  H      -3.757045      0.974706      1.188082
  H      -4.749425      1.366383     -0.243113
  H      -7.060454      1.495576      2.539220
  H      -5.366128      2.059870      2.634165
  H      -6.368582      2.472800      1.211224
37
Coordinates from ORCA-job TEGDME_anion_cpcm_20_moread E -770.225139971917
  C       6.737160      2.040870      1.737503
  O       6.525198      0.932849      0.865337
  C       5.145400      0.521432      0.841100
  C       4.690050     -0.081156      2.119651
  O       2.389401     -1.883667     -0.366419
  C       2.000942     -0.765068     -1.045288
  C       0.863686     -0.971025     -2.049931
  O      -0.350898     -1.288383     -1.354748
  C      -1.426358     -1.541726     -2.244096
  C      -2.687207     -1.783373     -1.454573
  O      -3.099620     -0.562092     -0.841983
  C      -4.266609     -0.729288     -0.048468
  C      -4.598031      0.621157      0.555767
  O      -5.779532      0.463803      1.331789
  C      -6.161130      1.682629      1.962253
  H       6.491366      1.789982      2.779598
  H       6.128987      2.906176      1.431067
  H       7.796113      2.303704      1.671861
  H       5.093004     -0.214798      0.024456
  H       4.506165      1.373816      0.559286
  H       5.294757     -0.847386      2.596274
  H       3.722906      0.163594      2.544633
  H       1.654472      0.076876     -0.383752
  H       2.815299     -0.296577     -1.667524
  H       0.706876     -0.055327     -2.652290
  H       1.116274     -1.797918     -2.738624
  H      -1.574767     -0.687765     -2.928650
  H      -1.219869     -2.433732     -2.861434
  H      -2.508422     -2.552301     -0.684627
  H      -3.474383     -2.152572     -2.132901
  H      -4.091729     -1.468848      0.750662
  H      -5.110111     -1.084752     -0.664225
  H      -3.763002      0.968539      1.186786
  H      -4.754659      1.364385     -0.244107
  H      -7.066057      1.479716      2.540150
  H      -5.371687      2.043362      2.638612
  H      -6.373982      2.464863      1.217942
37
Coordinates from ORCA-job TEGDME_anion_cpcm_20_moread E -770.225172130902
  C       6.772529      2.012145      1.718897
  O       6.504126      0.919867      0.842688
  C       5.113466      0.551521      0.852314
  C       4.678041     -0.058797      2.134279
  O       2.383786     -1.878374     -0.350753
  C       2.001379     -0.762702     -1.036681
  C       0.867401     -0.970400     -2.044561
  O      -0.350892     -1.280145     -1.351981
  C      -1.422721     -1.539764     -2.244064
  C      -2.685227     -1.782583     -1.458023
  O      -3.101064     -0.561235     -0.846941
  C      -4.267722     -0.731526     -0.053190
  C      -4.602581      0.617875      0.551348
  O      -5.783949      0.456700      1.327134
  C      -6.167556      1.673663      1.960371
  H       6.543465      1.759692      2.764509
  H       6.185433      2.899390      1.434876
  H       7.837607      2.241554      1.629940
  H       5.011512     -0.168483      0.025187
  H       4.490883      1.426159      0.602168
  H       5.300072     -0.814386      2.605349
  H       3.705386      0.162555      2.559455
  H       1.655550      0.084431     -0.381255
  H       2.819055     -0.299375     -1.659055
  H       0.715256     -0.057698     -2.652851
  H       1.119801     -1.801422     -2.728285
  H      -1.570959     -0.688805     -2.932545
  H      -1.211282     -2.433326     -2.857432
  H      -2.507409     -2.550560     -0.686895
  H      -3.470238     -2.153285     -2.137941
  H      -4.090473     -1.470849      0.745632
  H      -5.110495     -1.089232     -0.668665
  H      -3.768748      0.967124      1.182911
  H      -4.761126      1.361025     -0.248198
  H      -7.072198      1.468029      2.537803
  H      -5.378663      2.033894      2.637668
  H      -6.381445      2.457324      1.217873
37
Coordinates from ORCA-job TEGDME_anion_cpcm_20_moread E -770.225214456953
  C       6.771799      1.990651      1.714375
  O       6.460351      0.920094      0.826215
  C       5.063413      0.583465      0.860022
  C       4.643905     -0.041028      2.140731
  O       2.391463     -1.886124     -0.354099
  C       2.012516     -0.772424     -1.043859
  C       0.877020     -0.979480     -2.050193
  O      -0.343291     -1.277611     -1.355483
  C      -1.415522     -1.540727     -2.246332
  C      -2.677308     -1.782486     -1.459335
  O      -3.093409     -0.559642     -0.850304
  C      -4.256474     -0.730663     -0.050911
  C      -4.592385      0.619816      0.550545
  O      -5.767421      0.456334      1.335868
  C      -6.150958      1.674295      1.967853
  H       6.556796      1.726508      2.760193
  H       6.201257      2.896640      1.456997
  H       7.840291      2.196365      1.608505
  H       4.922397     -0.117615      0.021815
  H       4.453840      1.475357      0.639640
  H       5.284876     -0.783560      2.606755
  H       3.661680      0.147794      2.559378
  H       1.670742      0.079120     -0.391922
  H       2.830848     -0.313910     -1.669444
  H       0.729875     -0.070140     -2.664934
  H       1.124607     -1.815827     -2.729074
  H      -1.564207     -0.692088     -2.937691
  H      -1.203561     -2.435941     -2.857098
  H      -2.498789     -2.548572     -0.686536
  H      -3.462636     -2.154876     -2.137895
  H      -4.073538     -1.466710      0.749621
  H      -5.100801     -1.092989     -0.661516
  H      -3.755288      0.974858      1.174517
  H      -4.760175      1.359390     -0.250401
  H      -7.051523      1.467859      2.551393
  H      -5.359034      2.038722      2.639377
  H      -6.371358      2.455145      1.224314
37
Coordinates from ORCA-job TEGDME_anion_cpcm_20_moread E -770.225243763879
  C       6.727017      1.988057      1.732669
  O       6.395471      0.945926      0.818565
  C       4.997660      0.618814      0.862259
  C       4.592441     -0.035684      2.132470
  O       2.410876     -1.914368     -0.377478
  C       2.032990     -0.801494     -1.068407
  C       0.890916     -1.005148     -2.068143
  O      -0.329346     -1.288104     -1.366734
  C      -1.406948     -1.547204     -2.252469
  C      -2.666187     -1.783878     -1.460150
  O      -3.076118     -0.558242     -0.851731
  C      -4.232940     -0.725257     -0.042073
  C      -4.564344      0.628693      0.554071
  O      -5.725724      0.466776      1.360123
  C      -6.104535      1.689230      1.986771
  H       6.523367      1.695671      2.773192
  H       6.161310      2.905928      1.509282
  H       7.795822      2.188264      1.619051
  H       4.835616     -0.058429      0.008074
  H       4.390712      1.519996      0.673564
  H       5.256123     -0.763008      2.590357
  H       3.597142      0.105323      2.538863
  H       1.699504      0.053855     -0.417258
  H       2.849722     -0.348714     -1.700543
  H       0.749055     -0.099108     -2.689035
  H       1.128916     -1.847786     -2.742587
  H      -1.554819     -0.698244     -2.943580
  H      -1.201515     -2.443435     -2.864021
  H      -2.487196     -2.548959     -0.686588
  H      -3.455343     -2.154825     -2.135063
  H      -4.043392     -1.456021      0.761695
  H      -5.081506     -1.091817     -0.644124
  H      -3.718053      0.991295      1.161083
  H      -4.748428      1.362038     -0.248967
  H      -6.996992      1.485472      2.583550
  H      -5.304997      2.061284      2.644968
  H      -6.336275      2.463102      1.239431
37
Coordinates from ORCA-job TEGDME_anion_cpcm_20_moread E -770.225267832991
  C       6.776497      1.962645      1.701584
  O       6.374663      0.955100      0.776505
  C       4.974128      0.661840      0.880185
  C       4.616497     -0.030855      2.143868
  O       2.399535     -1.912018     -0.346960
  C       2.027773     -0.800274     -1.042487
  C       0.891564     -1.003810     -2.048779
  O      -0.333086     -1.285817     -1.354777
  C      -1.404874     -1.545489     -2.247299
  C      -2.668995     -1.783364     -1.463218
  O      -3.082381     -0.558889     -0.854711
  C      -4.243806     -0.727778     -0.052118
  C      -4.579589      0.624837      0.544508
  O      -5.744938      0.460554      1.344300
  C      -6.127690      1.681249      1.971828
  H       6.611458      1.647274      2.742151
  H       6.226923      2.900758      1.527860
  H       7.844247      2.136627      1.544059
  H       4.748988      0.022316      0.010635
  H       4.380798      1.583564      0.755236
  H       5.310434     -0.749146      2.570278
  H       3.621273      0.061648      2.564365
  H       1.692920      0.057731     -0.395216
  H       2.848988     -0.350568     -1.671499
  H       0.753838     -0.097833     -2.670699
  H       1.132748     -1.846870     -2.721649
  H      -1.548943     -0.696455     -2.939177
  H      -1.194599     -2.441327     -2.857765
  H      -2.495078     -2.550025     -0.690045
  H      -3.454204     -2.152505     -2.143663
  H      -4.058433     -1.459823      0.751475
  H      -5.088543     -1.093887     -0.659801
  H      -3.736868      0.987120      1.156655
  H      -4.760307      1.359387     -0.258159
  H      -7.022984      1.475264      2.563555
  H      -5.331690      2.052158      2.634931
  H      -6.356264      2.456662      1.225131
37
Coordinates from ORCA-job TEGDME_anion_cpcm_20_moread E -770.225303279834
  C       6.634269      2.036182      1.777836
  O       6.230694      1.144400      0.739621
  C       4.861341      0.743923      0.879345
  C       4.625071     -0.132302      2.052804
  O       2.443975     -2.016932     -0.401279
  C       2.067396     -0.896453     -1.079825
  C       0.911139     -1.078550     -2.067735
  O      -0.307408     -1.351874     -1.360739
  C      -1.394864     -1.574823     -2.243894
  C      -2.657553     -1.791897     -1.450640
  O      -3.045213     -0.561340     -0.839352
  C      -4.202709     -0.707541     -0.027580
  C      -4.526365      0.658694      0.544205
  O      -5.659642      0.511505      1.391299
  C      -6.038723      1.751505      1.981304
  H       6.558319      1.564665      2.767877
  H       6.019891      2.949509      1.773612
  H       7.676837      2.301843      1.585333
  H       4.617253      0.211726     -0.055075
  H       4.207953      1.633140      0.914327
  H       5.400557     -0.826553      2.362827
  H       3.633168     -0.221528      2.482111
  H       1.754969     -0.040791     -0.417932
  H       2.879809     -0.450522     -1.722563
  H       0.777492     -0.165574     -2.679578
  H       1.132554     -1.919935     -2.749771
  H      -1.526204     -0.713408     -2.922413
  H      -1.213070     -2.467161     -2.868620
  H      -2.493252     -2.562931     -0.679918
  H      -3.453219     -2.145276     -2.127614
  H      -4.018456     -1.423031      0.791043
  H      -5.051168     -1.081227     -0.625134
  H      -3.662231      1.040836      1.113149
  H      -4.741744      1.372060     -0.268834
  H      -6.915669      1.559340      2.604139
  H      -5.229438      2.156002      2.607580
  H      -6.295757      2.494324      1.211171
37
Coordinates from ORCA-job TEGDME_anion_cpcm_20_moread E -770.225332758579
  C       6.665428      2.020402      1.749078
  O       6.242019      1.108094      0.738122
  C       4.866585      0.735587      0.893065
  C       4.618359     -0.112013      2.085558
  O       2.427793     -2.000685     -0.390919
  C       2.058040     -0.879397     -1.072254
  C       0.907394     -1.062306     -2.066464
  O      -0.311699     -1.343705     -1.363625
  C      -1.396265     -1.572899     -2.248709
  C      -2.659009     -1.792135     -1.456045
  O      -3.047917     -0.563123     -0.842754
  C      -4.207191     -0.711884     -0.034110
  C      -4.528357      0.650964      0.547244
  O      -5.674990      0.503424      1.375910
  C      -6.051346      1.738658      1.977429
  H       6.584613      1.578766      2.752808
  H       6.067375      2.944421      1.721793
  H       7.711956      2.262246      1.546451
  H       4.609983      0.189133     -0.029939
  H       4.229649      1.637213      0.912192
  H       5.384559     -0.807853      2.414219
  H       3.624187     -0.178073      2.514038
  H       1.740397     -0.023556     -0.412934
  H       2.875282     -0.433646     -1.708719
  H       0.771580     -0.147205     -2.674818
  H       1.134885     -1.899881     -2.751054
  H      -1.530124     -0.713683     -2.929714
  H      -1.209963     -2.466300     -2.870440
  H      -2.492938     -2.563935     -0.686298
  H      -3.454331     -2.146273     -2.132905
  H      -4.026024     -1.434641      0.778865
  H      -5.056571     -1.078426     -0.634916
  H      -3.670316      1.021177      1.133034
  H      -4.725895      1.373190     -0.262585
  H      -6.935522      1.545269      2.589663
  H      -5.245524      2.130108      2.616374
  H      -6.296103      2.492966      1.214446
37
Coordinates from ORCA-job TEGDME_anion_cpcm_20_moread E -770.225343597696
  C       6.625304      2.048334      1.784553
  O       6.258702      1.116618      0.769666
  C       4.886227      0.712892      0.878183
  C       4.610031     -0.121910      2.073869
  O       2.426039     -2.007559     -0.418103
  C       2.054457     -0.883999     -1.096297
  C       0.900590     -1.067404     -2.086737
  O      -0.313048     -1.356794     -1.378103
  C      -1.403534     -1.584774     -2.256143
  C      -2.661316     -1.798871     -1.453841
  O      -3.042142     -0.567851     -0.840344
  C      -4.198284     -0.710272     -0.026355
  C      -4.508890      0.654343      0.556826
  O      -5.657298      0.514765      1.384041
  C      -6.025253      1.752039      1.986318
  H       6.523076      1.614208      2.789767
  H       6.005306      2.956719      1.729082
  H       7.671438      2.315559      1.614274
  H       4.682566      0.146733     -0.045369
  H       4.230412      1.600641      0.860137
  H       5.358113     -0.829276      2.419056
  H       3.613185     -0.157622      2.500039
  H       1.736390     -0.030729     -0.434190
  H       2.870149     -0.436440     -1.732734
  H       0.758069     -0.150000     -2.690009
  H       1.128521     -1.901320     -2.775509
  H      -1.540215     -0.726389     -2.937583
  H      -1.223877     -2.479998     -2.877154
  H      -2.491137     -2.569724     -0.683925
  H      -3.462319     -2.152965     -2.124022
  H      -4.017509     -1.434625      0.785348
  H      -5.053134     -1.071482     -0.622670
  H      -3.648571      1.017261      1.143832
  H      -4.699390      1.378582     -0.252988
  H      -6.909000      1.564023      2.600866
  H      -5.215836      2.139413      2.623224
  H      -6.267822      2.507873      1.224083
37
Coordinates from ORCA-job TEGDME_anion_cpcm_20_moread E -770.225348668983
  C       6.592449      2.062326      1.798964
  O       6.229725      1.140239      0.773809
  C       4.861478      0.724244      0.882014
  C       4.596632     -0.128151      2.067665
  O       2.429021     -2.025344     -0.431260
  C       2.058658     -0.901235     -1.109641
  C       0.902997     -1.083087     -2.098408
  O      -0.309668     -1.370259     -1.387318
  C      -1.403338     -1.593685     -2.262546
  C      -2.659813     -1.801939     -1.456551
  O      -3.032832     -0.569259     -0.841696
  C      -4.187138     -0.706135     -0.024169
  C      -4.488524      0.659659      0.561123
  O      -5.634888      0.525512      1.392022
  C      -5.994781      1.764355      1.995909
  H       6.497299      1.614842      2.799023
  H       5.964932      2.966231      1.756853
  H       7.635763      2.340042      1.628303
  H       4.658897      0.168739     -0.048362
  H       4.198033      1.606506      0.878404
  H       5.352577     -0.831397      2.404028
  H       3.599256     -0.183772      2.490438
  H       1.742926     -0.047287     -0.447380
  H       2.874562     -0.455601     -1.747001
  H       0.760725     -0.165487     -2.701460
  H       1.128460     -1.917528     -2.787344
  H      -1.538043     -0.734914     -2.943865
  H      -1.229369     -2.489980     -2.883644
  H      -2.490876     -2.573735     -0.687289
  H      -3.464466     -2.152298     -2.124338
  H      -4.007685     -1.432135      0.786366
  H      -5.045885     -1.062256     -0.617939
  H      -3.624359      1.017555      1.145551
  H      -4.677758      1.385469     -0.247590
  H      -6.876780      1.580282      2.614159
  H      -5.181013      2.148107      2.629470
  H      -6.237172      2.521376      1.234787
37
Coordinates from ORCA-job TEGDME_anion_cpcm_20_moread E -770.225353921664
  C       6.561476      2.077658      1.813428
  O       6.198713      1.171862      0.773605
  C       4.835982      0.740181      0.886398
  C       4.591475     -0.139491      2.056048
  O       2.431403     -2.042706     -0.439369
  C       2.061814     -0.918985     -1.118601
  C       0.905182     -1.100174     -2.106426
  O      -0.307414     -1.384002     -1.393783
  C      -1.403136     -1.604096     -2.267236
  C      -2.659366     -1.805339     -1.459094
  O      -3.024747     -0.570456     -0.843954
  C      -4.178166     -0.701158     -0.024107
  C      -4.469553      0.665542      0.564049
  O      -5.615626      0.537524      1.396387
  C      -5.966275      1.777569      2.003213
  H       6.479446      1.609813      2.805277
  H       5.924629      2.975716      1.794214
  H       7.600425      2.368902      1.638830
  H       4.628858      0.202718     -0.053829
  H       4.162976      1.614885      0.908397
  H       5.358507     -0.839871      2.372778
  H       3.596401     -0.221062      2.480087
  H       1.747830     -0.063846     -0.457011
  H       2.877854     -0.474897     -1.756907
  H       0.763683     -0.183059     -2.710406
  H       1.128373     -1.935831     -2.794656
  H      -1.534627     -0.746081     -2.950127
  H      -1.234034     -2.502388     -2.886840
  H      -2.493281     -2.577746     -0.689826
  H      -3.467046     -2.151733     -2.125299
  H      -4.001533     -1.429707      0.784759
  H      -5.040533     -1.050794     -0.616492
  H      -3.602327      1.016735      1.147983
  H      -4.655151      1.393947     -0.243172
  H      -6.847498      1.597764      2.623829
  H      -5.148340      2.155404      2.634971
  H      -6.206376      2.537203      1.243970
37
Coordinates from ORCA-job TEGDME_anion_cpcm_20_moread E -770.225370203657
  C       6.509695      2.101235      1.824845
  O       6.090262      1.263506      0.749310
  C       4.744852      0.802805      0.921367
  C       4.591619     -0.167775      2.032397
  O       2.433330     -2.084305     -0.444364
  C       2.069142     -0.962096     -1.127490
  C       0.913067     -1.141179     -2.116275
  O      -0.302016     -1.414548     -1.403200
  C      -1.399286     -1.629894     -2.275808
  C      -2.657475     -1.813307     -1.466798
  O      -3.006625     -0.572594     -0.853203
  C      -4.159750     -0.688873     -0.030457
  C      -4.428008      0.679027      0.565490
  O      -5.577577      0.565637      1.395492
  C      -5.906155      1.807105      2.011742
  H       6.496659      1.564549      2.784540
  H       5.862498      2.987908      1.908815
  H       7.531714      2.419695      1.604115
  H       4.475011      0.336639     -0.041888
  H       4.061743      1.659620      1.056968
  H       5.403422     -0.848876      2.269726
  H       3.613127     -0.345692      2.465739
  H       1.758650     -0.102575     -0.469543
  H       2.887680     -0.522871     -1.766523
  H       0.776151     -0.225881     -2.724114
  H       1.131475     -1.980572     -2.801526
  H      -1.520978     -0.775861     -2.965531
  H      -1.238686     -2.534377     -2.888725
  H      -2.501006     -2.586248     -0.696055
  H      -3.470218     -2.150609     -2.131453
  H      -3.991859     -1.424686      0.773664
  H      -5.029517     -1.021755     -0.621722
  H      -3.556346      1.012010      1.153363
  H      -4.599988      1.415031     -0.237826
  H      -6.787835      1.636969      2.634452
  H      -5.080013      2.167312      2.643126
  H      -6.136757      2.575524      1.258435
37
Coordinates from ORCA-job TEGDME_anion_cpcm_20_moread E -770.225380094755
  C       6.429562      2.143144      1.889483
  O       6.033216      1.356754      0.767405
  C       4.708915      0.830954      0.921162
  C       4.603402     -0.203576      1.978790
  O       2.443603     -2.121787     -0.481796
  C       2.073940     -0.999429     -1.161851
  C       0.910242     -1.178845     -2.141542
  O      -0.299957     -1.447253     -1.418256
  C      -1.405505     -1.659260     -2.281104
  C      -2.658943     -1.826273     -1.461166
  O      -2.992729     -0.578316     -0.853826
  C      -4.139714     -0.678819     -0.020479
  C      -4.389874      0.695022      0.569607
  O      -5.532326      0.597264      1.411383
  C      -5.845355      1.846104      2.020709
  H       6.451617      1.547434      2.813405
  H       5.745988      2.993666      2.035512
  H       7.434045      2.519035      1.678920
  H       4.452442      0.406441     -0.064644
  H       3.992012      1.649849      1.106578
  H       5.435340     -0.877505      2.160606
  H       3.639472     -0.429687      2.422255
  H       1.767703     -0.140392     -0.501382
  H       2.887768     -0.559929     -1.806475
  H       0.770424     -0.265072     -2.750922
  H       1.121721     -2.020600     -2.826028
  H      -1.524860     -0.808995     -2.975777
  H      -1.257441     -2.569290     -2.888990
  H      -2.503049     -2.595008     -0.686144
  H      -3.479672     -2.161445     -2.117042
  H      -3.971760     -1.411495      0.786460
  H      -5.017662     -1.006868     -0.602266
  H      -3.509667      1.023736      1.147032
  H      -4.562990      1.427625     -0.236549
  H      -6.720907      1.687232      2.654912
  H      -5.009636      2.205929      2.639563
  H      -6.079364      2.609657      1.263544
37
Coordinates from ORCA-job TEGDME_anion_cpcm_20_moread E -770.225365032593
  C       6.427885      2.148901      1.918330
  O       6.106958      1.326650      0.798513
  C       4.777724      0.792866      0.884960
  C       4.610708     -0.200783      1.974331
  O       2.443721     -2.107459     -0.499432
  C       2.068293     -0.983752     -1.175532
  C       0.899960     -1.164809     -2.149356
  O      -0.305837     -1.436590     -1.420225
  C      -1.414207     -1.654515     -2.278032
  C      -2.663243     -1.827184     -1.452415
  O      -3.003409     -0.579184     -0.849116
  C      -4.146592     -0.683429     -0.011138
  C      -4.404087      0.691932      0.572439
  O      -5.543875      0.591507      1.417392
  C      -5.863549      1.841769      2.020326
  H       6.402202      1.580563      2.859271
  H       5.728593      2.995458      1.999594
  H       7.439076      2.531208      1.756987
  H       4.594965      0.326748     -0.097394
  H       4.047268      1.613582      0.989617
  H       5.415019     -0.895476      2.197626
  H       3.637417     -0.359092      2.426315
  H       1.761709     -0.127982     -0.511391
  H       2.878443     -0.541194     -1.822160
  H       0.755733     -0.251245     -2.757976
  H       1.110448     -2.005964     -2.834785
  H      -1.541353     -0.804884     -2.972040
  H      -1.264439     -2.563904     -2.886381
  H      -2.498646     -2.591603     -0.674950
  H      -3.484047     -2.170772     -2.103847
  H      -3.970820     -1.410474      0.799192
  H      -5.024285     -1.020473     -0.588138
  H      -3.524430      1.029146      1.145797
  H      -4.583630      1.419242     -0.237109
  H      -6.738186      1.681642      2.655459
  H      -5.029743      2.209447      2.637118
  H      -6.101742      2.600109      1.259239
37
Coordinates from ORCA-job TEGDME_anion_cpcm_20_moread E -770.225395313484
  C       6.455124      2.133814      1.886954
  O       6.073261      1.330874      0.772238
  C       4.742713      0.814785      0.911170
  C       4.612487     -0.198483      1.987101
  O       2.439517     -2.107501     -0.482218
  C       2.069999     -0.984114     -1.161395
  C       0.904924     -1.163144     -2.139485
  O      -0.304215     -1.432205     -1.414712
  C      -1.408868     -1.652032     -2.276873
  C      -2.661018     -1.825299     -1.456320
  O      -3.003502     -0.577742     -0.853037
  C      -4.149252     -0.683603     -0.018659
  C      -4.407794      0.690165      0.568071
  O      -5.552773      0.588566      1.405967
  C      -5.872406      1.836561      2.013691
  H       6.459862      1.554373      2.821487
  H       5.773845      2.990299      2.007813
  H       7.464695      2.501961      1.687114
  H       4.504801      0.371591     -0.070573
  H       4.029062      1.642889      1.065302
  H       5.433905     -0.880357      2.186118
  H       3.646527     -0.389318      2.442248
  H       1.763829     -0.125858     -0.499940
  H       2.883632     -0.544601     -1.806113
  H       0.764591     -0.249546     -2.749055
  H       1.115973     -2.004890     -2.824046
  H      -1.533910     -0.803252     -2.972406
  H      -1.255460     -2.561803     -2.883724
  H      -2.499488     -2.590326     -0.678793
  H      -3.479427     -2.168179     -2.111089
  H      -3.976067     -1.413201      0.789938
  H      -5.025554     -1.018486     -0.599058
  H      -3.531185      1.024070      1.147977
  H      -4.581496      1.420417     -0.240106
  H      -6.750759      1.675323      2.643417
  H      -5.040869      2.198795      2.636757
  H      -6.104704      2.599454      1.255324
37
Coordinates from ORCA-job TEGDME_anion_cpcm_20_moread E -770.225400993136
  C       6.447405      2.135510      1.885212
  O       6.028148      1.364951      0.761221
  C       4.705699      0.839454      0.932427
  C       4.618605     -0.208755      1.978783
  O       2.439241     -2.117977     -0.483213
  C       2.072880     -0.995298     -1.164911
  C       0.907153     -1.173547     -2.142402
  O      -0.302465     -1.437520     -1.416481
  C      -1.407361     -1.660072     -2.277640
  C      -2.659460     -1.828856     -1.456152
  O      -3.000058     -0.578729     -0.856938
  C      -4.144793     -0.680648     -0.020624
  C      -4.398005      0.694055      0.566188
  O      -5.545575      0.597483      1.401222
  C      -5.858954      1.845913      2.011358
  H       6.487144      1.528529      2.801292
  H       5.768405      2.985354      2.055840
  H       7.448143      2.513442      1.660654
  H       4.431966      0.427232     -0.053772
  H       3.995394      1.659175      1.138921
  H       5.457924     -0.878969      2.138489
  H       3.665641     -0.434950      2.444950
  H       1.768927     -0.134519     -0.505539
  H       2.887631     -0.559303     -1.810739
  H       0.769054     -0.261148     -2.754315
  H       1.115713     -2.017546     -2.824949
  H      -1.531778     -0.814140     -2.976805
  H      -1.254668     -2.572474     -2.880693
  H      -2.498654     -2.591334     -0.675979
  H      -3.478589     -2.172848     -2.109417
  H      -3.972503     -1.410723      0.787718
  H      -5.023260     -1.012707     -0.599409
  H      -3.521405      1.023560      1.148590
  H      -4.566282      1.425402     -0.242159
  H      -6.739457      1.688310      2.639015
  H      -5.026488      2.201675      2.636913
  H      -6.085317      2.612022      1.254426
37
Coordinates from ORCA-job TEGDME_anion_cpcm_20_moread E -770.225408637290
  C       6.444186      2.138153      1.889678
  O       6.033028      1.364463      0.764820
  C       4.710870      0.835709      0.929846
  C       4.621193     -0.211264      1.977414
  O       2.439359     -2.116622     -0.486611
  C       2.072668     -0.994257     -1.168832
  C       0.905786     -1.172935     -2.144932
  O      -0.303113     -1.435901     -1.417486
  C      -1.408580     -1.660770     -2.277310
  C      -2.659738     -1.829772     -1.454401
  O      -3.001475     -0.579013     -0.857216
  C      -4.145492     -0.680671     -0.019924
  C      -4.398022      0.694187      0.566844
  O      -5.547366      0.598848      1.399577
  C      -5.859047      1.846959      2.011248
  H       6.481747      1.532675      2.806868
  H       5.761411      2.985892      2.055719
  H       7.444685      2.519270      1.669465
  H       4.444262      0.421032     -0.057138
  H       3.997849      1.654147      1.131258
  H       5.458251     -0.884625      2.135639
  H       3.670234     -0.428767      2.451631
  H       1.769440     -0.132976     -0.509794
  H       2.886885     -0.559032     -1.815754
  H       0.767526     -0.260990     -2.757483
  H       1.113374     -2.017676     -2.826844
  H      -1.534749     -0.815835     -2.977385
  H      -1.255477     -2.573750     -2.879368
  H      -2.497218     -2.590600     -0.672980
  H      -3.478931     -2.176024     -2.106405
  H      -3.972644     -1.410655      0.788371
  H      -5.024553     -1.012582     -0.597914
  H      -3.522174      1.022446      1.151072
  H      -4.563793      1.425930     -0.241681
  H      -6.741515      1.690477      2.636426
  H      -5.027231      2.199489      2.639489
  H      -6.081634      2.615041      1.255180
37
Coordinates from ORCA-job TEGDME_anion_cpcm_20_moread E -770.225425091049
  C       6.412436      2.152442      1.908425
  O       6.012787      1.387340      0.773462
  C       4.698281      0.836177      0.932078
  C       4.626094     -0.225498      1.966627
  O       2.444221     -2.122528     -0.503716
  C       2.076958     -1.002232     -1.189145
  C       0.904802     -1.182422     -2.158940
  O      -0.301430     -1.438377     -1.424723
  C      -1.410484     -1.668982     -2.278336
  C      -2.657884     -1.834592     -1.448909
  O      -2.999314     -0.580300     -0.859202
  C      -4.140040     -0.677207     -0.017008
  C      -4.385205      0.699126      0.569532
  O      -5.538970      0.611564      1.396979
  C      -5.839891      1.859471      2.014431
  H       6.462969      1.534728      2.816863
  H       5.714928      2.985430      2.087372
  H       7.405609      2.554284      1.691848
  H       4.439607      0.429244     -0.059945
  H       3.973985      1.641401      1.144147
  H       5.465634     -0.901556      2.097680
  H       3.690151     -0.437701      2.471763
  H       1.778367     -0.137466     -0.532562
  H       2.888896     -0.571886     -1.841930
  H       0.767017     -0.272921     -2.775179
  H       1.107003     -2.031344     -2.837254
  H      -1.541205     -0.827790     -2.982117
  H      -1.259182     -2.584887     -2.876328
  H      -2.490716     -2.589604     -0.662879
  H      -3.479006     -2.186780     -2.095335
  H      -3.966488     -1.407094      0.791180
  H      -5.022882     -1.006138     -0.590993
  H      -3.509749      1.020944      1.157887
  H      -4.542199      1.432324     -0.239470
  H      -6.728362      1.709629      2.632704
  H      -5.008203      2.198360      2.650292
  H      -6.048534      2.634840      1.261789
37
Coordinates from ORCA-job TEGDME_anion_cpcm_20_moread E -770.225436799027
  C       6.358898      2.173741      1.933899
  O       5.959624      1.434414      0.781561
  C       4.660795      0.846878      0.942911
  C       4.630466     -0.246087      1.946710
  O       2.454094     -2.139181     -0.527591
  C       2.084948     -1.021156     -1.215682
  C       0.906270     -1.202812     -2.177566
  O      -0.296482     -1.451180     -1.435155
  C      -1.410961     -1.683574     -2.281156
  C      -2.654157     -1.841165     -1.443784
  O      -2.989439     -0.582337     -0.860414
  C      -4.126465     -0.670383     -0.012359
  C      -4.359909      0.708613      0.572770
  O      -5.514765      0.631849      1.399760
  C      -5.802128      1.881459      2.020198
  H       6.441318      1.528893      2.820884
  H       5.643097      2.981792      2.150675
  H       7.337449      2.608255      1.713909
  H       4.398067      0.462644     -0.056913
  H       3.921347      1.627781      1.189614
  H       5.480860     -0.915987      2.031317
  H       3.716485     -0.478592      2.482020
  H       1.792097     -0.152846     -0.561198
  H       2.893517     -0.595595     -1.875621
  H       0.768229     -0.295756     -2.797279
  H       1.101954     -2.055911     -2.852508
  H      -1.543866     -0.845723     -2.988530
  H      -1.265468     -2.602983     -2.875170
  H      -2.484455     -2.591480     -0.653843
  H      -3.479459     -2.195563     -2.083681
  H      -3.953650     -1.399852      0.796331
  H      -5.014345     -0.994531     -0.581315
  H      -3.482004      1.023570      1.161161
  H      -4.510296      1.442235     -0.237123
  H      -6.693796      1.740469      2.635952
  H      -4.967933      2.208633      2.658897
  H      -5.999935      2.661468      1.269405
37
Coordinates from ORCA-job TEGDME_anion_cpcm_20_moread E -770.225446033427
  C       6.289268      2.198298      1.961004
  O       5.883783      1.491321      0.790420
  C       4.607031      0.858107      0.959673
  C       4.633660     -0.269900      1.923888
  O       2.469823     -2.160030     -0.557511
  C       2.096429     -1.044453     -1.247207
  C       0.910006     -1.228154     -2.199406
  O      -0.288120     -1.469861     -1.447456
  C      -1.409533     -1.700532     -2.284701
  C      -2.647920     -1.847881     -1.438281
  O      -2.972944     -0.584500     -0.859191
  C      -4.106224     -0.661608     -0.005172
  C      -4.327090      0.721030      0.576310
  O      -5.478836      0.655544      1.408507
  C      -5.753303      1.908706      2.027495
  H       6.415760      1.522192      2.818973
  H       5.553664      2.972889      2.227485
  H       7.247215      2.673158      1.733914
  H       4.333392      0.501677     -0.047303
  H       3.850742      1.606329      1.251776
  H       5.498006     -0.926701      1.952881
  H       3.747407     -0.536083      2.489254
  H       1.809704     -0.173143     -0.594086
  H       2.900101     -0.622694     -1.915467
  H       0.770122     -0.323374     -2.821960
  H       1.098823     -2.084948     -2.871593
  H      -1.543309     -0.865008     -2.994640
  H      -1.272669     -2.623150     -2.875752
  H      -2.476898     -2.595124     -0.645737
  H      -3.479070     -2.201273     -2.071154
  H      -3.934599     -1.389384      0.805285
  H      -4.999173     -0.981531     -0.568566
  H      -3.444265      1.031509      1.159688
  H      -4.475635      1.453047     -0.235365
  H      -6.644955      1.776964      2.645312
  H      -4.914772      2.229254      2.663867
  H      -5.945620      2.689307      1.275901
37
Coordinates from ORCA-job TEGDME_anion_cpcm_20_moread E -770.225454999282
  C       6.299493      2.191384      1.940945
  O       5.885709      1.472480      0.780712
  C       4.606740      0.846833      0.963218
  C       4.633625     -0.270698      1.939235
  O       2.473432     -2.150523     -0.551540
  C       2.098919     -1.034966     -1.240655
  C       0.913440     -1.219362     -2.193837
  O      -0.285085     -1.463874     -1.443507
  C      -1.405501     -1.692435     -2.282725
  C      -2.644896     -1.843572     -1.438469
  O      -2.971502     -0.582475     -0.855364
  C      -4.107336     -0.662984     -0.005078
  C      -4.334874      0.719242      0.574856
  O      -5.484514      0.648533      1.409405
  C      -5.766389      1.901755      2.024864
  H       6.424681      1.525157      2.806787
  H       5.569579      2.973665      2.200488
  H       7.259525      2.657617      1.704929
  H       4.325893      0.481298     -0.038377
  H       3.855371      1.601497      1.251829
  H       5.495620     -0.930500      1.972524
  H       3.748171     -0.529883      2.509211
  H       1.811033     -0.164498     -0.587075
  H       2.902423     -0.611837     -1.908361
  H       0.772793     -0.313911     -2.815244
  H       1.104180     -2.074924     -2.867063
  H      -1.538999     -0.854527     -2.989876
  H      -1.267207     -2.612885     -2.876807
  H      -2.474603     -2.593645     -0.648422
  H      -3.474955     -2.195171     -2.073754
  H      -3.936009     -1.389560      0.806549
  H      -4.997155     -0.986569     -0.571282
  H      -3.452407      1.035221      1.155858
  H      -4.488978      1.449471     -0.237370
  H      -6.656848      1.766367      2.643605
  H      -4.929456      2.229327      2.659767
  H      -5.963917      2.678951      1.271112
37
Coordinates from ORCA-job TEGDME_anion_cpcm_20_moread E -770.225465911714
  C       6.307527      2.182051      1.915985
  O       5.877156      1.452296      0.769033
  C       4.599629      0.831107      0.974775
  C       4.637470     -0.276197      1.961704
  O       2.480266     -2.131593     -0.549121
  C       2.100399     -1.017023     -1.237139
  C       0.916714     -1.206880     -2.191249
  O      -0.280844     -1.458061     -1.441650
  C      -1.400994     -1.685879     -2.281516
  C      -2.640177     -1.840507     -1.437635
  O      -2.966927     -0.581668     -0.849754
  C      -4.104475     -0.665338     -0.002062
  C      -4.341979      0.718052      0.571106
  O      -5.483476      0.640513      1.415948
  C      -5.777769      1.896353      2.019988
  H       6.438881      1.525170      2.788052
  H       5.584597      2.970901      2.175250
  H       7.267045      2.640844      1.663899
  H       4.304222      0.456247     -0.019078
  H       3.853107      1.589501      1.266484
  H       5.496771     -0.939813      1.990525
  H       3.758830     -0.528805      2.545158
  H       1.807204     -0.149365     -0.582541
  H       2.902606     -0.588836     -1.903236
  H       0.771277     -0.301764     -2.812082
  H       1.112356     -2.060707     -2.865291
  H      -1.535090     -0.846403     -2.986629
  H      -1.261461     -2.604804     -2.877689
  H      -2.469481     -2.593561     -0.650453
  H      -3.470376     -2.190070     -2.073807
  H      -3.930821     -1.387002      0.813517
  H      -4.990599     -0.997452     -0.569046
  H      -3.457623      1.046615      1.142266
  H      -4.510485      1.441737     -0.244082
  H      -6.660958      1.755474      2.647839
  H      -4.940161      2.242478      2.644095
  H      -5.992361      2.662389      1.259525
37
Coordinates from ORCA-job TEGDME_anion_cpcm_20_moread E -770.225470189470
  C       6.324458      2.172052      1.902641
  O       5.884412      1.435652      0.763893
  C       4.605191      0.821806      0.981498
  C       4.643398     -0.278233      1.976399
  O       2.481983     -2.114613     -0.548550
  C       2.097706     -1.000331     -1.234821
  C       0.915462     -1.194182     -2.189757
  O      -0.281100     -1.450947     -1.440380
  C      -1.400580     -1.682557     -2.280160
  C      -2.639080     -1.840251     -1.435919
  O      -2.968937     -0.582141     -0.848074
  C      -4.105601     -0.669012      0.000546
  C      -4.351971      0.715719      0.566655
  O      -5.486914      0.633196      1.419800
  C      -5.791515      1.891338      2.013897
  H       6.455346      1.521918      2.779853
  H       5.607867      2.967793      2.158688
  H       7.285728      2.622700      1.642608
  H       4.302345      0.440863     -0.007761
  H       3.863703      1.585757      1.271617
  H       5.499400     -0.946059      2.005761
  H       3.767156     -0.521263      2.567502
  H       1.799715     -0.135452     -0.578773
  H       2.898805     -0.567150     -1.898982
  H       0.765921     -0.289467     -2.810223
  H       1.114841     -2.046588     -2.864524
  H      -1.536860     -0.844067     -2.985991
  H      -1.258417     -2.601604     -2.875543
  H      -2.466012     -2.592709     -0.648649
  H      -3.468705     -2.192206     -2.071491
  H      -3.926713     -1.385166      0.819886
  H      -4.989609     -1.010196     -0.564311
  H      -3.466675      1.055698      1.129670
  H      -4.532476      1.432857     -0.251731
  H      -6.667633      1.746020      2.650581
  H      -4.953014      2.253713      2.627497
  H      -6.021626      2.647111      1.247733
37
Coordinates from ORCA-job TEGDME_anion_cpcm_20_moread E -770.225473356137
  C       6.324936      2.170193      1.905766
  O       5.879066      1.438270      0.766466
  C       4.602447      0.820654      0.989559
  C       4.649448     -0.284662      1.978274
  O       2.485145     -2.106484     -0.558056
  C       2.096258     -0.992839     -1.242895
  C       0.912729     -1.189988     -2.195542
  O      -0.281501     -1.449269     -1.443182
  C      -1.402109     -1.686643     -2.279821
  C      -2.638388     -1.843748     -1.432243
  O      -2.969850     -0.584046     -0.848630
  C      -4.103067     -0.670601      0.004675
  C      -4.352942      0.716446      0.563486
  O      -5.482007      0.633764      1.424453
  C      -5.790796      1.894880      2.010126
  H       6.462149      1.516558      2.779401
  H       5.608815      2.963796      2.169778
  H       7.283924      2.623548      1.641985
  H       4.293857      0.444192      0.000410
  H       3.861676      1.581833      1.288443
  H       5.505632     -0.952603      1.996570
  H       3.779327     -0.528188      2.578141
  H       1.796247     -0.129444     -0.585744
  H       2.895067     -0.556481     -1.907657
  H       0.759267     -0.286300     -2.816538
  H       1.112737     -2.042346     -2.870184
  H      -1.541494     -0.851420     -2.988894
  H      -1.259266     -2.607852     -2.871726
  H      -2.461729     -2.592622     -0.642354
  H      -3.468706     -2.200207     -2.064382
  H      -3.918138     -1.381067      0.827623
  H      -4.987643     -1.018822     -0.554948
  H      -3.465808      1.064407      1.118694
  H      -4.542276      1.427495     -0.258203
  H      -6.660436      1.748795      2.655461
  H      -4.949834      2.268618      2.613448
  H      -6.032736      2.642182      1.239326
37
Coordinates from ORCA-job TEGDME_anion_cpcm_20_moread E -770.225476666596
  C       6.322895      2.170314      1.918339
  O       5.874352      1.447764      0.774026
  C       4.599744      0.825537      0.996401
  C       4.652956     -0.289986      1.973500
  O       2.487950     -2.100878     -0.571227
  C       2.094590     -0.988635     -1.255805
  C       0.908435     -1.189331     -2.204484
  O      -0.282897     -1.449005     -1.447518
  C      -1.405158     -1.694486     -2.279468
  C      -2.638568     -1.849553     -1.427320
  O      -2.972029     -0.587061     -0.850895
  C      -4.100539     -0.671844      0.008841
  C      -4.351098      0.717713      0.561029
  O      -5.475652      0.637225      1.428211
  C      -5.785017      1.901203      2.007518
  H       6.464592      1.509209      2.785591
  H       5.606178      2.960139      2.191880
  H       7.280061      2.627905      1.655236
  H       4.287840      0.458359      0.004831
  H       3.859258      1.582596      1.305892
  H       5.509485     -0.957617      1.979603
  H       3.787135     -0.537104      2.578096
  H       1.794190     -0.125377     -0.598527
  H       2.890585     -0.550835     -1.922901
  H       0.751313     -0.287399     -2.827086
  H       1.107552     -2.042843     -2.877922
  H      -1.548618     -0.864282     -2.993607
  H      -1.261818     -2.619131     -2.865917
  H      -2.457386     -2.592724     -0.633099
  H      -3.469713     -2.212516     -2.054664
  H      -3.909311     -1.376997      0.834891
  H      -4.987019     -1.025596     -0.544257
  H      -3.462093      1.070963      1.109865
  H      -4.546386      1.423693     -0.263621
  H      -6.649366      1.756171      2.660158
  H      -4.941127      2.282182      2.602145
  H      -6.035315      2.642227      1.233352
37
Coordinates from ORCA-job TEGDME_anion_cpcm_20_moread E -770.225480075492
  C       6.323562      2.168357      1.932188
  O       5.872801      1.455528      0.782470
  C       4.598052      0.832489      1.001775
  C       4.652233     -0.292600      1.968115
  O       2.491620     -2.094036     -0.584717
  C       2.094061     -0.984051     -1.270440
  C       0.904299     -1.188623     -2.213833
  O      -0.283853     -1.447118     -1.451362
  C      -1.407844     -1.702139     -2.277915
  C      -2.638106     -1.855532     -1.420885
  O      -2.974793     -0.590133     -0.852822
  C      -4.098749     -0.673270      0.013027
  C      -4.349988      0.718565      0.559108
  O      -5.471432      0.640402      1.430617
  C      -5.780708      1.906687      2.005040
  H       6.465991      1.499919      2.793658
  H       5.607790      2.956469      2.212947
  H       7.280772      2.627213      1.671461
  H       4.283797      0.474770      0.007473
  H       3.859278      1.587538      1.319862
  H       5.507935     -0.961223      1.965193
  H       3.787745     -0.542811      2.573328
  H       1.794928     -0.119494     -0.614171
  H       2.886768     -0.546736     -1.941676
  H       0.743872     -0.288927     -2.838793
  H       1.101566     -2.044179     -2.885212
  H      -1.556407     -0.877579     -2.997558
  H      -1.263416     -2.630424     -2.858357
  H      -2.451664     -2.592071     -0.621742
  H      -3.469680     -2.226304     -2.043092
  H      -3.901567     -1.373423      0.841899
  H      -4.987011     -1.032167     -0.533873
  H      -3.459758      1.076116      1.103141
  H      -4.549497      1.420146     -0.268275
  H      -6.641641      1.763065      2.662487
  H      -4.934799      2.292355      2.593729
  H      -6.036160      2.643222      1.228292
37
Coordinates from ORCA-job TEGDME_anion_cpcm_20_moread E -770.225482062222
  C       6.308152      2.166200      1.975581
  O       5.847981      1.488893      0.807855
  C       4.577940      0.853767      1.020553
  C       4.647586     -0.304715      1.946172
  O       2.507899     -2.079930     -0.630835
  C       2.098098     -0.976686     -1.320174
  C       0.895501     -1.191812     -2.244957
  O      -0.281959     -1.444439     -1.463968
  C      -1.412783     -1.725421     -2.272189
  C      -2.632269     -1.872315     -1.398689
  O      -2.976000     -0.598479     -0.854410
  C      -4.087003     -0.674720      0.028613
  C      -4.339852      0.724307      0.555241
  O      -5.451669      0.654235      1.439784
  C      -5.760558      1.927710      1.998496
  H       6.461938      1.470514      2.813168
  H       5.592370      2.942065      2.288363
  H       7.261090      2.636664      1.719945
  H       4.253334      0.529418      0.018097
  H       3.841127      1.594891      1.373579
  H       5.503969     -0.971156      1.906141
  H       3.791828     -0.576360      2.554494
  H       1.805810     -0.107223     -0.667127
  H       2.880004     -0.543206     -2.006126
  H       0.725426     -0.298775     -2.876812
  H       1.085005     -2.054071     -2.909941
  H      -1.576861     -0.917035     -3.006741
  H      -1.267045     -2.663957     -2.835633
  H      -2.429880     -2.589535     -0.586009
  H      -3.466396     -2.264697     -2.004031
  H      -3.873414     -1.359465      0.866190
  H      -4.980302     -1.048465     -0.499859
  H      -3.445783      1.094782      1.084103
  H      -4.551874      1.411873     -0.280749
  H      -6.612896      1.789821      2.668254
  H      -4.909678      2.326405      2.571099
  H      -6.028837      2.650916      1.213610
37
Coordinates from ORCA-job TEGDME_anion_cpcm_20_moread E -770.225486294177
  C       6.320035      2.162748      1.955935
  O       5.859462      1.470774      0.797108
  C       4.584639      0.847519      1.014380
  C       4.642676     -0.296077      1.958884
  O       2.503038     -2.083087     -0.613828
  C       2.098904     -0.978136     -1.303761
  C       0.899903     -1.189065     -2.234046
  O      -0.281345     -1.441545     -1.458862
  C      -1.409800     -1.715001     -2.273108
  C      -2.632749     -1.865361     -1.405115
  O      -2.975396     -0.594707     -0.852696
  C      -4.092003     -0.674486      0.022922
  C      -4.345185      0.721381      0.557722
  O      -5.463248      0.647516      1.433965
  C      -5.772496      1.917331      2.000648
  H       6.465836      1.479021      2.804751
  H       5.608586      2.948274      2.254260
  H       7.277122      2.622691      1.696695
  H       4.261746      0.509411      0.015880
  H       3.850731      1.598677      1.352281
  H       5.497639     -0.965242      1.937743
  H       3.779477     -0.558953      2.560548
  H       1.806551     -0.108513     -0.651034
  H       2.884612     -0.546117     -1.986397
  H       0.734191     -0.293987     -2.864212
  H       1.090740     -2.049910     -2.900481
  H      -1.569681     -0.901296     -3.002692
  H      -1.263521     -2.649972     -2.842256
  H      -2.435116     -2.589055     -0.596993
  H      -3.465613     -2.251259     -2.016333
  H      -3.885141     -1.365707      0.856876
  H      -4.982962     -1.042495     -0.513476
  H      -3.453995      1.086134      1.095345
  H      -4.549792      1.415180     -0.274966
  H      -6.631064      1.776978      2.661886
  H      -4.925210      2.308251      2.583861
  H      -6.031570      2.648085      1.219654
37
Coordinates from ORCA-job TEGDME_anion_cpcm_20_moread E -770.225488799347
  C       6.322565      2.158723      1.953620
  O       5.857826      1.466523      0.796678
  C       4.580779      0.849005      1.016148
  C       4.634843     -0.292749      1.962857
  O       2.506623     -2.080958     -0.617461
  C       2.102530     -0.977028     -1.309105
  C       0.901479     -1.188255     -2.236650
  O      -0.278803     -1.438133     -1.459229
  C      -1.408181     -1.713756     -2.271519
  C      -2.629755     -1.864881     -1.401764
  O      -2.973085     -0.594274     -0.849657
  C      -4.090676     -0.674455      0.024668
  C      -4.345147      0.721230      0.559373
  O      -5.465458      0.646904      1.432609
  C      -5.775523      1.916082      2.000156
  H       6.465623      1.476077      2.803779
  H       5.615219      2.948348      2.250924
  H       7.281664      2.613495      1.692698
  H       4.255454      0.510479      0.018522
  H       3.849905      1.603589      1.353308
  H       5.488822     -0.963348      1.945173
  H       3.768087     -0.556935      2.558851
  H       1.813136     -0.105460     -0.657748
  H       2.887227     -0.547927     -1.994753
  H       0.735806     -0.293869     -2.867841
  H       1.090255     -2.050393     -2.901989
  H      -1.570264     -0.900875     -3.001550
  H      -1.261333     -2.649010     -2.840001
  H      -2.430378     -2.587943     -0.593493
  H      -3.462963     -2.252039     -2.011724
  H      -3.884620     -1.365858      0.858673
  H      -4.980975     -1.042665     -0.512700
  H      -3.455360      1.085855      1.099395
  H      -4.547550      1.415221     -0.273695
  H      -6.637115      1.775751      2.657456
  H      -4.930266      2.304951      2.587675
  H      -6.030390      2.648578      1.219401
37
Coordinates from ORCA-job TEGDME_anion_cpcm_20_moread E -770.225490341446
  C       6.319677      2.155112      1.957581
  O       5.850823      1.466939      0.800015
  C       4.572827      0.851966      1.020261
  C       4.625678     -0.291954      1.964096
  O       2.513851     -2.077738     -0.629780
  C       2.107438     -0.975433     -1.322798
  C       0.902310     -1.188315     -2.244640
  O      -0.275162     -1.435050     -1.462008
  C      -1.406960     -1.715421     -2.269369
  C      -2.625154     -1.866435     -1.394914
  O      -2.968955     -0.594977     -0.845049
  C      -4.086044     -0.674424      0.029973
  C      -4.342504      0.722259      0.561148
  O      -5.463174      0.648573      1.433882
  C      -5.774838      1.918449      1.998842
  H       6.461882      1.470212      2.806071
  H       5.615491      2.946424      2.257959
  H       7.279773      2.607409      1.696048
  H       4.244769      0.516810      0.022341
  H       3.844063      1.607290      1.360618
  H       5.479102     -0.963334      1.945312
  H       3.756924     -0.560336      2.555342
  H       1.821781     -0.101847     -0.672602
  H       2.889331     -0.549080     -2.013315
  H       0.734905     -0.295446     -2.877548
  H       1.087781     -2.052439     -2.908306
  H      -1.573397     -0.905040     -3.001210
  H      -1.259986     -2.652044     -2.835518
  H      -2.421742     -2.587021     -0.585426
  H      -3.459736     -2.256750     -2.000965
  H      -3.878705     -1.363524      0.865573
  H      -4.976119     -1.045261     -0.505964
  H      -3.453504      1.089470      1.100707
  H      -4.545301      1.413797     -0.273866
  H      -6.637843      1.778913      2.654452
  H      -4.931002      2.308485      2.587633
  H      -6.028281      2.649762      1.216510
