15
 energy: -24.162913852564 gnorm: 0.000446123610 xtb: 6.7.1pre (5071a88)
C            1.38409896216161       -0.20296727903917       -0.11362990110970
C            0.25952978795494       -1.04623297820586        0.50834030327244
C           -1.01596258462995       -0.81791592435076       -0.25807305589031
S           -1.37094242062331        1.04889528643781       -0.20720624584878
O           -2.50114924388810        1.14480361622602       -1.18979507906902
O           -1.81543027060614        1.23639868668914        1.19603289702088
C            1.01166996307303        1.23579438860386       -0.09613344233361
H            1.54449832637187       -0.53804381814773       -1.14410763897125
H            2.31738365858476       -0.40799192347791        0.44557595329549
H            0.54789254354892       -2.10745809009547        0.51926017656494
H            0.10229388655267       -0.72028354908600        1.53933889431675
H           -0.93070481751731       -1.10049913843005       -1.30667785650935
H           -1.87860677730864       -1.30195660177705        0.19356508249740
H            1.29155779193038        1.84112238221702       -0.94242022093664
H            1.05387118439545        1.73633494243637        0.85593014370072
