15
 energy: -23.496450556512 gnorm: 0.000550562528 xtb: 6.7.1pre (5071a88)
C            1.23670133972683       -0.16742823632896       -0.25851184455494
C            0.33085196251066       -1.12055800979903        0.50909726341314
C           -1.05392003568353       -0.94062452326388       -0.03861125522965
S           -1.15161276321165        0.94622314739217       -0.18409458561270
O           -1.55892482915699        1.29812465988826       -1.49846253396757
O           -1.81041994768008        1.47031675789076        0.95984690189103
C            0.71614372654916        1.21816094468721       -0.01538510119982
H            1.23709755995170       -0.40640875176837       -1.32426597031443
H            2.27619402180783       -0.22067770561441        0.08988839402219
H            0.63075945427165       -2.16783239948762        0.37480960495584
H            0.36148492193668       -0.90707288146150        1.57981145026400
H           -1.18787578061928       -1.26881698696410       -1.06798589061356
H           -1.86348458899776       -1.27852870402364        0.60331827928330
H            1.02083783366123        1.97089360851273       -0.73802122974772
H            0.81616711493356        1.57422908034040        1.00856652741088
