15

C   1.26561906 -0.16004534 -0.21720143
C   0.33657054 -1.15640138  0.47332742
C  -1.06698814 -0.84803611 -0.03551653
S  -1.13359298  0.93142114 -0.18121106
O  -1.55074576  1.27036757 -1.52585905
O  -1.78730377  1.47235671  0.99225829
C   0.62495825  1.21122991 -0.03515045
H   1.33559313 -0.40092882 -1.28486416
H   2.27646299 -0.18743230  0.20031305
H   0.61944292 -2.19199913  0.26263348
H   0.38093031 -1.00945979  1.55926680
H  -1.22479931 -1.27152298 -1.03171224
H  -1.84581737 -1.19410179  0.64689400
H   0.95055021  1.92968111 -0.79002600
H   0.81911991  1.60487120  0.96684789
