15
 energy: -24.013761368455 gnorm: 0.000317735422 xtb: 6.7.1pre (5071a88)
C            1.25972809823246       -0.15915841105513       -0.22897283401502
C            0.33246430745878       -1.14907325948650        0.48349909285041
C           -1.06424041663757       -0.90158734316506       -0.04262793526666
S           -1.12470836320330        0.92412069831240       -0.17979128861828
O           -1.57831950888691        1.30330632339768       -1.48973866207978
O           -1.81719748376647        1.48663283813887        0.94695002765699
C            0.67585018164117        1.22070977931579       -0.01946418742211
H            1.28180468294462       -0.38839068888956       -1.29604074264422
H            2.27625206375332       -0.23059031213428        0.15971072742637
H            0.65347354884275       -2.17663058910949        0.30863513491496
H            0.35724327699489       -0.95834030470004        1.55805745512306
H           -1.21578059276637       -1.29823477882128       -1.04172419408985
H           -1.85480749320195       -1.22387733052953        0.62489451108617
H            0.97361144715472        1.94790859481816       -0.76577075423023
H            0.84462624143987        1.60320478390798        0.98238365930819
