21
Coordinates from ORCA-job SN_m1_shell2_cation_opt E -535.869173266354
  N      -0.665955      1.438741     -1.340062
  C      -0.738936      0.464041     -0.747791
  C      -0.659668     -0.737795      0.033659
  C       0.563526     -0.620140      0.987525
  C       1.490052      0.321309      0.424472
  N       2.119457      1.125093     -0.089377
  H      -1.578349     -0.885692      0.605506
  H      -0.537245     -1.582802     -0.650116
  H       0.253733     -0.244639      1.966979
  H       1.038675     -1.594062      1.124040
  Li      1.113083      2.515926     -1.306345
  N       0.995462      4.240029     -0.063428
  C       1.540905      5.183165     -0.409209
  C       2.275057      6.276299     -0.982397
  C       2.355523      6.061849     -2.520833
  C       2.207228      4.658600     -2.786073
  N       2.023400      3.533602     -2.868296
  H       1.791419      7.228283     -0.752753
  H       3.275799      6.279888     -0.540742
  H       1.544411      6.592355     -3.028089
  H       3.307191      6.430509     -2.909879
21
Coordinates from ORCA-job SN_m1_shell2_cation_opt E -535.872810351798
  N      -0.685767      1.451037     -1.343579
  C      -0.768458      0.463665     -0.754483
  C      -0.669797     -0.748612      0.028753
  C       0.567589     -0.634399      0.993714
  C       1.514418      0.309981      0.440993
  N       2.140659      1.127275     -0.077709
  H      -1.587131     -0.910391      0.602174
  H      -0.545425     -1.591919     -0.658834
  H       0.254175     -0.265506      1.976117
  H       1.035976     -1.613120      1.132291
  Li      1.112178      2.519906     -1.297363
  N       0.985825      4.248486     -0.038174
  C       1.533244      5.203008     -0.382881
  C       2.277698      6.291203     -0.979836
  C       2.360245      6.067262     -2.534730
  C       2.219230      4.654682     -2.812559
  N       2.029243      3.519922     -2.881744
  H       1.801916      7.250624     -0.757024
  H       3.280665      6.298376     -0.539885
  H       1.548555      6.598356     -3.043223
  H       3.309731      6.444726     -2.925227
21
Coordinates from ORCA-job SN_m1_shell2_cation_opt E -535.873494782633
  N      -0.702367      1.462963     -1.335703
  C      -0.787600      0.467232     -0.757126
  C      -0.667925     -0.753736      0.018515
  C       0.565280     -0.639004      0.994465
  C       1.528985      0.304483      0.456745
  N       2.152835      1.128141     -0.059487
  H      -1.583065     -0.935720      0.589519
  H      -0.530722     -1.590179     -0.674813
  H       0.240946     -0.274721      1.974938
  H       1.025928     -1.621033      1.136114
  Li      1.110928      2.526257     -1.281612
  N       0.981283      4.264286     -0.016305
  C       1.530682      5.219330     -0.363554
  C       2.284199      6.295110     -0.983219
  C       2.355772      6.064866     -2.541158
  C       2.225144      4.648097     -2.826896
  N       2.034695      3.510705     -2.884509
  H       1.820849      7.262261     -0.767378
  H       3.291103      6.299526     -0.552647
  H       1.538362      6.593202     -3.043144
  H       3.299454      6.452493     -2.935954
21
Coordinates from ORCA-job SN_m1_shell2_cation_opt E -535.873749227830
  N      -0.715596      1.473842     -1.321142
  C      -0.799056      0.469896     -0.756532
  C      -0.660438     -0.759520      0.004871
  C       0.557855     -0.640156      0.995416
  C       1.534347      0.300585      0.472692
  N       2.158198      1.127376     -0.038703
  H      -1.575462     -0.966781      0.567403
  H      -0.502213     -1.584550     -0.697334
  H       0.218573     -0.275919      1.970660
  H       1.012313     -1.624012      1.144351
  Li      1.109695      2.533789     -1.262265
  N       0.980908      4.284038      0.001696
  C       1.534097      5.235057     -0.350809
  C       2.295670      6.295735     -0.989503
  C       2.345621      6.061763     -2.545435
  C       2.226726      4.643127     -2.833175
  N       2.039675      3.504610     -2.880143
  H       1.848558      7.271154     -0.776469
  H       3.307961      6.290596     -0.572238
  H       1.517138      6.583250     -3.035982
  H       3.280200      6.460678     -2.950569
21
Coordinates from ORCA-job SN_m1_shell2_cation_opt E -535.873931387283
  N      -0.728442      1.485605     -1.299260
  C      -0.806737      0.471207     -0.753758
  C      -0.648242     -0.768874     -0.014280
  C       0.544679     -0.640123      0.998808
  C       1.533169      0.296378      0.492057
  N       2.159391      1.124702     -0.012955
  H      -1.565473     -1.011444      0.530460
  H      -0.457283     -1.575398     -0.729622
  H       0.184381     -0.270409      1.964352
  H       0.993341     -1.624381      1.162737
  Li      1.108293      2.543687     -1.236499
  N       0.983791      4.310402      0.020002
  C       1.543574      5.253920     -0.340715
  C       2.314444      6.295748     -0.998454
  C       2.329162      6.059451     -2.550348
  C       2.224999      4.639275     -2.834982
  N       2.045044      3.499597     -2.869674
  H       1.891484      7.281549     -0.783284
  H       3.334066      6.272087     -0.600317
  H       1.482475      6.568507     -3.022397
  H       3.248652      6.473075     -2.975079
21
Coordinates from ORCA-job SN_m1_shell2_cation_opt E -535.874066622057
  N      -0.739212      1.496704     -1.273553
  C      -0.810067      0.470822     -0.749798
  C      -0.633601     -0.781194     -0.036522
  C       0.527412     -0.639876      1.005080
  C       1.526169      0.291845      0.512385
  N       2.156890      1.120120      0.013945
  H      -1.554625     -1.065053      0.481517
  H      -0.401709     -1.563410     -0.766727
  H       0.142608     -0.259006      1.956836
  H       0.970937     -1.622674      1.191262
  Li      1.107077      2.554782     -1.207223
  N       0.989671      4.339817      0.036891
  C       1.557930      5.273772     -0.333887
  C       2.338311      6.296259     -1.008606
  C       2.308691      6.058996     -2.555996
  C       2.220173      4.636964     -2.832658
  N       2.050006      3.495889     -2.854682
  H       1.945568      7.293057     -0.786172
  H       3.365787      6.246841     -0.633514
  H       1.439043      6.551145     -3.003776
  H       3.207708      6.488759     -3.008012
21
Coordinates from ORCA-job SN_m1_shell2_cation_opt E -535.874139202337
  N      -0.744013      1.503507     -1.254726
  C      -0.808997      0.469558     -0.746517
  C      -0.623724     -0.791506     -0.052459
  C       0.513869     -0.641156      1.011165
  C       1.517784      0.288084      0.525652
  N       2.152905      1.115521      0.031739
  H      -1.548146     -1.105082      0.441970
  H      -0.360701     -1.554107     -0.793055
  H       0.111508     -0.249306      1.951311
  H       0.954767     -1.621457      1.216181
  Li      1.106832      2.562907     -1.185106
  N       0.996244      4.360660      0.047224
  C       1.570598      5.287430     -0.331705
  C       2.356462      6.298584     -1.015978
  C       2.293648      6.060486     -2.560821
  C       2.215043      4.636412     -2.827916
  N       2.052854      3.494145     -2.841344
  H       1.986593      7.302354     -0.785575
  H       3.389067      6.228525     -0.658179
  H       1.406387      6.538446     -2.989383
  H       3.175789      6.500553     -3.035691
21
Coordinates from ORCA-job SN_m1_shell2_cation_opt E -535.874169533175
  N      -0.743063      1.505476     -1.248163
  C      -0.806300      0.468820     -0.744948
  C      -0.622333     -0.796224     -0.057278
  C       0.509267     -0.644411      1.013826
  C       1.513051      0.285709      0.528915
  N       2.150381      1.112817      0.037003
  H      -1.548890     -1.118451      0.427312
  H      -0.349254     -1.551732     -0.801704
  H       0.101788     -0.247841      1.949899
  H       0.950654     -1.623015      1.225398
  Li      1.107642      2.566122     -1.175454
  N       1.000755      4.367859      0.050324
  C       1.576373      5.292357     -0.332618
  C       2.362196      6.302567     -1.018688
  C       2.289548      6.062345     -2.563769
  C       2.212623      4.636587     -2.823764
  N       2.053498      3.493708     -2.834246
  H       1.998903      7.307755     -0.784455
  H       3.396411      6.225991     -0.666505
  H       1.395913      6.534168     -2.986122
  H       3.165606      6.503953     -3.048173
21
Coordinates from ORCA-job SN_m1_shell2_cation_opt E -535.874179218205
  N      -0.741330      1.506729     -1.245964
  C      -0.804850      0.469274     -0.744097
  C      -0.623895     -0.797577     -0.058047
  C       0.508804     -0.648230      1.013812
  C       1.511726      0.283779      0.529221
  N       2.149811      1.111488      0.038946
  H      -1.551425     -1.119931      0.424353
  H      -0.350241     -1.551672     -0.803781
  H       0.101082     -0.251782      1.949875
  H       0.951067     -1.626453      1.224727
  Li      1.108748      2.567777     -1.169754
  N       1.003657      4.370583      0.052385
  C       1.578324      5.294849     -0.332981
  C       2.362224      6.306508     -1.019974
  C       2.289923      6.062850     -2.565659
  C       2.212137      4.635850     -2.821152
  N       2.053631      3.492718     -2.830195
  H       1.998033      7.311294     -0.785939
  H       3.396786      6.230847     -0.668445
  H       1.395265      6.532814     -2.988020
  H       3.165291      6.502845     -3.052524
21
Coordinates from ORCA-job SN_m1_shell2_cation_opt E -535.874185045204
  N      -0.740452      1.509400     -1.242251
  C      -0.804338      0.470638     -0.742984
  C      -0.624810     -0.798345     -0.059880
  C       0.508202     -0.652371      1.012855
  C       1.511216      0.281432      0.530799
  N       2.149913      1.110349      0.043190
  H      -1.552870     -1.121513      0.420794
  H      -0.350579     -1.550508     -0.807379
  H       0.099784     -0.257764      1.949406
  H       0.950672     -1.630874      1.221600
  Li      1.109977      2.570306     -1.161454
  N       1.006787      4.375126      0.056460
  C       1.580282      5.298870     -0.332098
  C       2.362243      6.310374     -1.022136
  C       2.289761      6.062095     -2.567623
  C       2.211895      4.633982     -2.818735
  N       2.054052      3.490665     -2.825279
  H       1.996896      7.315125     -0.790104
  H       3.397269      6.236645     -0.671519
  H       1.394295      6.530288     -2.990259
  H       3.164573      6.500641     -3.056614
21
Coordinates from ORCA-job SN_m1_shell2_cation_opt E -535.874198112206
  N      -0.738618      1.518392     -1.229983
  C      -0.803377      0.475408     -0.739509
  C      -0.626235     -0.799787     -0.066464
  C       0.506132     -0.663859      1.009225
  C       1.510051      0.274750      0.536706
  N       2.150396      1.107587      0.057780
  H      -1.555427     -1.126199      0.409549
  H      -0.350296     -1.545723     -0.819574
  H       0.095399     -0.276341      1.947726
  H       0.948649     -1.643762      1.210434
  Li      1.113518      2.578372     -1.135370
  N       1.015919      4.389791      0.069618
  C       1.586077      5.311536     -0.328695
  C       2.362635      6.320640     -1.029184
  C       2.288270      6.058463     -2.573042
  C       2.211068      4.627644     -2.811786
  N       2.055298      3.483922     -2.810284
  H       1.994025      7.325719     -0.804378
  H       3.399006      6.253117     -0.681285
  H       1.390753      6.521702     -2.996784
  H       3.161524      6.493188     -3.067909
21
Coordinates from ORCA-job SN_m1_shell2_cation_opt E -535.874216787347
  N      -0.736145      1.532990     -1.210204
  C      -0.801875      0.483398     -0.734109
  C      -0.626903     -0.800981     -0.077673
  C       0.502740     -0.680108      1.003018
  C       1.508124      0.265441      0.546829
  N       2.150741      1.104469      0.081921
  H      -1.557546     -1.133127      0.391359
  H      -0.348398     -1.536888     -0.839636
  H       0.088385     -0.305162      1.945020
  H       0.945145     -1.662442      1.191788
  Li      1.118712      2.591197     -1.094498
  N       1.029544      4.412926      0.089987
  C       1.594923      5.331026     -0.323251
  C       2.363702      6.334578     -1.040405
  C       2.284845      6.051443     -2.580690
  C       2.209200      4.617288     -2.801111
  N       2.056612      3.473163     -2.786973
  H       1.990531      7.340469     -0.827360
  H       3.401964      6.276634     -0.696526
  H       1.384688      6.507601     -3.006463
  H       3.155777      6.480644     -3.084234
21
Coordinates from ORCA-job SN_m1_shell2_cation_opt E -535.874253942839
  N      -0.729027      1.576307     -1.150459
  C      -0.796002      0.508005     -0.718307
  C      -0.624394     -0.801756     -0.113110
  C       0.492243     -0.722030      0.984367
  C       1.500672      0.243016      0.578450
  N       2.148847      1.099696      0.155526
  H      -1.559126     -1.154153      0.332361
  H      -0.334841     -1.505716     -0.900619
  H       0.065223     -0.385298      1.935066
  H       0.935329     -1.710038      1.138325
  Li      1.132492      2.629399     -0.976337
  N       1.067561      4.479986      0.147481
  C       1.620633      5.385337     -0.308130
  C       2.368838      6.368672     -1.073152
  C       2.271451      6.027700     -2.600728
  C       2.201111      4.586061     -2.769482
  N       2.057736      3.441677     -2.718563
  H       1.986502      7.377412     -0.892385
  H       3.412495      6.334566     -0.742928
  H       1.363120      6.463874     -3.029903
  H       3.133905      6.441841     -3.130682
21
Coordinates from ORCA-job SN_m1_shell2_cation_opt E -535.874273432278
  N      -0.725593      1.603331     -1.112985
  C      -0.792191      0.524339     -0.708436
  C      -0.620136     -0.799511     -0.135769
  C       0.486694     -0.743956      0.972290
  C       1.495350      0.233451      0.599791
  N       2.145251      1.101434      0.203626
  H      -1.556897     -1.165803      0.294200
  H      -0.323145     -1.482627     -0.938639
  H       0.051551     -0.433914      1.928348
  H       0.931594     -1.734496      1.104049
  Li      1.139183      2.652301     -0.906970
  N       1.087896      4.519267      0.179292
  C       1.634936      5.415751     -0.300329
  C       2.372725      6.384387     -1.092787
  C       2.261908      6.011060     -2.611181
  C       2.194563      4.566511     -2.750232
  N       2.056048      3.422726     -2.677263
  H       1.987434      7.395264     -0.930473
  H       3.419231      6.362192     -0.770774
  H       1.349405      6.436537     -3.042177
  H       3.118961      6.416314     -3.156791
21
Coordinates from ORCA-job SN_m1_shell2_cation_opt E -535.874292316085
  N      -0.725954      1.626267     -1.079826
  C      -0.790162      0.538581     -0.698994
  C      -0.614065     -0.796163     -0.154875
  C       0.483685     -0.759988      0.962054
  C       1.490026      0.229879      0.620643
  N       2.138761      1.109080      0.248105
  H      -1.551633     -1.176701      0.261165
  H      -0.310023     -1.460005     -0.971107
  H       0.041556     -0.477053      1.923298
  H       0.932364     -1.751586      1.073241
  Li      1.140802      2.670541     -0.853097
  N       1.099036      4.550756      0.200663
  C       1.644026      5.438967     -0.296174
  C       2.377463      6.393202     -1.108617
  C       2.254241      5.996542     -2.618932
  C       2.187254      4.550733     -2.735401
  N       2.050517      3.408077     -2.644482
  H       1.994101      7.407137     -0.960171
  H       3.425725      6.376502     -0.792041
  H       1.339741      6.415660     -3.051909
  H       3.107309      6.394131     -3.176752
21
Coordinates from ORCA-job SN_m1_shell2_cation_opt E -535.874312328318
  N      -0.726143      1.671318     -1.012554
  C      -0.784262      0.567681     -0.679767
  C      -0.600484     -0.787619     -0.193555
  C       0.478095     -0.789824      0.941128
  C       1.477614      0.224598      0.661255
  N       2.122882      1.124884      0.336301
  H      -1.539680     -1.197216      0.190393
  H      -0.278169     -1.410673     -1.034544
  H       0.019769     -0.559056      1.908736
  H       0.936332     -1.780884      1.013634
  Li      1.142750      2.707899     -0.745695
  N       1.121528      4.612612      0.243054
  C       1.662360      5.483323     -0.287963
  C       2.386886      6.408731     -1.139664
  C       2.238413      5.965889     -2.633694
  C       2.170910      4.517788     -2.704488
  N       2.037118      3.378193     -2.577642
  H       2.009135      7.428440     -1.017238
  H       3.439189      6.399720     -0.836367
  H       1.318345      6.372080     -3.067263
  H       3.082180      6.346675     -3.217279
21
Coordinates from ORCA-job SN_m1_shell2_cation_opt E -535.874322524818
  N      -0.728831      1.690039     -0.982895
  C      -0.782860      0.580169     -0.670451
  C      -0.593974     -0.783195     -0.209136
  C       0.477327     -0.801498      0.932432
  C       1.471830      0.224879      0.679403
  N       2.113363      1.134930      0.374778
  H      -1.533181     -1.206400      0.159732
  H      -0.262166     -1.387367     -1.060189
  H       0.011628     -0.594312      1.901880
  H       0.941749     -1.790811      0.987843
  Li      1.140426      2.722614     -0.703880
  N       1.127503      4.636885      0.257414
  C       1.668114      5.500146     -0.285873
  C       2.391294      6.413245     -1.152007
  C       2.232979      5.953166     -2.639700
  C       2.163202      4.504337     -2.692596
  N       2.028641      3.366578     -2.550756
  H       2.018571      7.435904     -1.039158
  H       3.445156      6.403751     -0.854055
  H       1.310806      6.355376     -3.072595
  H       3.073194      6.326125     -3.233403
21
Coordinates from ORCA-job SN_m1_shell2_cation_opt E -535.874336779320
  N      -0.738199      1.695223     -0.969809
  C      -0.786756      0.583156     -0.663388
  C      -0.591082     -0.782938     -0.210834
  C       0.480922     -0.805711      0.931515
  C       1.468763      0.230676      0.688571
  N       2.103233      1.147893      0.390208
  H      -1.528573     -1.215114      0.151516
  H      -0.253018     -1.377645     -1.066210
  H       0.012617     -0.611138      1.902345
  H       0.952476     -1.791980      0.977702
  Li      1.130284      2.723334     -0.701205
  N       1.118358      4.640484      0.251251
  C       1.664025      5.502304     -0.289400
  C       2.394881      6.411894     -1.153939
  C       2.236293      5.952869     -2.642563
  C       2.159603      4.503662     -2.694210
  N       2.018577      3.367222     -2.548002
  H       2.031530      7.437636     -1.040137
  H       3.448509      6.392224     -0.855343
  H       1.314919      6.358241     -3.074382
  H       3.077407      6.322269     -3.236896
21
Coordinates from ORCA-job SN_m1_shell2_cation_opt E -535.874339907256
  N      -0.737926      1.698532     -0.964043
  C      -0.785452      0.585430     -0.661532
  C      -0.590012     -0.782289     -0.213729
  C       0.480528     -0.808524      0.929756
  C       1.467223      0.230008      0.691000
  N       2.100842      1.148893      0.396255
  H      -1.527774     -1.216265      0.145560
  H      -0.249621     -1.373492     -1.070630
  H       0.010497     -0.617138      1.900350
  H       0.953348     -1.794248      0.972596
  Li      1.129778      2.726484     -0.691758
  N       1.120930      4.645531      0.255023
  C       1.665739      5.506204     -0.288345
  C       2.395300      6.413686     -1.156423
  C       2.235586      5.950253     -2.644005
  C       2.158161      4.500684     -2.691679
  N       2.016679      3.364734     -2.541802
  H       2.031700      7.439537     -1.045046
  H       3.449422      6.394509     -0.859519
  H       1.313463      6.354541     -3.075212
  H       3.076357      6.317491     -3.240026
21
Coordinates from ORCA-job SN_m1_shell2_cation_opt E -535.874342647035
  N      -0.738046      1.695678     -0.967426
  C      -0.785087      0.583339     -0.662327
  C      -0.590878     -0.783511     -0.211362
  C       0.480835     -0.807988      0.931130
  C       1.467622      0.229539      0.687995
  N       2.100466      1.147850      0.390049
  H      -1.528800     -1.215361      0.149918
  H      -0.251042     -1.377081     -1.066847
  H       0.011490     -0.612644      1.901212
  H       0.953299     -1.793725      0.975370
  Li      1.128371      2.724379     -0.696288
  N       1.120599      4.642824      0.252938
  C       1.665147      5.504994     -0.288309
  C       2.394813      6.413927     -1.154889
  C       2.237239      5.952256     -2.643649
  C       2.159002      4.502594     -2.693701
  N       2.016228      3.366729     -2.544356
  H       2.029973      7.439205     -1.042966
  H       3.448847      6.394478     -0.857774
  H       1.315333      6.357381     -3.074457
  H       3.079357      6.319699     -3.237472
21
Coordinates from ORCA-job SN_m1_shell2_cation_opt E -535.874344528993
  N      -0.738489      1.698781     -0.961848
  C      -0.784153      0.585274     -0.660918
  C      -0.589429     -0.782981     -0.214730
  C       0.480530     -0.810663      0.929428
  C       1.466611      0.228534      0.690838
  N       2.097957      1.148937      0.396287
  H      -1.527537     -1.216772      0.143742
  H      -0.247593     -1.373134     -1.071760
  H       0.009562     -0.618567      1.899345
  H       0.953731     -1.796166      0.970574
  Li      1.127104      2.727326     -0.686071
  N       1.123222      4.648446      0.256387
  C       1.667090      5.509456     -0.287336
  C       2.395810      6.415464     -1.157618
  C       2.236130      5.949572     -2.644879
  C       2.157400      4.499814     -2.691012
  N       2.014019      3.364629     -2.537260
  H       2.030922      7.441051     -1.048734
  H       3.450260      6.396636     -0.862030
  H       1.313687      6.353767     -3.075350
  H       3.077933      6.315157     -3.240265
21
Coordinates from ORCA-job SN_m1_shell2_cation_opt E -535.874347087150
  N      -0.739977      1.697182     -0.962549
  C      -0.784240      0.583648     -0.661438
  C      -0.589151     -0.784207     -0.214540
  C       0.480793     -0.811165      0.929925
  C       1.467061      0.227501      0.690095
  N       2.096425      1.148819      0.394171
  H      -1.527225     -1.217547      0.144653
  H      -0.247461     -1.375020     -1.071129
  H       0.009942     -0.617559      1.899573
  H       0.953362     -1.796933      0.971752
  Li      1.124340      2.726367     -0.685224
  N       1.123727      4.649025      0.255104
  C       1.667562      5.510725     -0.287454
  C       2.396715      6.416143     -1.157693
  C       2.236683      5.950446     -2.644955
  C       2.157234      4.500878     -2.691235
  N       2.012418      3.366196     -2.535497
  H       2.031746      7.441822     -1.049668
  H       3.451095      6.397184     -0.862002
  H       1.314578      6.355187     -3.075560
  H       3.079142      6.315867     -3.239539
21
Coordinates from ORCA-job SN_m1_shell2_cation_opt E -535.874348754639
  N      -0.741605      1.697437     -0.960261
  C      -0.784496      0.583298     -0.661082
  C      -0.588374     -0.784950     -0.215968
  C       0.480876     -0.812667      0.929211
  C       1.466936      0.226552      0.691174
  N       2.094576      1.149431      0.396385
  H      -1.526305     -1.219368      0.142413
  H      -0.246289     -1.374599     -1.073189
  H       0.009580     -0.620385      1.898926
  H       0.953305     -1.798556      0.970589
  Li      1.121999      2.727145     -0.680191
  N       1.124930      4.652079      0.255508
  C       1.668676      5.513481     -0.287562
  C       2.397920      6.417425     -1.159090
  C       2.236557      5.949956     -2.645594
  C       2.156377      4.500515     -2.689670
  N       2.010616      3.366392     -2.531026
  H       2.033601      7.443519     -1.052433
  H       3.452333      6.398682     -0.863543
  H       1.314711      6.354706     -3.076745
  H       3.078844      6.314465     -3.241062
21
Coordinates from ORCA-job SN_m1_shell2_cation_opt E -535.874349814768
  N      -0.743161      1.695390     -0.961378
  C      -0.785441      0.581389     -0.661489
  C      -0.588740     -0.786378     -0.215036
  C       0.481224     -0.812788      0.929419
  C       1.467344      0.226028      0.689911
  N       2.094164      1.149169      0.394104
  H      -1.526385     -1.220485      0.144533
  H      -0.247646     -1.377144     -1.071880
  H       0.010656     -0.619566      1.899336
  H       0.953203     -1.798846      0.972258
  Li      1.120092      2.726250     -0.681297
  N       1.124759      4.651922      0.253936
  C       1.668637      5.513823     -0.288181
  C       2.398333      6.418277     -1.158823
  C       2.237631      5.951247     -2.645556
  C       2.156559      4.501926     -2.689661
  N       2.009899      3.367965     -2.530761
  H       2.034333      7.444458     -1.051761
  H       3.452526      6.399647     -0.862443
  H       1.316549      6.356742     -3.077684
  H       3.080234      6.315536     -3.240760
