21
Coordinates from ORCA-job SN_m1_shell2_cation_opt E -535.874349814768
  N          -0.74316069365338      1.69538989654893     -0.96137817934981
  C          -0.78544143230474      0.58138868181111     -0.66148920430578
  C          -0.58873972837332     -0.78637822965960     -0.21503561262356
  C           0.48122431649846     -0.81278783218130      0.92941901208100
  C           1.46734427968330      0.22602779930933      0.68991128590655
  N           2.09416423169892      1.14916878854117      0.39410446747594
  H          -1.52638545314051     -1.22048546584710      0.14453330930727
  H          -0.24764649038545     -1.37714438760831     -1.07187994025114
  H           0.01065581754116     -0.61956608467592      1.89933589840124
  H           0.95320282743959     -1.79884646482713      0.97225828011715
  Li          1.12009243122446      2.72625009736388     -0.68129675509095
  N           1.12475888097231      4.65192213065622      0.25393618204325
  C           1.66863710713775      5.51382270373997     -0.28818073374619
  C           2.39833261377483      6.41827680187779     -1.15882336035899
  C           2.23763060529761      5.95124719729954     -2.64555593365620
  C           2.15655888421805      4.50192550282552     -2.68966070720213
  N           2.00989888374218      3.36796524804777     -2.53076100748260
  H           2.03433288581710      7.44445759818778     -1.05176052163955
  H           3.45252595587490      6.39964729689313     -0.86244345671199
  H           1.31654893277153      6.35674198544849     -3.07768375798624
  H           3.08023360576521      6.31553603514865     -3.24075969372727
