25
Coordinates from ORCA-job GBL_m1_shell2_oxidized_opt_relaxed E -619.824310394762
  O           1.11430099094600      1.29849846854921      0.11483488455603
  C           0.25446858829843      0.53060923207917     -0.26890422473489
  C           0.20522517260182     -0.96464603562765     -0.20644460426393
  C          -1.07526537966907     -1.34308133748985     -0.95112672429136
  C          -1.79551263242716     -0.02379774194817     -1.14638891644037
  O          -0.87564731964282      1.02531343123018     -0.84005872520923
  H           1.12632562021543     -1.38154154879579     -0.63098597494105
  H           0.19620747575022     -1.27871170767587      0.84793544545881
  H          -0.84235976764370     -1.79487815112523     -1.93093301127898
  H          -1.69348226235519     -2.08158389225916     -0.42965766734558
  H          -2.19241030864142      0.18393224057159     -2.15822235517369
  H          -2.67975246003941      0.11068473891729     -0.48515053781479
  Li          2.18792325339622      2.78619767435072      0.50448183440353
  O           3.26759208687975      4.27674766134897      0.86085228576352
  C           3.97393884781722      5.13639453070246      1.34874978757830
  C           4.66282634613937      6.29601045663034      0.69870748389303
  C           5.48059121197925      6.94093402743188      1.81772200336740
  C           4.99247529125495      6.25513627458996      3.07829702951777
  O           4.21284346889750      5.12430019158214      2.68712631812326
  H           5.25048916170012      5.94242728182224     -0.15702827524706
  H           3.90419238391487      6.97235557271899      0.27745222032952
  H           6.55915455869039      6.75283798031087      1.67803178577350
  H           5.38089545456018      8.03042641287783      1.87192379851373
  H           5.76689232300520      5.88422076741098      3.77652166282252
  H           4.34621689437178      6.89375447179679      3.71994047663999
