25
Coordinates from ORCA-job GBL_m1_shell2_oxidized_opt_relaxed E -619.817763665069
  O       1.452567      1.128530      0.173591
  C       0.452615      0.511669     -0.175009
  C       0.224291     -0.973275     -0.110019
  C      -0.986262     -1.176154     -1.025842
  C      -1.685323      0.180905     -0.944376
  O      -0.604617      1.141360     -0.666171
  H       1.126025     -1.519263     -0.394520
  H       0.005967     -1.224404      0.937233
  H      -0.659250     -1.376010     -2.050557
  H      -1.639348     -1.991323     -0.709231
  H      -2.165005      0.507173     -1.867723
  H      -2.392706      0.252131     -0.111828
  Li      2.391193      2.670160      0.371535
  O       3.327526      4.223248      0.496737
  C       3.914213      5.075237      1.153733
  C       4.572373      6.328836      0.647326
  C       5.456125      6.753211      1.823529
  C       4.718062      6.148362      3.018102
  O       4.022401      4.971514      2.470308
  H       5.096038      6.141434     -0.292186
  H       3.774420      7.055123      0.438282
  H       6.453667      6.314182      1.728971
  H       5.564936      7.835280      1.916915
  H       5.361488      5.786582      3.820741
  H       3.946733      6.808033      3.428135
25
Coordinates from ORCA-job GBL_m1_shell2_oxidized_opt_relaxed E -619.819876502148
  O       1.458811      1.119167      0.141483
  C       0.459820      0.496960     -0.204704
  C       0.242746     -0.990700     -0.143711
  C      -1.013263     -1.174617     -1.011532
  C      -1.696260      0.182430     -0.911329
  O      -0.609425      1.134948     -0.667576
  H       1.136181     -1.529488     -0.470165
  H       0.064426     -1.261593      0.908519
  H      -0.718776     -1.374109     -2.051589
  H      -1.661459     -1.984158     -0.671502
  H      -2.208631      0.530507     -1.819072
  H      -2.388333      0.263336     -0.058026
  Li      2.410492      2.661304      0.353051
  O       3.359521      4.215400      0.493642
  C       3.947416      5.070880      1.147362
  C       4.612936      6.318195      0.632460
  C       5.443581      6.771027      1.844425
  C       4.687388      6.165378      3.019026
  O       4.025940      4.977996      2.470325
  H       5.171271      6.112577     -0.284609
  H       3.822051      7.040787      0.377783
  H       6.453616      6.341858      1.782888
  H       5.530270      7.855552      1.930460
  H       5.304817      5.810455      3.856058
  H       3.892993      6.818451      3.414007
25
Coordinates from ORCA-job GBL_m1_shell2_oxidized_opt_relaxed E -619.821592339941
  O       1.439006      1.116457      0.105399
  C       0.449031      0.477919     -0.237782
  C       0.260243     -1.013220     -0.199943
  C      -1.053959     -1.190215     -0.993906
  C      -1.719730      0.162219     -0.879292
  O      -0.638838      1.115549     -0.673662
  H       1.142947     -1.526226     -0.591677
  H       0.145685     -1.325918      0.850350
  H      -0.802071     -1.391957     -2.049338
  H      -1.686884     -1.996115     -0.619729
  H      -2.273822      0.532515     -1.760514
  H      -2.403285      0.252252     -0.012211
  Li      2.415565      2.661753      0.341675
  O       3.389692      4.219072      0.511356
  C       3.985224      5.079549      1.151876
  C       4.678351      6.304395      0.622744
  C       5.438081      6.807595      1.871060
  C       4.667258      6.200771      3.021121
  O       4.037504      5.003838      2.483210
  H       5.283441      6.059758     -0.254592
  H       3.913502      7.026516      0.295029
  H       6.460978      6.393589      1.850395
  H       5.496663      7.894717      1.939939
  H       5.246813      5.858656      3.897496
  H       3.856734      6.849070      3.408672
25
Coordinates from ORCA-job GBL_m1_shell2_oxidized_opt_relaxed E -619.822293543866
  O       1.409871      1.122673      0.087472
  C       0.430429      0.470419     -0.254690
  C       0.262904     -1.021445     -0.237118
  C      -1.076744     -1.211887     -0.987158
  C      -1.742538      0.136871     -0.871359
  O      -0.673108      1.098375     -0.677661
  H       1.139647     -1.511129     -0.670217
  H       0.191715     -1.362499      0.807830
  H      -0.849427     -1.421192     -2.047581
  H      -1.693913     -2.019535     -0.591997
  H      -2.317387      0.508264     -1.739656
  H      -2.428741      0.226888     -0.004284
  Li      2.405619      2.669515      0.343479
  O       3.399601      4.227981      0.536798
  C       4.002973      5.090052      1.164694
  C       4.718510      6.295616      0.627351
  C       5.444870      6.835224      1.882240
  C       4.671398      6.230081      3.027171
  O       4.046167      5.031359      2.501542
  H       5.349572      6.020794     -0.222507
  H       3.975150      7.016398      0.251906
  H       6.474558      6.435372      1.881251
  H       5.489036      7.923645      1.934469
  H       5.236321      5.899913      3.918472
  H       3.861647      6.880789      3.417228
25
Coordinates from ORCA-job GBL_m1_shell2_oxidized_opt_relaxed E -619.823092754986
  O       1.352773      1.140725      0.069870
  C       0.392909      0.466000     -0.271559
  C       0.258622     -1.025897     -0.283926
  C      -1.099151     -1.250091     -0.985257
  C      -1.780293      0.091470     -0.873844
  O      -0.736175      1.070971     -0.680286
  H       1.129353     -1.477894     -0.768321
  H       0.246040     -1.402201      0.750323
  H      -0.901147     -1.474841     -2.048308
  H      -1.690915     -2.064590     -0.566295
  H      -2.374576      0.450653     -1.733193
  H      -2.477789      0.172411     -0.013865
  Li      2.377156      2.688426      0.356406
  O       3.401229      4.246521      0.586810
  C       4.018105      5.109578      1.192754
  C       4.766543      6.284754      0.642677
  C       5.465245      6.871282      1.889001
  C       4.694169      6.274865      3.040294
  O       4.056395      5.081062      2.537404
  H       5.425328      5.964964     -0.170344
  H       4.054503      7.000867      0.204978
  H       6.503156      6.493872      1.907795
  H       5.496350      7.961033      1.915200
  H       5.253631      5.961775      3.940190
  H       3.896667      6.936824      3.439170
25
Coordinates from ORCA-job GBL_m1_shell2_oxidized_opt_relaxed E -619.823590734023
  O       1.297062      1.162727      0.061805
  C       0.356040      0.467486     -0.279390
  C       0.251282     -1.024842     -0.314152
  C      -1.107804     -1.282379     -0.989088
  C      -1.812039      0.051231     -0.885997
  O      -0.795247      1.048210     -0.679012
  H       1.119877     -1.444786     -0.831760
  H       0.282426     -1.421931      0.711239
  H      -0.931177     -1.524438     -2.051537
  H      -1.680120     -2.103317     -0.554583
  H      -2.410785      0.391240     -1.748812
  H      -2.523451      0.117482     -0.035868
  Li      2.344201      2.709197      0.373993
  O       3.392641      4.264338      0.636134
  C       4.021998      5.127828      1.221617
  C       4.796186      6.277739      0.658517
  C       5.487354      6.894234      1.887544
  C       4.723386      6.309734      3.053524
  O       4.061245      5.127329      2.572262
  H       5.468932      5.921872     -0.128699
  H       4.106503      6.986577      0.176563
  H       6.532136      6.538685      1.917550
  H       5.511218      7.985026      1.894296
  H       5.292807      6.006321      3.949302
  H       3.943458      6.986978      3.462226
25
Coordinates from ORCA-job GBL_m1_shell2_oxidized_opt_relaxed E -619.823877615367
  O       1.252132      1.184326      0.059599
  C       0.326794      0.472131     -0.282354
  C       0.245089     -1.021730     -0.328213
  C      -1.107885     -1.304616     -0.993100
  C      -1.833360      0.022229     -0.903995
  O      -0.840388      1.032717     -0.678496
  H       1.115513     -1.420213     -0.861048
  H       0.303258     -1.425037      0.693415
  H      -0.946358     -1.566341     -2.053054
  H      -1.670007     -2.127333     -0.546348
  H      -2.423111      0.343162     -1.779915
  H      -2.559612      0.075536     -0.064943
  Li      2.314347      2.727666      0.390707
  O       3.379497      4.277754      0.676816
  C       4.019684      5.141522      1.245668
  C       4.809400      6.274853      0.669822
  C       5.504350      6.905904      1.882315
  C       4.752486      6.330085      3.064537
  O       4.063314      5.161797      2.600277
  H       5.484878      5.895529     -0.104985
  H       4.129793      6.975825      0.162980
  H       6.555810      6.571794      1.916481
  H       5.520961      7.997876      1.879299
  H       5.341045      6.025840      3.947295
  H       3.990499      7.021265      3.484918
25
Coordinates from ORCA-job GBL_m1_shell2_oxidized_opt_relaxed E -619.824009083156
  O       1.224616      1.201129      0.060654
  C       0.309747      0.477549     -0.283109
  C       0.242049     -1.018152     -0.328999
  C      -1.104651     -1.315999     -0.993341
  C      -1.842326      0.007121     -0.923430
  O      -0.864920      1.025802     -0.682450
  H       1.116895     -1.407890     -0.861937
  H       0.309870     -1.417212      0.693865
  H      -0.950419     -1.597372     -2.049613
  H      -1.665113     -2.135013     -0.535600
  H      -2.415496      0.314802     -1.815553
  H      -2.583163      0.055622     -0.096047
  Li      2.293629      2.740349      0.402523
  O       3.366943      4.284688      0.702758
  C       4.015311      5.148468      1.260781
  C       4.809591      6.274902      0.674808
  C       5.512048      6.910373      1.876789
  C       4.776226      6.335095      3.071400
  O       4.065899      5.178381      2.617260
  H       5.480564      5.886208     -0.099869
  H       4.129257      6.970541      0.161396
  H       6.569477      6.594558      1.907955
  H       5.519147      8.003408      1.872780
  H       5.384492      6.021565      3.938016
  H       4.028456      7.033617      3.506641
25
Coordinates from ORCA-job GBL_m1_shell2_oxidized_opt_relaxed E -619.824078825023
  O       1.206306      1.215599      0.062845
  C       0.299309      0.483658     -0.283435
  C       0.240876     -1.013400     -0.323794
  C      -1.100906     -1.322404     -0.990230
  C      -1.844603     -0.001197     -0.943580
  O      -0.877956      1.023461     -0.690941
  H       1.120948     -1.400938     -0.849995
  H       0.309261     -1.404285      0.702415
  H      -0.948165     -1.623774     -2.041559
  H      -1.662836     -2.134814     -0.521114
  H      -2.399038      0.296833     -1.851484
  H      -2.600754      0.049204     -0.129584
  Li      2.277924      2.749918      0.411457
  O       3.355109      4.287876      0.720979
  C       4.010453      5.151252      1.271123
  C       4.803548      6.275313      0.676916
  C       5.513960      6.912834      1.871545
  C       4.797285      6.332144      3.075628
  O       4.070624      5.184133      2.628262
  H       5.467347      5.884544     -0.103106
  H       4.118063      6.967961      0.165911
  H       6.576680      6.613366      1.894228
  H       5.509448      8.006576      1.869844
  H       5.423474      6.006192      3.925608
  H       4.061773      7.032488      3.529735
25
Coordinates from ORCA-job GBL_m1_shell2_oxidized_opt_relaxed E -619.824139891183
  O       1.188195      1.232872      0.065511
  C       0.289697      0.492184     -0.283911
  C       0.240669     -1.005738     -0.315989
  C      -1.096367     -1.327892     -0.984529
  C      -1.844315     -0.008612     -0.967226
  O      -0.888623      1.022774     -0.703451
  H       1.126603     -1.392739     -0.832707
  H       0.306517     -1.386538      0.714436
  H      -0.941900     -1.653124     -2.028712
  H      -1.659980     -2.131591     -0.501379
  H      -2.376941      0.279352     -1.892066
  H      -2.619222      0.047757     -0.171069
  Li      2.261119      2.760180      0.420901
  O       3.341143      4.289295      0.740097
  C       4.004303      5.151944      1.281805
  C       4.793924      6.274190      0.678731
  C       5.513189      6.915304      1.865407
  C       4.820807      6.325586      3.079034
  O       4.077482      5.186014      2.638979
  H       5.449127      5.883371     -0.108535
  H       4.101674      6.964577      0.173293
  H       6.581351      6.634374      1.874729
  H       5.493738      8.009476      1.866417
  H       5.466220      5.984977      3.909542
  H       4.099719      7.024549      3.558369
25
Coordinates from ORCA-job GBL_m1_shell2_oxidized_opt_relaxed E -619.824204572192
  O       1.165146      1.256954      0.069014
  C       0.277814      0.505150     -0.284299
  C       0.241014     -0.993045     -0.305285
  C      -1.089954     -1.333857     -0.976023
  C      -1.842273     -0.017752     -0.997767
  O      -0.900974      1.022836     -0.721087
  H       1.133826     -1.379129     -0.810632
  H       0.302992     -1.361981      0.729913
  H      -0.930140     -1.689875     -2.009317
  H      -1.654800     -2.126260     -0.474812
  H      -2.347672      0.256636     -1.942579
  H      -2.642265      0.048180     -0.227514
  Li      2.239115      2.773528      0.433405
  O       3.322234      4.289319      0.765630
  C       3.995470      5.150887      1.296058
  C       4.779657      6.270345      0.681493
  C       5.510382      6.918237      1.857015
  C       4.851023      6.315948      3.082157
  O       4.087539      5.186224      2.652645
  H       5.424690      5.879438     -0.114031
  H       4.079588      6.958357      0.183141
  H       6.584452      6.660988      1.846108
  H       5.471106      8.012465      1.860571
  H       5.520114      5.958431      3.887381
  H       4.150044      7.010516      3.596491
25
Coordinates from ORCA-job GBL_m1_shell2_oxidized_opt_relaxed E -619.824254546598
  O       1.142471      1.281779      0.073489
  C       0.266191      0.519385     -0.283442
  C       0.241082     -0.978429     -0.292915
  C      -1.082765     -1.338511     -0.967464
  C      -1.838503     -0.026197     -1.028151
  O      -0.911864      1.023503     -0.739316
  H       1.140061     -1.363117     -0.788288
  H       0.298808     -1.337345      0.746101
  H      -0.913995     -1.723377     -1.988630
  H      -1.649005     -2.120245     -0.450419
  H      -2.317934      0.233230     -1.991062
  H      -2.663773      0.050020     -0.286251
  Li      2.217052      2.786526      0.446879
  O       3.302643      4.287931      0.792161
  C       3.985654      5.148440      1.310913
  C       4.762827      6.265319      0.684757
  C       5.506335      6.920517      1.847959
  C       4.881080      6.305425      3.083947
  O       4.099237      5.184528      2.666228
  H       5.398926      5.873960     -0.117694
  H       4.055952      6.951190      0.192925
  H       6.584676      6.685442      1.814125
  H       5.448291      8.014397      1.854046
  H       5.573340      5.934727      3.863882
  H       4.201340      6.993441      3.633896
25
Coordinates from ORCA-job GBL_m1_shell2_oxidized_opt_relaxed E -619.824281192035
  O       1.127717      1.298206      0.078451
  C       0.258621      0.529316     -0.281154
  C       0.240045     -0.967967     -0.281334
  C      -1.077195     -1.340603     -0.962063
  C      -1.834063     -0.030733     -1.049794
  O      -0.917141      1.024406     -0.752867
  H       1.142950     -1.351905     -0.770266
  H       0.293736     -1.321152      0.759726
  H      -0.898664     -1.742972     -1.974381
  H      -1.646052     -2.115544     -0.437265
  H      -2.296274      0.216690     -2.024405
  H      -2.676801      0.053453     -0.328880
  Li      2.202252      2.794553      0.457564
  O       3.288719      4.286139      0.810997
  C       3.978251      5.146014      1.321440
  C       4.747874      6.262600      0.687187
  C       5.502703      6.921574      1.840928
  C       4.902311      6.296934      3.084180
  O       4.110047      5.180935      2.675244
  H       5.378424      5.871231     -0.119723
  H       4.036340      6.946928      0.200191
  H       6.582706      6.699740      1.788743
  H       5.433321      8.015041      1.850074
  H       5.611330      5.920952      3.846561
  H       4.236969      6.978704      3.658520
25
Coordinates from ORCA-job GBL_m1_shell2_oxidized_opt_relaxed E -619.824293076923
  O       1.121667      1.304785      0.082929
  C       0.255580      0.533584     -0.278666
  C       0.238072     -0.963461     -0.272081
  C      -1.074221     -1.340900     -0.959888
  C      -1.830111     -0.031475     -1.061956
  O      -0.916934      1.025173     -0.761642
  H       1.142993     -1.347930     -0.757091
  H       0.288025     -1.313951      0.769856
  H      -0.887836     -1.750197     -1.967787
  H      -1.646840     -2.112558     -0.434200
  H      -2.284000      0.208426     -2.042393
  H      -2.681365      0.058052     -0.351752
  Li      2.195683      2.797269      0.464217
  O       3.281701      4.284798      0.820431
  C       3.974448      5.144434      1.326636
  C       4.737012      6.263204      0.688338
  C       5.500248      6.922024      1.836745
  C       4.913908      6.291278      3.083685
  O       4.119015      5.176261      2.679177
  H       5.364626      5.872732     -0.121441
  H       4.022358      6.946535      0.204973
  H       6.580377      6.704901      1.773124
  H       5.426701      8.015271      1.849515
  H       5.632675      5.915714      3.837116
  H       4.254348      6.968571      3.669835
25
Coordinates from ORCA-job GBL_m1_shell2_oxidized_opt_relaxed E -619.824298292250
  O       1.120566      1.305609      0.086639
  C       0.255268      0.534370     -0.276835
  C       0.235506     -0.962697     -0.264466
  C      -1.073201     -1.340533     -0.959022
  C      -1.826572     -0.030225     -1.069551
  O      -0.913407      1.025787     -0.768877
  H       1.141753     -1.349090     -0.745698
  H       0.281310     -1.310977      0.778237
  H      -0.881028     -1.752427     -1.964773
  H      -1.650417     -2.109937     -0.435067
  H      -2.276208      0.205114     -2.053092
  H      -2.681349      0.063598     -0.363965
  Li      2.193953      2.796945      0.468292
  O       3.278948      4.283842      0.824419
  C       3.973243      5.143362      1.328711
  C       4.728870      6.266007      0.688779
  C       5.498292      6.922723      1.834384
  C       4.920723      6.287033      3.083060
  O       4.127519      5.170692      2.680228
  H       5.354160      5.877638     -0.123961
  H       4.011110      6.948559      0.209304
  H       6.578200      6.706860      1.763347
  H       5.423481      8.015803      1.851399
  H       5.645458      5.913663      3.831840
  H       4.261952      6.960820      3.674345
25
Coordinates from ORCA-job GBL_m1_shell2_oxidized_opt_relaxed E -619.824301178320
  O       1.118950      1.306268      0.091232
  C       0.254917      0.534927     -0.275129
  C       0.231307     -0.962162     -0.253762
  C      -1.072501     -1.340572     -0.957122
  C      -1.821463     -0.028907     -1.081806
  O      -0.907958      1.026318     -0.780807
  H       1.140051     -1.352549     -0.727202
  H       0.269689     -1.305337      0.790818
  H      -0.873116     -1.758451     -1.959067
  H      -1.656707     -2.105335     -0.434101
  H      -2.263166      0.200469     -2.070403
  H      -2.681334      0.071504     -0.383133
  Li      2.191809      2.796466      0.473560
  O       3.275654      4.283012      0.829634
  C       3.972187      5.142228      1.331406
  C       4.717640      6.270903      0.689730
  C       5.495431      6.924519      1.831442
  C       4.931731      6.280521      3.082334
  O       4.140343      5.162549      2.681431
  H       5.338005      5.887040     -0.129042
  H       3.994120      6.952500      0.217903
  H       6.575371      6.712309      1.749638
  H       5.417453      8.017240      1.855256
  H       5.665039      5.907994      3.823169
  H       4.274677      6.949087      3.681697
25
Coordinates from ORCA-job GBL_m1_shell2_oxidized_opt_relaxed E -619.824303023340
  O       1.120791      1.303842      0.092444
  C       0.256240      0.533590     -0.275146
  C       0.229711     -0.963535     -0.251345
  C      -1.073384     -1.340217     -0.956877
  C      -1.819907     -0.027367     -1.084207
  O      -0.904309      1.026593     -0.784577
  H       1.138913     -1.356046     -0.722179
  H       0.265439     -1.305127      0.793850
  H      -0.872771     -1.758860     -1.958338
  H      -1.660134     -2.103501     -0.434631
  H      -2.260575      0.201602     -2.073311
  H      -2.679372      0.075153     -0.385292
  Li      2.193467      2.794509      0.474668
  O       3.276628      4.282223      0.829825
  C       3.973277      5.141520      1.331423
  C       4.715001      6.272887      0.689845
  C       5.494256      6.925627      1.831057
  C       4.933658      6.279227      3.082162
  O       4.145123      5.159173      2.680997
  H       5.333875      5.891083     -0.131051
  H       3.989231      6.953912      0.220679
  H       6.574220      6.713953      1.747114
  H       5.415567      8.018183      1.856886
  H       5.668284      5.907887      3.822205
  H       4.274901      6.946232      3.681477
25
Coordinates from ORCA-job GBL_m1_shell2_oxidized_opt_relaxed E -619.824305028920
  O       1.125581      1.296172      0.102014
  C       0.260674      0.529769     -0.273466
  C       0.219299     -0.966968     -0.231552
  C      -1.076039     -1.338873     -0.953595
  C      -1.808197     -0.020597     -1.107194
  O      -0.884469      1.028097     -0.811259
  H       1.132889     -1.372185     -0.682893
  H       0.235863     -1.296447      0.817978
  H      -0.863056     -1.768637     -1.948021
  H      -1.678789     -2.090927     -0.433660
  H      -2.234918      0.201234     -2.103815
  H      -2.672600      0.097441     -0.416819
  Li      2.197071      2.786697      0.485044
  O       3.276596      4.277637      0.837143
  C       3.976322      5.136958      1.335034
  C       4.692989      6.284043      0.691885
  C       5.486187      6.932045      1.826306
  C       4.953634      6.267613      3.080422
  O       4.177092      5.138000      2.680372
  H       5.299817      5.915560     -0.144098
  H       3.952131      6.961981      0.242444
  H       6.566099      6.728161      1.721521
  H       5.399596      8.023258      1.865843
  H       5.702390      5.900325      3.807885
  H       4.291968      6.922183      3.690158
25
Coordinates from ORCA-job GBL_m1_shell2_oxidized_opt_relaxed E -619.824306785930
  O       1.122403      1.299554      0.100186
  C       0.258462      0.531527     -0.273844
  C       0.221238     -0.965194     -0.235254
  C      -1.075205     -1.339784     -0.953792
  C      -1.810587     -0.023069     -1.104912
  O      -0.889998      1.027566     -0.806865
  H       1.134353     -1.367600     -0.689998
  H       0.241515     -1.296655      0.813616
  H      -0.864304     -1.769671     -1.948500
  H      -1.674501     -2.093338     -0.431888
  H      -2.237938      0.199211     -2.101197
  H      -2.676041      0.092249     -0.415484
  Li      2.194613      2.789210      0.484250
  O       3.275381      4.278489      0.838464
  C       3.975074      5.137891      1.335991
  C       4.696616      6.281157      0.692032
  C       5.487742      6.931239      1.826594
  C       4.952194      6.269808      3.080957
  O       4.171394      5.142934      2.682062
  H       5.305264      5.909774     -0.141285
  H       3.958380      6.959580      0.238926
  H       6.567874      6.727817      1.724294
  H       5.401072      8.022674      1.863084
  H       5.699744      5.900685      3.808817
  H       4.293384      6.926488      3.691423
25
Coordinates from ORCA-job GBL_m1_shell2_oxidized_opt_relaxed E -619.824307952552
  O       1.119549      1.301123      0.102345
  C       0.256922      0.532409     -0.273147
  C       0.219026     -0.964042     -0.231077
  C      -1.074972     -1.340549     -0.952869
  C      -1.808502     -0.023802     -1.112508
  O      -0.889175      1.027283     -0.812283
  H       1.133505     -1.368111     -0.681585
  H       0.235524     -1.292877      0.818698
  H      -0.860866     -1.775525     -1.944606
  H      -1.676683     -2.091310     -0.429628
  H      -2.229936      0.195609     -2.111920
  H      -2.678218      0.094560     -0.429075
  Li      2.192314      2.789457      0.488251
  O       3.273277      4.277799      0.844080
  C       3.974382      5.137368      1.339229
  C       4.691337      6.282218      0.693307
  C       5.486505      6.932873      1.824673
  C       4.959722      6.267665      3.080749
  O       4.177726      5.140789      2.684187
  H       5.296872      5.912772     -0.143119
  H       3.950050      6.960030      0.244280
  H       6.566696      6.733458      1.715977
  H       5.396432      8.023998      1.863150
  H       5.712318      5.897709      3.802950
  H       4.304325      6.921640      3.697615
25
Coordinates from ORCA-job GBL_m1_shell2_oxidized_opt_relaxed E -619.824309004502
  O       1.119141      1.299728      0.105730
  C       0.256816      0.531734     -0.272080
  C       0.215612     -0.964384     -0.225298
  C      -1.075459     -1.340761     -0.952544
  C      -1.805286     -0.022994     -1.120544
  O      -0.885026      1.027168     -0.819111
  H       1.131541     -1.371876     -0.669708
  H       0.225758     -1.289977      0.825569
  H      -0.856739     -1.779711     -1.941457
  H      -1.681235     -2.088423     -0.429621
  H      -2.221074      0.194068     -2.122770
  H      -2.678261      0.099714     -0.442223
  Li      2.192150      2.787575      0.492872
  O       3.272504      4.276496      0.848775
  C       3.974664      5.136435      1.341949
  C       4.684393      6.284808      0.694467
  C       5.484741      6.934997      1.822647
  C       4.967384      6.265181      3.080184
  O       4.186801      5.136503      2.685239
  H       5.285824      5.919050     -0.146498
  H       3.938682      6.961983      0.251884
  H       6.564598      6.738393      1.706360
  H       5.391887      8.025712      1.864164
  H       5.725141      5.895802      3.797178
  H       4.313572      6.915320      3.702513
25
Coordinates from ORCA-job GBL_m1_shell2_oxidized_opt_relaxed E -619.824027519236
  O       1.111154      1.250977      0.215541
  C       0.259843      0.509262     -0.236903
  C       0.099489     -0.966886     -0.070382
  C      -1.099024     -1.335095     -0.948553
  C      -1.683888      0.003634     -1.353330
  O      -0.732257      1.017035     -1.003947
  H       1.035486     -1.472243     -0.335901
  H      -0.072166     -1.197144      0.991654
  H      -0.766356     -1.896209     -1.836985
  H      -1.828179     -1.978950     -0.446986
  H      -1.923039      0.148044     -2.422416
  H      -2.636009      0.256506     -0.843510
  Li      2.198575      2.711702      0.656884
  O       3.268548      4.210297      1.019212
  C       3.994482      5.093397      1.436151
  C       4.468949      6.335421      0.752314
  C       5.411062      7.001758      1.761371
  C       5.200536      6.211414      3.037568
  O       4.476140      5.022179      2.695647
  H       4.933117      6.070319     -0.204610
  H       3.606254      6.970742      0.504557
  H       6.454617      6.909220      1.419347
  H       5.230725      8.072095      1.894034
  H       6.104047      5.882237      3.582013
  H       4.616023      6.742829      3.814906
25
Coordinates from ORCA-job GBL_m1_shell2_oxidized_opt_relaxed E -619.824302515088
  O       1.110561      1.295319      0.130736
  C       0.254131      0.529140     -0.264532
  C       0.186537     -0.963661     -0.172836
  C      -1.076906     -1.344214     -0.945635
  C      -1.775724     -0.021477     -1.189619
  O      -0.851013      1.023651     -0.881153
  H       1.114636     -1.398276     -0.563003
  H       0.144320     -1.256855      0.886701
  H      -0.819868     -1.819279     -1.908141
  H      -1.717650     -2.064475     -0.426253
  H      -2.142489      0.169353     -2.215804
  H      -2.675602      0.137554     -0.556013
  Li      2.183832      2.781454      0.523493
  O       3.260880      4.273766      0.878592
  C       3.973922      5.132869      1.358292
  C       4.625274      6.312715      0.706258
  C       5.470872      6.949967      1.809450
  C       5.032845      6.236141      3.072916
  O       4.260339      5.098125      2.685889
  H       5.189369      5.980662     -0.173618
  H       3.845485      6.986590      0.321378
  H       6.545945      6.776669      1.630046
  H       5.359355      8.036742      1.885253
  H       5.832954      5.866476      3.741775
  H       4.396122      6.853584      3.743505
25
Coordinates from ORCA-job GBL_m1_shell2_oxidized_opt_relaxed E -619.824306003982
  O       1.115343      1.305336      0.099114
  C       0.254273      0.533993     -0.274066
  C       0.220982     -0.962669     -0.233108
  C      -1.072994     -1.342585     -0.952663
  C      -1.810923     -0.028057     -1.110058
  O      -0.895613      1.025638     -0.809154
  H       1.135649     -1.363981     -0.685734
  H       0.240902     -1.291877      0.816517
  H      -0.860508     -1.776797     -1.945146
  H      -1.671772     -2.095412     -0.428742
  H      -2.233955      0.190323     -2.109221
  H      -2.680803      0.086708     -0.425959
  Li      2.188103      2.795303      0.483312
  O       3.270860      4.283099      0.839762
  C       3.972670      5.140837      1.336689
  C       4.694941      6.283909      0.693371
  C       5.489044      6.931545      1.826984
  C       4.957877      6.266712      3.081341
  O       4.171568      5.144183      2.682884
  H       5.301764      5.913558     -0.141709
  H       3.956438      6.963643      0.242681
  H       6.569345      6.730781      1.721377
  H       5.401374      8.022956      1.866509
  H       5.708926      5.893043      3.803577
  H       4.304637      6.922351      3.699121
25
Coordinates from ORCA-job GBL_m1_shell2_oxidized_opt_relaxed E -619.824310100513
  O       1.114327      1.300610      0.110911
  C       0.254252      0.531732     -0.270148
  C       0.209250     -0.963897     -0.212774
  C      -1.074507     -1.343029     -0.951344
  C      -1.799382     -0.024986     -1.137660
  O      -0.880780      1.025463     -0.832704
  H       1.128936     -1.376910     -0.644150
  H       0.207303     -1.281600      0.840554
  H      -0.846381     -1.790715     -1.934175
  H      -1.687820     -2.085053     -0.429021
  H      -2.202601      0.185176     -2.146528
  H      -2.680286      0.104684     -0.470940
  Li      2.187622      2.788843      0.499035
  O       3.268026      4.278566      0.855414
  C       3.973353      5.137605      1.345679
  C       4.670650      6.293143      0.697312
  C       5.482799      6.938427      1.820024
  C       4.984041      6.257622      3.079141
  O       4.202463      5.129017      2.686063
  H       5.263009      5.935534     -0.153515
  H       3.916972      6.970602      0.268953
  H       6.561846      6.747125      1.688537
  H       5.386084      8.028428      1.870671
  H       5.752764      5.885745      3.783185
  H       4.336189      6.900409      3.715154
25
Coordinates from ORCA-job GBL_m1_shell2_oxidized_opt_relaxed E -619.824310394762
  O       1.114301      1.298498      0.114835
  C       0.254469      0.530609     -0.268904
  C       0.205225     -0.964646     -0.206445
  C      -1.075265     -1.343081     -0.951127
  C      -1.795513     -0.023798     -1.146389
  O      -0.875647      1.025313     -0.840059
  H       1.126326     -1.381542     -0.630986
  H       0.196207     -1.278712      0.847935
  H      -0.842360     -1.794878     -1.930933
  H      -1.693482     -2.081584     -0.429658
  H      -2.192410      0.183932     -2.158222
  H      -2.679752      0.110685     -0.485151
  Li      2.187923      2.786198      0.504482
  O       3.267592      4.276748      0.860852
  C       3.973939      5.136395      1.348750
  C       4.662826      6.296010      0.698707
  C       5.480591      6.940934      1.817722
  C       4.992475      6.255136      3.078297
  O       4.212843      5.124300      2.687126
  H       5.250489      5.942427     -0.157028
  H       3.904192      6.972356      0.277452
  H       6.559155      6.752838      1.678032
  H       5.380895      8.030426      1.871924
  H       5.766892      5.884221      3.776522
  H       4.346217      6.893754      3.719940
