25
Coordinates from ORCA-job GBL_m1_shell2_reduced_opt_relaxed E -620.400419140255
  O       1.452567      1.128530      0.173591
  C       0.452615      0.511669     -0.175009
  C       0.224291     -0.973275     -0.110019
  C      -0.986262     -1.176154     -1.025842
  C      -1.685323      0.180905     -0.944376
  O      -0.604617      1.141360     -0.666171
  H       1.126025     -1.519263     -0.394520
  H       0.005967     -1.224404      0.937233
  H      -0.659250     -1.376010     -2.050557
  H      -1.639348     -1.991323     -0.709231
  H      -2.165005      0.507173     -1.867723
  H      -2.392706      0.252131     -0.111828
  Li      2.391193      2.670160      0.371535
  O       3.327526      4.223248      0.496737
  C       3.914213      5.075237      1.153733
  C       4.572373      6.328836      0.647326
  C       5.456125      6.753211      1.823529
  C       4.718062      6.148362      3.018102
  O       4.022401      4.971514      2.470308
  H       5.096038      6.141434     -0.292186
  H       3.774420      7.055123      0.438282
  H       6.453667      6.314182      1.728971
  H       5.564936      7.835280      1.916915
  H       5.361488      5.786582      3.820741
  H       3.946733      6.808033      3.428135
25
Coordinates from ORCA-job GBL_m1_shell2_reduced_opt_relaxed E -620.408920656852
  O       1.431436      1.144027      0.212819
  C       0.428403      0.503267     -0.170341
  C       0.179288     -0.977120     -0.046041
  C      -0.977493     -1.204441     -1.022011
  C      -1.672455      0.161187     -1.036196
  O      -0.620051      1.131637     -0.759880
  H       1.085910     -1.551394     -0.264286
  H      -0.108128     -1.208665      0.995527
  H      -0.593768     -1.445858     -2.018445
  H      -1.657111     -2.004376     -0.714009
  H      -2.111447      0.438566     -1.996943
  H      -2.423179      0.262416     -0.242868
  Li      2.359148      2.686063      0.400430
  O       3.284919      4.238762      0.511766
  C       3.913713      5.095938      1.169875
  C       4.516414      6.381862      0.668013
  C       5.465723      6.771519      1.803245
  C       4.808834      6.117806      3.023717
  O       4.110189      4.947755      2.504558
  H       4.995516      6.240880     -0.306575
  H       3.712606      7.127406      0.528909
  H       6.459614      6.345548      1.632890
  H       5.573640      7.852784      1.929221
  H       5.510086      5.755713      3.778615
  H       4.056322      6.761257      3.495684
25
Coordinates from ORCA-job GBL_m1_shell2_reduced_opt_relaxed E -620.411241471867
  O       1.392198      1.171801      0.275714
  C       0.412265      0.507426     -0.152093
  C       0.121585     -0.952022      0.048198
  C      -0.951959     -1.223615     -1.008927
  C      -1.619593      0.148138     -1.156168
  O      -0.584808      1.119657     -0.877625
  H       1.027608     -1.557157     -0.064472
  H      -0.260217     -1.135112      1.069406
  H      -0.489888     -1.523425     -1.955320
  H      -1.669316     -1.996994     -0.717848
  H      -1.995814      0.357137     -2.161086
  H      -2.426342      0.294926     -0.425132
  Li      2.302756      2.715142      0.447508
  O       3.214134      4.266449      0.539619
  C       3.894652      5.109494      1.180426
  C       4.419426      6.433345      0.704961
  C       5.462317      6.778404      1.771058
  C       4.920978      6.049125      3.005667
  O       4.220084      4.888960      2.499944
  H       4.821115      6.359902     -0.311402
  H       3.608264      7.183891      0.674470
  H       6.441910      6.375904      1.492756
  H       5.570809      7.852885      1.947408
  H       5.695636      5.686419      3.686381
  H       4.200330      6.661861      3.564231
25
Coordinates from ORCA-job GBL_m1_shell2_reduced_opt_relaxed E -620.412194429865
  O       1.324780      1.218042      0.358887
  C       0.390273      0.524944     -0.121983
  C       0.042557     -0.903120      0.159253
  C      -0.913427     -1.243442     -0.989033
  C      -1.533815      0.122435     -1.303089
  O      -0.512456      1.094118     -1.008251
  H       0.939441     -1.531697      0.190212
  H      -0.454659     -1.012351      1.140232
  H      -0.354577     -1.612911     -1.855378
  H      -1.672203     -1.986853     -0.727245
  H      -1.819316      0.247763     -2.351510
  H      -2.405104      0.326914     -0.664010
  Li      2.214961      2.763270      0.513482
  O       3.112620      4.311293      0.587278
  C       3.855925      5.125457      1.195056
  C       4.297736      6.489843      0.767914
  C       5.455870      6.778778      1.729024
  C       5.060741      5.956686      2.960889
  O       4.342959      4.814456      2.456308
  H       4.585192      6.501557     -0.289258
  H       3.486676      7.231506      0.883909
  H       6.399207      6.408283      1.314103
  H       5.578385      7.839498      1.967309
  H       5.913443      5.585787      3.536858
  H       4.392920      6.522287      3.626720
25
Coordinates from ORCA-job GBL_m1_shell2_reduced_opt_relaxed E -620.412654767391
  O       1.252936      1.268310      0.435504
  C       0.370358      0.547934     -0.091875
  C      -0.039349     -0.846972      0.251972
  C      -0.875240     -1.257375     -0.966634
  C      -1.435192      0.092321     -1.429597
  O      -0.421932      1.062287     -1.112779
  H       0.834035     -1.486574      0.423014
  H      -0.640918     -0.880046      1.178156
  H      -0.232446     -1.686041     -1.742855
  H      -1.668203     -1.975770     -0.739762
  H      -1.630473      0.142971     -2.504742
  H      -2.355809      0.349480     -0.885000
  Li      2.125902      2.812909      0.577209
  O       3.014315      4.354675      0.640145
  C       3.814942      5.136681      1.208800
  C       4.190586      6.535192      0.841188
  C       5.444400      6.776726      1.690769
  C       5.184389      5.867183      2.896819
  O       4.445566      4.744662      2.385053
  H       4.363627      6.629581     -0.236827
  H       3.390976      7.253715      1.096575
  H       6.338742      6.444533      1.152916
  H       5.586773      7.820310      1.985751
  H       6.096326      5.488294      3.367442
  H       4.573817      6.377554      3.656435
25
Coordinates from ORCA-job GBL_m1_shell2_reduced_opt_relaxed E -620.412824802200
  O       1.210082      1.301262      0.475456
  C       0.361614      0.564272     -0.077508
  C      -0.087587     -0.810530      0.299164
  C      -0.854998     -1.263640     -0.949003
  C      -1.369857      0.071764     -1.497268
  O      -0.359007      1.040089     -1.166076
  H       0.764426     -1.452117      0.551122
  H      -0.743878     -0.793624      1.187905
  H      -0.170564     -1.727416     -1.667302
  H      -1.667138     -1.966019     -0.741201
  H      -1.509477      0.080156     -2.581971
  H      -2.313457      0.363014     -1.012249
  Li      2.073150      2.843739      0.611432
  O       2.957406      4.379573      0.672657
  C       3.790707      5.140607      1.215969
  C       4.132325      6.558523      0.889630
  C       5.434911      6.774796      1.669949
  C       5.251112      5.814479      2.850316
  O       4.497163      4.705056      2.330602
  H       4.235679      6.703793     -0.191662
  H       3.343197      7.254013      1.227851
  H       6.294626      6.468270      1.064704
  H       5.591445      7.806591      1.997000
  H       6.190283      5.429284      3.257473
  H       4.675966      6.286608      3.660688
25
Coordinates from ORCA-job GBL_m1_shell2_reduced_opt_relaxed E -620.412897354440
  O       1.194711      1.317724      0.485760
  C       0.361657      0.572529     -0.077747
  C      -0.106402     -0.792435      0.317433
  C      -0.847944     -1.265938     -0.938053
  C      -1.342242      0.061000     -1.523747
  O      -0.330491      1.029059     -1.189473
  H       0.733844     -1.434076      0.605291
  H      -0.783150     -0.746095      1.189790
  H      -0.149090     -1.746463     -1.631065
  H      -1.667976     -1.960324     -0.734746
  H      -1.458888      0.051259     -2.610955
  H      -2.292431      0.369613     -1.063314
  Li      2.052978      2.857476      0.619482
  O       2.935927      4.388304      0.682955
  C       3.784215      5.138885      1.215711
  C       4.109804      6.566797      0.910505
  C       5.428570      6.775291      1.664279
  C       5.277328      5.791116      2.829111
  O       4.517722      4.687137      2.302809
  H       4.183946      6.736469     -0.169458
  H       3.322014      7.245548      1.284459
  H       6.274511      6.484000      1.032549
  H       5.587712      7.801628      2.006772
  H       6.226124      5.402046      3.208723
  H       4.715679      6.241992      3.660603
25
Coordinates from ORCA-job GBL_m1_shell2_reduced_opt_relaxed E -620.412943832384
  O       1.198234      1.323764      0.477625
  C       0.368968      0.574946     -0.087978
  C      -0.106149     -0.785206      0.320391
  C      -0.849191     -1.265864     -0.930604
  C      -1.338931      0.057626     -1.527146
  O      -0.323664      1.025775     -1.198910
  H       0.729700     -1.428020      0.617279
  H      -0.783457     -0.721618      1.191484
  H      -0.151646     -1.753990     -1.619651
  H      -1.671425     -1.955950     -0.721508
  H      -1.453641      0.042402     -2.614372
  H      -2.287442      0.374555     -1.069252
  Li      2.053783      2.860418      0.610362
  O       2.936362      4.386595      0.677713
  C       3.789960      5.133046      1.209192
  C       4.106531      6.566344      0.913492
  C       5.423923      6.777114      1.667645
  C       5.279850      5.784628      2.825839
  O       4.522977      4.680336      2.293319
  H       4.176221      6.745731     -0.164934
  H       3.312439      7.233293      1.295909
  H       6.270646      6.494315      1.033018
  H       5.577515      7.802183      2.016402
  H       6.229934      5.394639      3.200920
  H       4.716635      6.225476      3.661440
25
Coordinates from ORCA-job GBL_m1_shell2_reduced_opt_relaxed E -620.412981033676
  O       1.214152      1.324069      0.457296
  C       0.382969      0.573364     -0.105553
  C      -0.094634     -0.782808      0.315602
  C      -0.855575     -1.264003     -0.923655
  C      -1.348585      0.059182     -1.517705
  O      -0.327455      1.026749     -1.202555
  H       0.740234     -1.428924      0.606896
  H      -0.761298     -0.707468      1.194250
  H      -0.169023     -1.756630     -1.620537
  H      -1.677629     -1.950393     -0.701836
  H      -1.474278      0.043473     -2.603688
  H      -2.290642      0.380567     -1.049955
  Li      2.067419      2.857342      0.589251
  O       2.949887      4.378657      0.661651
  C       3.803943      5.124017      1.196666
  C       4.112874      6.560864      0.906748
  C       5.419151      6.779607      1.676668
  C       5.268398      5.785898      2.832633
  O       4.520553      4.677968      2.292864
  H       4.192292      6.743951     -0.170081
  H       3.307705      7.218250      1.283241
  H       6.275359      6.502886      1.052128
  H       5.561701      7.805470      2.027846
  H       6.215902      5.397997      3.216283
  H       4.694707      6.222453      3.663214
25
Coordinates from ORCA-job GBL_m1_shell2_reduced_opt_relaxed E -620.413012440385
  O       1.235287      1.322633      0.430704
  C       0.401685      0.569484     -0.127404
  C      -0.079779     -0.780373      0.309214
  C      -0.864298     -1.261288     -0.914950
  C      -1.360926      0.062492     -1.504537
  O      -0.332614      1.028380     -1.206137
  H       0.753655     -1.431847      0.591400
  H      -0.732320     -0.693056      1.197617
  H      -0.192864     -1.759965     -1.622203
  H      -1.686368     -1.942320     -0.677086
  H      -1.502007      0.045144     -2.588671
  H      -2.294901      0.388476     -1.024119
  Li      2.086024      2.852704      0.561535
  O       2.968629      4.368968      0.640067
  C       3.822129      5.113485      1.179393
  C       4.121179      6.554056      0.898004
  C       5.413085      6.782611      1.688449
  C       5.252223      5.787424      2.841733
  O       4.516305      4.675406      2.293026
  H       4.214795      6.741869     -0.176584
  H       3.303389      7.201362      1.265340
  H       6.281606      6.513685      1.077669
  H       5.541733      7.809253      2.042792
  H       6.196716      5.403799      3.237141
  H       4.665765      6.220158      3.665281
25
Coordinates from ORCA-job GBL_m1_shell2_reduced_opt_relaxed E -620.413034159068
  O       1.254451      1.319357      0.405577
  C       0.418511      0.564285     -0.146751
  C      -0.066145     -0.779655      0.302531
  C      -0.873026     -1.259119     -0.907570
  C      -1.373034      0.066091     -1.491479
  O      -0.338815      1.030002     -1.207544
  H       0.766195     -1.436632      0.574232
  H      -0.704872     -0.684154      1.200264
  H      -0.216345     -1.763090     -1.624812
  H      -1.694885     -1.935099     -0.655006
  H      -1.528948      0.047087     -2.573657
  H      -2.299815      0.395052     -0.999426
  Li      2.103822      2.847987      0.535682
  O       2.987435      4.361171      0.619987
  C       3.838947      5.105353      1.163296
  C       4.129996      6.548511      0.889702
  C       5.408248      6.785602      1.699562
  C       5.236305      5.789553      2.850799
  O       4.510725      4.674603      2.294410
  H       4.238280      6.739940     -0.182685
  H       3.301848      7.188514      1.246843
  H       6.288164      6.523369      1.102419
  H       5.524394      7.812904      2.056350
  H       6.177882      5.410469      3.257671
  H       4.638810      6.220438      3.667285
25
Coordinates from ORCA-job GBL_m1_shell2_reduced_opt_relaxed E -620.413048509772
  O       1.260008      1.317910      0.395142
  C       0.424693      0.560995     -0.154201
  C      -0.063304     -0.779101      0.301251
  C      -0.877209     -1.259662     -0.903920
  C      -1.376449      0.065613     -1.489042
  O      -0.340775      1.028722     -1.209604
  H       0.767544     -1.438735      0.570938
  H      -0.698067     -0.679211      1.201304
  H      -0.225554     -1.767803     -1.622740
  H      -1.699915     -1.932386     -0.645603
  H      -1.535868      0.043089     -2.570727
  H      -2.301868      0.396448     -0.995703
  Li      2.109475      2.847476      0.524934
  O       2.994554      4.360687      0.612519
  C       3.845536      5.104109      1.156283
  C       4.132548      6.548726      0.888747
  C       5.406950      6.787919      1.704294
  C       5.232871      5.789010      2.853183
  O       4.509752      4.674560      2.293529
  H       4.245058      6.743926     -0.182492
  H       3.301317      7.185477      1.244443
  H       6.290313      6.530079      1.110425
  H       5.518334      7.814746      2.063923
  H       6.174618      5.411748      3.261572
  H       4.633570      6.218199      3.669221
25
Coordinates from ORCA-job GBL_m1_shell2_reduced_opt_relaxed E -620.413058007494
  O       1.258800      1.318135      0.390097
  C       0.425786      0.558816     -0.157498
  C      -0.065946     -0.778153      0.302757
  C      -0.879670     -1.262204     -0.901229
  C      -1.376099      0.061711     -1.492455
  O      -0.340882      1.024921     -1.213627
  H       0.762998     -1.438813      0.575761
  H      -0.701398     -0.673205      1.201718
  H      -0.228320     -1.774778     -1.617119
  H      -1.703764     -1.932234     -0.640481
  H      -1.533123      0.034098     -2.574419
  H      -2.302846      0.394860     -1.003194
  Li      2.109142      2.849767      0.519858
  O       2.996344      4.364258      0.610566
  C       3.848044      5.106235      1.153219
  C       4.132351      6.552443      0.891901
  C       5.407466      6.790552      1.706709
  C       5.236314      5.786908      2.852307
  O       4.511936      4.674759      2.290654
  H       4.243388      6.752596     -0.178567
  H       3.300576      7.186241      1.251488
  H       6.290532      6.536733      1.110734
  H       5.517302      7.816204      2.070083
  H       6.179746      5.409513      3.256772
  H       4.639453      6.213176      3.671640
25
Coordinates from ORCA-job GBL_m1_shell2_reduced_opt_relaxed E -620.413062147593
  O       1.253417      1.321351      0.389590
  C       0.424237      0.558825     -0.158592
  C      -0.072463     -0.774655      0.307272
  C      -0.879813     -1.265134     -0.898234
  C      -1.371280      0.055669     -1.500623
  O      -0.337123      1.019577     -1.220922
  H       0.753583     -1.434937      0.589650
  H      -0.712902     -0.661944      1.201780
  H      -0.224799     -1.782841     -1.607045
  H      -1.706002     -1.932657     -0.637736
  H      -1.521451      0.021434     -2.583373
  H      -2.300864      0.392620     -1.019426
  Li      2.104092      2.854314      0.519157
  O       2.992809      4.369385      0.612495
  C       3.847626      5.108976      1.152709
  C       4.128293      6.557451      0.898557
  C       5.407874      6.792573      1.706941
  C       5.245031      5.782133      2.847840
  O       4.517893      4.672777      2.284547
  H       4.232135      6.764613     -0.171254
  H       3.297297      7.186902      1.267561
  H       6.287518      6.543238      1.104054
  H       5.518393      7.816368      2.075270
  H       6.191456      5.403391      3.243955
  H       4.653172      6.203110      3.673506
25
Coordinates from ORCA-job GBL_m1_shell2_reduced_opt_relaxed E -620.413064539088
  O       1.249352      1.324280      0.387171
  C       0.422385      0.559180     -0.160914
  C      -0.076648     -0.772098      0.309869
  C      -0.880180     -1.267879     -0.895769
  C      -1.369316      0.050121     -1.506088
  O      -0.336017      1.015229     -1.227057
  H       0.747856     -1.431415      0.598754
  H      -0.719867     -0.653324      1.201638
  H      -0.222849     -1.788949     -1.599964
  H      -1.707241     -1.934065     -0.634599
  H      -1.515266      0.011159     -2.589247
  H      -2.300553      0.389631     -1.029930
  Li      2.100592      2.858170      0.516997
  O       2.990980      4.373482      0.613355
  C       3.848045      5.111242      1.152649
  C       4.126500      6.561359      0.903296
  C       5.408703      6.794290      1.707804
  C       5.251058      5.779347      2.845344
  O       4.522198      4.671795      2.280571
  H       4.225544      6.773367     -0.165965
  H       3.295661      7.187346      1.278615
  H       6.286158      6.547750      1.100577
  H       5.519737      7.816830      2.079440
  H       6.199133      5.399190      3.236083
  H       4.662164      6.196504      3.675046
25
Coordinates from ORCA-job GBL_m1_shell2_reduced_opt_relaxed E -620.413065451488
  O       1.248277      1.326269      0.383332
  C       0.421950      0.559572     -0.163984
  C      -0.077430     -0.770429      0.310514
  C      -0.880696     -1.269325     -0.893877
  C      -1.369781      0.047010     -1.507710
  O      -0.336547      1.012992     -1.230956
  H       0.746732     -1.429034      0.601864
  H      -0.720863     -0.648271      1.201711
  H      -0.223127     -1.792039     -1.596644
  H      -1.707724     -1.934951     -0.631157
  H      -1.515296      0.005537     -2.590829
  H      -2.301097      0.387822     -1.032651
  Li      2.099761      2.860356      0.513425
  O       2.991248      4.375333      0.612260
  C       3.849342      5.112026      1.151889
  C       4.126567      6.562989      0.905124
  C       5.409081      6.795126      1.709176
  C       5.252758      5.778155      2.844981
  O       4.524029      4.671144      2.278723
  H       4.224326      6.777432     -0.163731
  H       3.295216      7.187001      1.282678
  H       6.286193      6.549889      1.100906
  H       5.519931      7.817096      2.082439
  H       6.201158      5.397444      3.234376
  H       4.664120      6.193396      3.675817
25
Coordinates from ORCA-job GBL_m1_shell2_reduced_opt_relaxed E -620.413066028481
  O       1.247834      1.327925      0.379674
  C       0.421375      0.560217     -0.166428
  C      -0.076899     -0.769392      0.310349
  C      -0.880904     -1.270269     -0.892706
  C      -1.371209      0.045011     -1.507736
  O      -0.337996      1.011831     -1.233452
  H       0.747800     -1.427141      0.602088
  H      -0.719697     -0.646175      1.201866
  H      -0.223593     -1.793370     -1.595439
  H      -1.707353     -1.936071     -0.628600
  H      -1.517858      0.002238     -2.590649
  H      -2.302107      0.386101     -1.032054
  Li      2.099503      2.862001      0.510061
  O       2.991821      4.376580      0.610914
  C       3.850156      5.112637      1.151451
  C       4.127441      6.563773      0.905683
  C       5.409631      6.795304      1.710400
  C       5.252675      5.777739      2.845507
  O       4.524472      4.670870      2.278103
  H       4.225480      6.779010     -0.162977
  H       3.295888      7.187389      1.283462
  H       6.286934      6.550116      1.102369
  H       5.520614      7.817040      2.084271
  H       6.200765      5.396748      3.235379
  H       4.663356      6.192428      3.676140
