25
Coordinates from ORCA-job GBL_m1_shell2_reduced_opt_relaxed E -620.413066028481
  O           1.24783430709979      1.32792502252736      0.37967402842256
  C           0.42137478524722      0.56021686281773     -0.16642803644236
  C          -0.07689864346820     -0.76939158386576      0.31034874570275
  C          -0.88090387788027     -1.27026939473275     -0.89270623052565
  C          -1.37120854374454      0.04501133395729     -1.50773602354766
  O          -0.33799629269482      1.01183056753318     -1.23345229778162
  H           0.74780048411850     -1.42714057654286      0.60208805314157
  H          -0.71969713197557     -0.64617480636178      1.20186649991916
  H          -0.22359348710829     -1.79336970830173     -1.59543852241195
  H          -1.70735306433831     -1.93607094970715     -0.62859951004457
  H          -1.51785826492643      0.00223806131502     -2.59064905948197
  H          -2.30210721269675      0.38610146516288     -1.03205415257120
  Li          2.09950329778069      2.86200050581127      0.51006053913696
  O           2.99182053049576      4.37657967294476      0.61091432368672
  C           3.85015577724669      5.11263666534256      1.15145119079514
  C           4.12744062472058      6.56377314110855      0.90568256278860
  C           5.40963127232164      6.79530408886956      1.71039982203720
  C           5.25267541314463      5.77773900040147      2.84550742595893
  O           4.52447237442595      4.67087023925308      2.27810282085468
  H           4.22547985129169      6.77901032252298     -0.16297741929114
  H           3.29588818800649      7.18738931505735      1.28346160968935
  H           6.28693381494104      6.55011592942804      1.10236935041651
  H           5.52061421912562      7.81703992834266      2.08427149117309
  H           6.20076488877144      5.39674806668555      3.23537893340685
  H           4.66335569009542      6.19242783043069      3.67613985496801
