25
DMC_m2_shell2_reduced_sp
C     -2.6488760000     0.1232940000    -0.2564660000
O     -1.3691090000    -0.1207470000     0.4119520000
C     -0.2810880000     0.3835260000    -0.2289310000
O     -0.2520000000     0.9927020000    -1.2505010000
O      0.7662160000     0.0319730000     0.5639300000
C      2.0787110000     0.4712430000     0.0861370000
H     -3.3987970000    -0.3410450000     0.3816290000
H     -2.6314210000    -0.3372370000    -1.2453480000
H     -2.8111180000     1.1989240000    -0.3399690000
H      2.0923420000     1.5603480000     0.0231500000
H      2.2707540000     0.0305600000    -0.8932820000
H      2.7892750000     0.1104210000     0.8277650000
Li    -0.3424020000    -0.9126790000     1.9377410000
C      0.5089390000    -4.0050730000     2.9006790000
O      0.0308150000    -2.6212240000     2.9154020000
C     -0.3920900000    -2.1720600000     4.1271390000
O     -0.4140180000    -2.7639150000     5.1590220000
O     -0.7840420000    -0.8917530000     3.8903060000
C     -1.2876090000    -0.1724390000     5.0621180000
H      0.7984790000    -4.1974060000     1.8690090000
H     -0.2988890000    -4.6679240000     3.2142370000
H      1.3616160000    -4.0980590000     3.5749590000
H     -0.5031290000    -0.1242790000     5.8187300000
H     -2.1632390000    -0.6923230000     5.4536440000
H     -1.5471980000     0.8206110000     4.6993480000
