25
Coordinates from ORCA-job DMC_m2_shell2_cation_opt E -694.492330692214
  C      -2.615930      0.130104     -0.141496
  O      -1.381079     -0.171605      0.527515
  C      -0.285060      0.306023     -0.091956
  O      -0.256498      0.922248     -1.100574
  O       0.772246     -0.051588      0.661344
  C       2.040049      0.375698      0.138697
  H      -3.410494     -0.279102      0.475290
  H      -2.626075     -0.327419     -1.131880
  H      -2.729075      1.210169     -0.246461
  H       2.057529      1.462288      0.042847
  H       2.209272     -0.071394     -0.842063
  H       2.794713      0.042815      0.844859
  Li     -0.342927     -0.919695      1.933937
  C       0.548228     -3.912942      2.853257
  O       0.053027     -2.565153      2.806735
  C      -0.389268     -2.097231      3.988927
  O      -0.410015     -2.681174      5.016730
  O      -0.801832     -0.833154      3.774874
  C      -1.320646     -0.175726      4.942093
  H       0.870278     -4.159552      1.845976
  H      -0.242421     -4.590520      3.179151
  H       1.384828     -3.979289      3.550464
  H      -0.552338     -0.125243      5.715044
  H      -2.180196     -0.725345      5.328554
  H      -1.614194      0.822223      4.630535
25
Coordinates from ORCA-job DMC_m2_shell2_cation_opt E -694.495637276402
  C      -2.641674      0.123493     -0.140417
  O      -1.383526     -0.169434      0.522728
  C      -0.284643      0.316535     -0.107878
  O      -0.256037      0.935260     -1.124417
  O       0.775161     -0.047464      0.657670
  C       2.066020      0.376367      0.145468
  H      -3.421776     -0.299197      0.490897
  H      -2.655294     -0.336486     -1.130521
  H      -2.766665      1.203534     -0.238952
  H       2.091293      1.464088      0.055944
  H       2.242680     -0.073509     -0.833638
  H       2.805516      0.031945      0.866730
  Li     -0.342700     -0.918774      1.934379
  C       0.555974     -3.931483      2.836539
  O       0.053421     -2.569342      2.809921
  C      -0.388946     -2.105757      4.005841
  O      -0.410375     -2.694371      5.040295
  O      -0.802156     -0.832585      3.781383
  C      -1.328905     -0.151606      4.950742
  H       0.869427     -4.157867      1.818591
  H      -0.234498     -4.612780      3.157325
  H       1.399897     -4.002418      3.525638
  H      -0.560539     -0.093433      5.724105
  H      -2.194192     -0.693807      5.337077
  H      -1.615342      0.844529      4.616950
25
Coordinates from ORCA-job DMC_m2_shell2_cation_opt E -694.497121795252
  C      -2.657707      0.119895     -0.146509
  O      -1.381265     -0.163767      0.511748
  C      -0.284012      0.329828     -0.130299
  O      -0.255432      0.948539     -1.149494
  O       0.773554     -0.039574      0.647803
  C       2.082492      0.381964      0.145941
  H      -3.419274     -0.316911      0.498548
  H      -2.667686     -0.343336     -1.134631
  H      -2.789347      1.199514     -0.235609
  H       2.108508      1.469918      0.065070
  H       2.261157     -0.072148     -0.830336
  H       2.802708      0.026251      0.881862
  Li     -0.342590     -0.917964      1.934748
  C       0.558242     -3.946881      2.830315
  O       0.051382     -2.573575      2.821233
  C      -0.389071     -2.117849      4.028778
  O      -0.410240     -2.707973      5.064984
  O      -0.800428     -0.839108      3.792254
  C      -1.331909     -0.138371      4.962493
  H       0.860834     -4.150207      1.803690
  H      -0.235426     -4.625569      3.147093
  H       1.407814     -4.016877      3.511829
  H      -0.560041     -0.076931      5.731480
  H      -2.201369     -0.676292      5.344201
  H      -1.608773      0.852863      4.605207
25
Coordinates from ORCA-job DMC_m2_shell2_cation_opt E -694.497802786778
  C      -2.662775      0.119201     -0.157527
  O      -1.376657     -0.156472      0.498123
  C      -0.283392      0.341629     -0.150762
  O      -0.254797      0.958496     -1.169453
  O       0.769709     -0.030083      0.635165
  C       2.088191      0.390739      0.140991
  H      -3.411844     -0.327886      0.494511
  H      -2.666611     -0.345470     -1.144452
  H      -2.798206      1.198450     -0.239295
  H       2.111786      1.478750      0.066848
  H       2.266538     -0.065643     -0.833704
  H       2.795677      0.028099      0.885339
  Li     -0.342505     -0.917222      1.935101
  C       0.555353     -3.956930      2.833886
  O       0.048182     -2.577668      2.836251
  C      -0.389222     -2.128933      4.049542
  O      -0.409994     -2.718741      5.084334
  O      -0.797689     -0.849096      3.804918
  C      -1.329956     -0.136532      4.974833
  H       0.849869     -4.145842      1.802512
  H      -0.241943     -4.631230      3.149250
  H       1.408206     -4.025426      3.510642
  H      -0.554309     -0.075415      5.739338
  H      -2.201756     -0.672408      5.352646
  H      -1.599734      0.851071      4.603362
25
Coordinates from ORCA-job DMC_m2_shell2_cation_opt E -694.498323781758
  C      -2.662176      0.120000     -0.174006
  O      -1.370986     -0.146881      0.480041
  C      -0.282717      0.353869     -0.172494
  O      -0.254058      0.968200     -1.189994
  O       0.764990     -0.017604      0.618428
  C       2.088460      0.403501      0.131731
  H      -3.403467     -0.335651      0.480114
  H      -2.659481     -0.344213     -1.160754
  H      -2.802449      1.198699     -0.250381
  H       2.109387      1.491591      0.062977
  H       2.267292     -0.052735     -0.842527
  H       2.788368      0.036719      0.880443
  Li     -0.342443     -0.916369      1.935523
  C       0.548562     -3.965909      2.844214
  O       0.044039     -2.583559      2.855947
  C      -0.389505     -2.140763      4.071437
  O      -0.409828     -2.729852      5.103960
  O      -0.794236     -0.862177      3.821782
  C      -1.324325     -0.141241      4.990198
  H       0.836882     -4.146746      1.810192
  H      -0.251820     -4.636044      3.159521
  H       1.403754     -4.035175      3.517368
  H      -0.545568     -0.082037      5.751194
  H      -2.197966     -0.674590      5.366318
  H      -1.588588      0.844407      4.611166
25
Coordinates from ORCA-job DMC_m2_shell2_cation_opt E -694.498769220301
  C      -2.657929      0.121659     -0.194765
  O      -1.366101     -0.135873      0.458580
  C      -0.282045      0.365782     -0.194047
  O      -0.253262      0.977724     -1.211141
  O       0.761180     -0.002775      0.598917
  C       2.085258      0.419558      0.119381
  H      -3.396875     -0.340470      0.456820
  H      -2.650270     -0.340227     -1.182503
  H      -2.805510      1.199512     -0.268762
  H       2.105087      1.507842      0.054125
  H       2.267014     -0.033618     -0.855675
  H       2.783414      0.051460      0.868526
  Li     -0.342408     -0.915405      1.936029
  C       0.538875     -3.974689      2.859282
  O       0.039691     -2.592030      2.878296
  C      -0.389931     -2.152563      4.093044
  O      -0.409979     -2.741400      5.123897
  O      -0.790774     -0.876202      3.842397
  C      -1.315890     -0.150276      5.008210
  H       0.823466     -4.154141      1.824389
  H      -0.263149     -4.642486      3.175239
  H       1.395668     -4.048667      3.529796
  H      -0.535620     -0.093389      5.767745
  H      -2.191172     -0.679508      5.386148
  H      -1.576615      0.835620      4.628472
25
Coordinates from ORCA-job DMC_m2_shell2_cation_opt E -694.499118007296
  C      -2.652724      0.123615     -0.216975
  O      -1.363951     -0.125408      0.436842
  C      -0.281473      0.375913     -0.212761
  O      -0.252522      0.986250     -1.230944
  O       0.760055      0.012360      0.579806
  C       2.081119      0.436909      0.106031
  H      -3.393980     -0.342490      0.429065
  H      -2.642740     -0.334987     -1.206480
  H      -2.809486      1.200365     -0.291976
  H       2.101981      1.525516      0.042232
  H       2.268275     -0.010918     -0.870734
  H       2.782371      0.069817      0.852712
  Li     -0.342413     -0.914437      1.936576
  C       0.528338     -3.983719      2.875857
  O       0.036098     -2.602801      2.899297
  C      -0.390496     -2.162884      4.111706
  O      -0.410615     -2.752366      5.142323
  O      -0.788154     -0.887965      3.864182
  C      -1.306448     -0.160547      5.027208
  H       0.811877     -4.167001      1.841389
  H      -0.273745     -4.651588      3.192376
  H       1.385911     -4.065969      3.544801
  H      -0.526398     -0.105469      5.787445
  H      -2.183119     -0.684237      5.410318
  H      -1.565638      0.827480      4.652105
25
Coordinates from ORCA-job DMC_m2_shell2_cation_opt E -694.499281118397
  C      -2.650308      0.124793     -0.232673
  O      -1.365321     -0.119745      0.423145
  C      -0.281188      0.381192     -0.222833
  O      -0.252105      0.990997     -1.242873
  O       0.762012      0.022145      0.568637
  C       2.079393      0.449494      0.096898
  H      -3.395177     -0.342506      0.408780
  H      -2.640018     -0.331753     -1.223476
  H      -2.813779      1.200684     -0.310397
  H       2.101724      1.538401      0.033079
  H       2.271304      0.006208     -0.881374
  H       2.784783      0.084144      0.840912
  Li     -0.342452     -0.913782      1.936987
  C       0.521309     -3.991206      2.886897
  O       0.034436     -2.611708      2.910757
  C      -0.391022     -2.168508      4.121672
  O      -0.411540     -2.759092      5.153177
  O      -0.787184     -0.892799      3.878744
  C      -1.299939     -0.166684      5.041057
  H       0.805756     -4.179011      1.853215
  H      -0.280335     -4.660185      3.203278
  H       1.378718     -4.080646      3.555649
  H      -0.520630     -0.112568      5.802581
  H      -2.177309     -0.686079      5.429319
  H      -1.559008      0.823653      4.671241
25
Coordinates from ORCA-job DMC_m2_shell2_cation_opt E -694.499327744035
  C      -2.650345      0.125302     -0.240700
  O      -1.367443     -0.118469      0.417917
  C      -0.281120      0.382717     -0.226066
  O      -0.251987      0.992450     -1.247223
  O       0.764311      0.026108      0.565140
  C       2.079724      0.456160      0.092449
  H      -3.397202     -0.341738      0.399010
  H      -2.639522     -0.331161     -1.231700
  H      -2.815848      1.200885     -0.320361
  H       2.101830      1.545213      0.028540
  H       2.273331      0.014756     -0.886503
  H       2.787242      0.091889      0.835300
  Li     -0.342492     -0.913486      1.937195
  C       0.518202     -3.996119      2.891932
  O       0.033950     -2.616362      2.913871
  C      -0.391384     -2.170363      4.124773
  O      -0.412323     -2.761644      5.156935
  O      -0.787013     -0.892963      3.884691
  C      -1.296902     -0.168764      5.048570
  H       0.803907     -4.185944      1.858730
  H      -0.283864     -4.665098      3.207721
  H       1.374868     -4.088459      3.561472
  H      -0.517385     -0.115454      5.810148
  H      -2.174245     -0.686761      5.439174
  H      -1.556167      0.822745      4.681382
25
Coordinates from ORCA-job DMC_m2_shell2_cation_opt E -694.499343648915
  C      -2.650524      0.125544     -0.245975
  O      -1.368784     -0.118646      0.415693
  C      -0.281112      0.383159     -0.227264
  O      -0.251968      0.992778     -1.248827
  O       0.765702      0.028002      0.564220
  C       2.080063      0.460697      0.089642
  H      -3.398408     -0.340855      0.393149
  H      -2.638224     -0.331746     -1.236585
  H      -2.815594      1.201106     -0.326776
  H       2.100433      1.549800      0.025942
  H       2.273483      0.019809     -0.889582
  H       2.788611      0.097194      0.832013
  Li     -0.342513     -0.913303      1.937329
  C       0.516133     -3.999535      2.895136
  O       0.033491     -2.618704      2.914547
  C      -0.391649     -2.171085      4.125839
  O      -0.412930     -2.762670      5.158152
  O      -0.786698     -0.892335      3.887196
  C      -1.294798     -0.169964      5.053514
  H       0.802985     -4.190168      1.862313
  H      -0.287181     -4.667305      3.210319
  H       1.371777     -4.092375      3.565913
  H      -0.514215     -0.117859      5.814089
  H      -2.171736     -0.688197      5.444723
  H      -1.554223      0.822097      4.687679
25
Coordinates from ORCA-job DMC_m2_shell2_cation_opt E -694.499351604957
  C      -2.650172      0.125437     -0.250992
  O      -1.369433     -0.119259      0.413971
  C      -0.281109      0.383407     -0.228143
  O      -0.251971      0.992831     -1.249786
  O       0.766398      0.029640      0.563840
  C       2.079855      0.465235      0.087217
  H      -3.398978     -0.340097      0.387677
  H      -2.635657     -0.333110     -1.240932
  H      -2.813856      1.201071     -0.332797
  H       2.097472      1.554348      0.023879
  H       2.272389      0.024459     -0.892165
  H       2.789309      0.102673      0.829179
  Li     -0.342508     -0.913101      1.937472
  C       0.513643     -4.002438      2.898218
  O       0.032682     -2.620238      2.914943
  C      -0.391884     -2.171620      4.126563
  O      -0.413479     -2.763345      5.158749
  O      -0.785968     -0.891904      3.888866
  C      -1.292280     -0.171335      5.057943
  H       0.801718     -4.193788      1.865871
  H      -0.291502     -4.668201      3.212781
  H       1.368007     -4.095039      3.570560
  H      -0.510081     -0.120905      5.816888
  H      -2.168612     -0.690442      5.449186
  H      -1.551861      0.821160      4.693410
25
Coordinates from ORCA-job DMC_m2_shell2_cation_opt E -694.499354579188
  C      -2.649479      0.124689     -0.254460
  O      -1.369389     -0.119971      0.412762
  C      -0.281101      0.383521     -0.228687
  O      -0.251983      0.992785     -1.250275
  O       0.766418      0.030936      0.563760
  C       2.079260      0.468731      0.086053
  H      -3.398990     -0.340114      0.383839
  H      -2.633129     -0.334975     -1.243794
  H      -2.812056      1.200364     -0.337133
  H       2.094478      1.557839      0.022974
  H       2.271202      0.027972     -0.893387
  H       2.789413      0.107100      0.827733
  Li     -0.342468     -0.912894      1.937608
  C       0.511189     -4.004161      2.900119
  O       0.031734     -2.620941      2.915265
  C      -0.392025     -2.171936      4.126981
  O      -0.413822     -2.763720      5.158978
  O      -0.785019     -0.891815      3.889802
  C      -1.289833     -0.172269      5.060727
  H       0.800179     -4.196126      1.868189
  H      -0.295538     -4.668165      3.214164
  H       1.364523     -4.096678      3.573682
  H      -0.506259     -0.123233      5.818262
  H      -2.165690     -0.692046      5.451977
  H      -1.549492      0.820548      4.697262
25
Coordinates from ORCA-job DMC_m2_shell2_cation_opt E -694.499355723335
  C      -2.648876      0.123294     -0.256466
  O      -1.369109     -0.120747      0.411952
  C      -0.281088      0.383526     -0.228931
  O      -0.252000      0.992702     -1.250501
  O       0.766216      0.031973      0.563930
  C       2.078711      0.471243      0.086137
  H      -3.398797     -0.341045      0.381629
  H      -2.631421     -0.337237     -1.245348
  H      -2.811118      1.198924     -0.339969
  H       2.092342      1.560348      0.023150
  H       2.270754      0.030560     -0.893282
  H       2.789275      0.110421      0.827765
  Li     -0.342402     -0.912679      1.937741
  C       0.508939     -4.005073      2.900679
  O       0.030815     -2.621224      2.915402
  C      -0.392090     -2.172060      4.127139
  O      -0.414018     -2.763915      5.159022
  O      -0.784042     -0.891753      3.890306
  C      -1.287609     -0.172439      5.062118
  H       0.798479     -4.197406      1.869009
  H      -0.298889     -4.667924      3.214237
  H       1.361616     -4.098059      3.574959
  H      -0.503129     -0.124279      5.818730
  H      -2.163239     -0.692323      5.453644
  H      -1.547198      0.820611      4.699348
