25
Coordinates from ORCA-job DMC_m2_shell2_cation_opt E -694.499355723335
  C          -2.64887636828236      0.12329387682017     -0.25646558268809
  O          -1.36910923725584     -0.12074686665602      0.41195150938340
  C          -0.28108805553937      0.38352596488663     -0.22893066977386
  O          -0.25199973663416      0.99270229030325     -1.25050120141590
  O           0.76621586498654      0.03197300734748      0.56392986094275
  C           2.07871122983509      0.47124277457590      0.08613689588948
  H          -3.39879656254705     -0.34104523062706      0.38162868704022
  H          -2.63142085689704     -0.33723718308628     -1.24534751981073
  H          -2.81111815061331      1.19892371634142     -0.33996936746506
  H           2.09234199074820      1.56034755467974      0.02315006694825
  H           2.27075413608291      0.03055997294368     -0.89328232305909
  H           2.78927455535757      0.11042086204362      0.82776516460139
  Li         -0.34240215634331     -0.91267907252364      1.93774070711645
  C           0.50893912475747     -4.00507315037823      2.90067860081897
  O           0.03081501403185     -2.62122440659471      2.91540241969796
  C          -0.39209034895364     -2.17205959675379      4.12713893716452
  O          -0.41401760053610     -2.76391482934437      5.15902239099025
  O          -0.78404206953960     -0.89175273903294      3.89030568319271
  C          -1.28760857439622     -0.17243944959249      5.06211839562156
  H           0.79847910003391     -4.19740556469034      1.86900910836253
  H          -0.29888862190988     -4.66792439706318      3.21423730142228
  H           1.36161556534380     -4.09805895459458      3.57495850133616
  H          -0.50312929375573     -0.12427863465788      5.81872953439624
  H          -2.16323865847566     -0.69232278745428      5.45364396063175
  H          -1.54719804559807      0.82061098250789      4.69934820125581
