15
Coordinates from ORCA-job EMC_anion_cpcm_200_moread E -382.909291310732
  C          -2.40026872702657      0.49596702168144      0.60048486250992
  C          -1.51416497652734     -0.73919043261983      0.66329042873666
  O          -0.14290764893075     -0.41105185644787      0.89563667926264
  C           0.67125213097730     -0.39320333199655     -0.30785934024850
  O           0.21772557882472      0.15559536154136     -1.36095302903203
  O           1.92513683470542      0.09131304897166      0.24762837727657
  C           2.93064697150583      0.24249023117446     -0.74418258762583
  H          -2.11899497544808      1.12956512129318     -0.24542782387480
  H          -3.45142432059064      0.20318015762799      0.48586146456368
  H          -2.30922215775210      1.08264302773706      1.52125438791366
  H          -1.83045493555024     -1.37980853389418      1.49821668658819
  H          -1.60623632710303     -1.32460296855959     -0.26231313015777
  H           3.10481990968892     -0.70124031664765     -1.28577154303772
  H           2.67300736954350      1.01752125771306     -1.47836288071092
  H           3.85108525368307      0.53082219242541     -0.22750255216375
