15
Coordinates from ORCA-job EMC_anion_cpcm_200_moread E -382.848346516524
  C      -2.295011      0.527875      0.543211
  C      -1.508848     -0.770918      0.642061
  O      -0.123641     -0.527855      0.905730
  C       0.635622     -0.235481     -0.146661
  O       0.276990     -0.190628     -1.289389
  O       1.881442     -0.010724      0.278583
  C       2.828783      0.291902     -0.737117
  H      -1.953084      1.105128     -0.312311
  H      -3.350833      0.305160      0.418014
  H      -2.159851      1.117971      1.446411
  H      -1.847705     -1.374003      1.486418
  H      -1.600226     -1.342289     -0.287264
  H       2.916029     -0.540122     -1.438628
  H       2.528899      1.186371     -1.286595
  H       3.771435      0.457613     -0.222463
15
Coordinates from ORCA-job EMC_anion_cpcm_200_moread E -382.871583367658
  C      -2.235448      0.556686      0.530741
  C      -1.537939     -0.789510      0.654634
  O      -0.128290     -0.633998      0.897964
  C       0.650054     -0.424516     -0.179256
  O       0.260677     -0.250450     -1.318219
  O       1.874394     -0.086194      0.273541
  C       2.804605      0.345640     -0.724926
  H      -1.868194      1.092719     -0.346218
  H      -3.311887      0.401450      0.422878
  H      -2.052421      1.164709      1.419539
  H      -1.907364     -1.346076      1.519295
  H      -1.681653     -1.385733     -0.255141
  H       2.980613     -0.456211     -1.453030
  H       2.428931      1.228552     -1.251184
  H       3.723923      0.582933     -0.190617
15
Coordinates from ORCA-job EMC_anion_cpcm_200_moread E -382.894771649797
  C      -2.175482      0.579136      0.516811
  C      -1.551005     -0.799886      0.666091
  O      -0.131660     -0.732274      0.893355
  C       0.664588     -0.596413     -0.219546
  O       0.235913     -0.280357     -1.345507
  O       1.872598     -0.151514      0.270237
  C       2.768486      0.388443     -0.706854
  H      -1.787147      1.075928     -0.375152
  H      -3.263169      0.483725      0.420411
  H      -1.952845      1.197512      1.390931
  H      -1.947259     -1.313066      1.547060
  H      -1.741522     -1.411229     -0.227097
  H       3.022923     -0.381830     -1.451204
  H       2.325365      1.247372     -1.221337
  H       3.660214      0.694452     -0.158199
15
Coordinates from ORCA-job EMC_anion_cpcm_200_moread E -382.904375630551
  C      -2.160748      0.586844      0.515973
  C      -1.564422     -0.803354      0.676440
  O      -0.145905     -0.779254      0.902637
  C       0.675343     -0.682654     -0.250695
  O       0.219427     -0.287427     -1.381382
  O       1.895337     -0.173683      0.270500
  C       2.769434      0.406995     -0.699960
  H      -1.760667      1.069573     -0.378956
  H      -3.252453      0.517256      0.419379
  H      -1.927472      1.208461      1.386882
  H      -1.979437     -1.295534      1.562946
  H      -1.779568     -1.421112     -0.207682
  H       3.064229     -0.346514     -1.448167
  H       2.298106      1.249874     -1.217681
  H       3.648795      0.750531     -0.150233
15
Coordinates from ORCA-job EMC_anion_cpcm_200_moread E -382.906799765221
  C      -2.119930      0.599672      0.514388
  C      -1.553421     -0.803918      0.665110
  O      -0.142171     -0.811998      0.909150
  C       0.689309     -0.778272     -0.259716
  O       0.211341     -0.297078     -1.345776
  O       1.875260     -0.174661      0.282277
  C       2.727981      0.415214     -0.696201
  H      -1.694548      1.088906     -0.364856
  H      -3.209443      0.554229      0.399607
  H      -1.892192      1.203515      1.399432
  H      -1.996887     -1.294468      1.539931
  H      -1.780209     -1.408813     -0.223942
  H       3.081342     -0.334578     -1.418759
  H       2.221322      1.215652     -1.248398
  H       3.582244      0.826598     -0.152246
15
Coordinates from ORCA-job EMC_anion_cpcm_200_moread E -382.907794314139
  C      -2.188455      0.586603      0.545156
  C      -1.560489     -0.794448      0.661147
  O      -0.152002     -0.750032      0.911789
  C       0.692269     -0.710330     -0.264341
  O       0.216926     -0.248427     -1.362454
  O       1.892813     -0.103476      0.277562
  C       2.789700      0.387673     -0.713930
  H      -1.779520      1.120942     -0.315657
  H      -3.275324      0.496890      0.421212
  H      -1.995465      1.174567      1.449570
  H      -1.991298     -1.325228      1.519959
  H      -1.762551     -1.387277     -0.242211
  H       3.134097     -0.419118     -1.379763
  H       2.330503      1.170157     -1.330275
  H       3.648795      0.801504     -0.177764
15
Coordinates from ORCA-job EMC_anion_cpcm_200_moread E -382.908521824442
  C      -2.252085      0.564527      0.572670
  C      -1.556309     -0.786155      0.656705
  O      -0.154855     -0.671628      0.909424
  C       0.686313     -0.615463     -0.278788
  O       0.207683     -0.148373     -1.365309
  O       1.895567     -0.010379      0.269488
  C       2.842955      0.349232     -0.727020
  H      -1.867721      1.143091     -0.271529
  H      -3.332845      0.424397      0.441667
  H      -2.093608      1.137725      1.493093
  H      -1.966777     -1.360269      1.498575
  H      -1.729588     -1.365261     -0.260955
  H       3.162854     -0.524012     -1.318944
  H       2.446549      1.104763     -1.417049
  H       3.711868      0.757805     -0.202027
15
Coordinates from ORCA-job EMC_anion_cpcm_200_moread E -382.909014112438
  C      -2.355484      0.520900      0.620411
  C      -1.533575     -0.760388      0.642316
  O      -0.149436     -0.517838      0.884287
  C       0.675447     -0.446408     -0.324902
  O       0.190443      0.033576     -1.387950
  O       1.890324      0.159132      0.234928
  C       2.917026      0.276841     -0.735204
  H      -2.041294      1.170035     -0.201102
  H      -3.420122      0.285506      0.494969
  H      -2.240486      1.068802      1.562338
  H      -1.885033     -1.406227      1.459438
  H      -1.665816     -1.315196     -0.297059
  H       3.175399     -0.699205     -1.180047
  H       2.641436      0.960788     -1.549286
  H       3.801172      0.669681     -0.223138
15
Coordinates from ORCA-job EMC_anion_cpcm_200_moread E -382.909125999972
  C      -2.336457      0.526642      0.607385
  C      -1.535739     -0.766989      0.648184
  O      -0.147739     -0.542131      0.891702
  C       0.674851     -0.472232     -0.313182
  O       0.190105      0.016811     -1.375202
  O       1.889348      0.123749      0.245453
  C       2.902612      0.288303     -0.734486
  H      -2.009194      1.158536     -0.222964
  H      -3.404281      0.307103      0.482019
  H      -2.213299      1.085727      1.541645
  H      -1.897436     -1.398029      1.471938
  H      -1.670686     -1.328996     -0.286521
  H       3.161448     -0.669123     -1.216135
  H       2.607517      0.997699     -1.519575
  H       3.788949      0.672932     -0.220260
15
Coordinates from ORCA-job EMC_anion_cpcm_200_moread E -382.909190616914
  C      -2.336951      0.523414      0.600721
  C      -1.531821     -0.766642      0.652150
  O      -0.143743     -0.533412      0.894951
  C       0.673724     -0.467629     -0.307699
  O       0.190453      0.034724     -1.366611
  O       1.890634      0.112696      0.250286
  C       2.899428      0.285912     -0.734791
  H      -2.011559      1.148228     -0.235842
  H      -3.404060      0.300011      0.477233
  H      -2.213701      1.091649      1.529414
  H      -1.890096     -1.393740      1.479875
  H      -1.660648     -1.334068     -0.280208
  H       3.138547     -0.665936     -1.236065
  H       2.605791      1.014455     -1.502832
  H       3.794003      0.650336     -0.220583
15
Coordinates from ORCA-job EMC_anion_cpcm_200_moread E -382.909229475731
  C      -2.352681      0.514299      0.599703
  C      -1.525693     -0.761411      0.654742
  O      -0.140704     -0.502447      0.894873
  C       0.672254     -0.441918     -0.307219
  O       0.192122      0.075478     -1.362571
  O       1.895512      0.118162      0.249921
  C       2.906936      0.273875     -0.736655
  H      -2.039628      1.139936     -0.240926
  H      -3.416226      0.273052      0.479815
  H      -2.235622      1.089325      1.524989
  H      -1.871389     -1.392181      1.484801
  H      -1.643470     -1.333156     -0.276395
  H       3.117343     -0.680750     -1.244814
  H       2.629700      1.015750     -1.497958
  H       3.811546      0.611987     -0.222308
15
Coordinates from ORCA-job EMC_anion_cpcm_200_moread E -382.909251731849
  C      -2.368800      0.507021      0.601011
  C      -1.521448     -0.755229      0.656057
  O      -0.140132     -0.473532      0.893893
  C       0.671904     -0.420482     -0.307718
  O       0.196213      0.105642     -1.362663
  O       1.901927      0.122930      0.247899
  C       2.915692      0.263013     -0.738838
  H      -2.067268      1.136083     -0.241176
  H      -3.428637      0.248745      0.483718
  H      -2.258918      1.085201      1.525159
  H      -1.855692     -1.390548      1.487396
  H      -1.630399     -1.330175     -0.274136
  H       3.106761     -0.693729     -1.250545
  H       2.652254      1.013129     -1.496738
  H       3.826542      0.581933     -0.223320
15
Coordinates from ORCA-job EMC_anion_cpcm_200_moread E -382.909268790154
  C      -2.390065      0.497841      0.602998
  C      -1.516172     -0.746188      0.658003
  O      -0.140736     -0.434426      0.892429
  C       0.671357     -0.393685     -0.308855
  O       0.203331      0.143205     -1.363530
  O       1.911628      0.125373      0.244858
  C       2.927200      0.248595     -0.741859
  H      -2.103569      1.132106     -0.240547
  H      -3.444359      0.216568      0.488490
  H      -2.290993      1.079194      1.526300
  H      -1.835790     -1.387304      1.490940
  H      -1.614052     -1.325575     -0.270585
  H       3.097405     -0.708900     -1.259552
  H       2.680060      1.009004     -1.494832
  H       3.844755      0.544193     -0.224259
15
Coordinates from ORCA-job EMC_anion_cpcm_200_moread E -382.909276285732
  C      -2.393173      0.497521      0.603275
  C      -1.515982     -0.744239      0.658637
  O      -0.141635     -0.428566      0.892628
  C       0.671629     -0.393196     -0.308767
  O       0.206498      0.144372     -1.364202
  O       1.914715      0.120098      0.244651
  C       2.928824      0.247075     -0.742547
  H      -2.108138      1.132908     -0.239888
  H      -3.446589      0.213027      0.488413
  H      -2.296516      1.078802      1.526870
  H      -1.834447     -1.385945      1.491709
  H      -1.612751     -1.324679     -0.269440
  H       3.100585     -0.708314     -1.263789
  H       2.680439      1.009555     -1.493007
  H       3.846541      0.541582     -0.224542
15
Coordinates from ORCA-job EMC_anion_cpcm_200_moread E -382.909287193863
  C      -2.407190      0.493257      0.602488
  C      -1.512796     -0.736010      0.662816
  O      -0.143745     -0.398767      0.893593
  C       0.671265     -0.384018     -0.308750
  O       0.218798      0.164019     -1.363659
  O       1.926676      0.098055      0.244826
  C       2.934944      0.238039     -0.745081
  H      -2.130747      1.130571     -0.242177
  H      -3.456208      0.192639      0.488129
  H      -2.320457      1.078326      1.524663
  H      -1.823924     -1.379297      1.497857
  H      -1.602301     -1.322259     -0.262418
  H       3.103576     -0.707920     -1.284646
  H       2.685733      1.013890     -1.481409
  H       3.856376      0.519477     -0.226234
15
Coordinates from ORCA-job EMC_anion_cpcm_200_moread E -382.909290258780
  C      -2.401816      0.495549      0.601478
  C      -1.514055     -0.738500      0.662701
  O      -0.143226     -0.408793      0.894650
  C       0.671464     -0.391170     -0.308156
  O       0.217452      0.155716     -1.362426
  O       1.924911      0.095405      0.246380
  C       2.931851      0.241712     -0.744349
  H      -2.121597      1.130762     -0.243531
  H      -3.452492      0.201009      0.486734
  H      -2.311871      1.080898      1.523195
  H      -1.829150     -1.380086      1.497423
  H      -1.605994     -1.323771     -0.262963
  H       3.105119     -0.703451     -1.283783
  H       2.677232      1.015838     -1.480610
  H       3.852174      0.528883     -0.226743
15
Coordinates from ORCA-job EMC_anion_cpcm_200_moread E -382.909291310732
  C      -2.400269      0.495967      0.600485
  C      -1.514165     -0.739190      0.663290
  O      -0.142908     -0.411052      0.895637
  C       0.671252     -0.393203     -0.307859
  O       0.217726      0.155595     -1.360953
  O       1.925137      0.091313      0.247628
  C       2.930647      0.242490     -0.744183
  H      -2.118995      1.129565     -0.245428
  H      -3.451424      0.203180      0.485861
  H      -2.309222      1.082643      1.521254
  H      -1.830455     -1.379809      1.498217
  H      -1.606236     -1.324603     -0.262313
  H       3.104820     -0.701240     -1.285772
  H       2.673007      1.017521     -1.478363
  H       3.851085      0.530822     -0.227503
