15
Coordinates from ORCA-job EMC_anion_cpcm_20_moread E -382.904202460485
  C          -2.39377997569708      0.49780753902793      0.59769540292597
  C          -1.51384439918306     -0.74197935899506      0.66405292364288
  O          -0.14289538278602     -0.42099447181676      0.89985319711019
  C           0.67048214271726     -0.39844875186347     -0.30581131015480
  O           0.21494850691446      0.15249847889975     -1.35593411503502
  O           1.92487065584713      0.08698531166321      0.25050731362894
  C           2.92558255391871      0.24558349452943     -0.74356559390699
  H          -2.10396684959368      1.12900763677195     -0.24704296627080
  H          -3.44627161243280      0.21108504577866      0.47848823755904
  H          -2.30279625433574      1.08407910725324      1.51878515715484
  H          -1.83622359445021     -1.38075358536125      1.49837872223901
  H          -1.60689258634367     -1.32695068434880     -0.26194247169101
  H           3.10133375071749     -0.69529437264673     -1.29006863356873
  H           2.66232642303748      1.02221662229760     -1.47428900248467
  H           3.84712660166974      0.53515796881026     -0.22910686114884
