15
Coordinates from ORCA-job EMC_anion_cpcm_1000_moread E -382.909746108558
  C          -2.40176443444047      0.49521325752442      0.60049331653901
  C          -1.51389693921180     -0.73861987070563      0.66356069062762
  O          -0.14285201643382     -0.40839507042414      0.89543951794149
  C           0.67113601771347     -0.39127478402629     -0.30814297664294
  O           0.21847903014128      0.15909564689614     -1.36084861452428
  O           1.92583834677993      0.09051203692770      0.24757614947449
  C           2.93152896933420      0.24140753855095     -0.74439735336648
  H          -2.12200913158138      1.12863501287521     -0.24607465675273
  H          -3.45257946770190      0.20098360983481      0.48669174495407
  H          -2.31088101880468      1.08275319335962      1.52072021425742
  H          -1.82892820030881     -1.37934840906077      1.49883567931921
  H          -1.60518421489115     -1.32449112130787     -0.26181653545181
  H           3.10429992100652     -0.70220287027704     -1.28656290028407
  H           2.67452786613475      1.01729503124394     -1.47783628552506
  H           3.85228525226389      0.52843677858890     -0.22763799056593
