15
Coordinates from ORCA-job EMC_anion_cpcm_40_moread E -382.845389210492
  C      -2.295011      0.527875      0.543211
  C      -1.508848     -0.770918      0.642061
  O      -0.123641     -0.527855      0.905730
  C       0.635622     -0.235481     -0.146661
  O       0.276990     -0.190628     -1.289389
  O       1.881442     -0.010724      0.278583
  C       2.828783      0.291902     -0.737117
  H      -1.953084      1.105128     -0.312311
  H      -3.350833      0.305160      0.418014
  H      -2.159851      1.117971      1.446411
  H      -1.847705     -1.374003      1.486418
  H      -1.600226     -1.342289     -0.287264
  H       2.916029     -0.540122     -1.438628
  H       2.528899      1.186371     -1.286595
  H       3.771435      0.457613     -0.222463
15
Coordinates from ORCA-job EMC_anion_cpcm_40_moread E -382.869307636193
  C      -2.236211      0.556296      0.530783
  C      -1.537511     -0.789386      0.654778
  O      -0.128370     -0.633327      0.898617
  C       0.650003     -0.422795     -0.178999
  O       0.260100     -0.247136     -1.317921
  O       1.875104     -0.085479      0.273839
  C       2.805034      0.344974     -0.725096
  H      -1.868860      1.092615     -0.345894
  H      -3.312536      0.400271      0.422314
  H      -2.054105      1.164376      1.419679
  H      -1.906898     -1.346515      1.519111
  H      -1.680094     -1.385505     -0.255340
  H       2.979636     -0.457951     -1.452547
  H       2.429870      1.227774     -1.251956
  H       3.724839      0.581788     -0.191368
15
Coordinates from ORCA-job EMC_anion_cpcm_40_moread E -382.892562247778
  C      -2.176153      0.578744      0.516829
  C      -1.550489     -0.799828      0.666299
  O      -0.131770     -0.731665      0.894155
  C       0.664359     -0.594671     -0.219380
  O       0.235078     -0.276978     -1.345118
  O       1.873236     -0.150805      0.270603
  C       2.768848      0.387797     -0.706988
  H      -1.787451      1.075669     -0.374873
  H      -3.263823      0.482626      0.419688
  H      -1.954444      1.197254      1.391077
  H      -1.946905     -1.313559      1.546945
  H      -1.739880     -1.411058     -0.227336
  H       3.021928     -0.383604     -1.450843
  H       2.326280      1.246698     -1.222087
  H       3.661186      0.693379     -0.158969
15
Coordinates from ORCA-job EMC_anion_cpcm_40_moread E -382.902144645533
  C      -2.160323      0.586559      0.515626
  C      -1.563549     -0.803482      0.676506
  O      -0.145803     -0.779097      0.903648
  C       0.674974     -0.681573     -0.250293
  O       0.218397     -0.284074     -1.379737
  O       1.895382     -0.173295      0.271163
  C       2.768662      0.406440     -0.699960
  H      -1.759214      1.069056     -0.378958
  H      -3.252004      0.516832      0.417958
  H      -1.927869      1.208236      1.386738
  H      -1.979290     -1.296014      1.562597
  H      -1.777751     -1.420984     -0.208119
  H       3.062478     -0.347733     -1.447985
  H       2.297259      1.249104     -1.218083
  H       3.648650      0.750025     -0.151102
15
Coordinates from ORCA-job EMC_anion_cpcm_40_moread E -382.904574146114
  C      -2.120055      0.599264      0.514141
  C      -1.552752     -0.804085      0.665284
  O      -0.142162     -0.811349      0.910070
  C       0.688878     -0.776565     -0.259586
  O       0.210537     -0.293416     -1.344246
  O       1.875529     -0.174017      0.282834
  C       2.727784      0.414492     -0.696251
  H      -1.693833      1.088244     -0.364801
  H      -3.209520      0.553455      0.398457
  H      -1.893085      1.203260      1.399297
  H      -1.996776     -1.294988      1.539750
  H      -1.778729     -1.408802     -0.224170
  H       3.080079     -0.335996     -1.418745
  H       2.221298      1.214829     -1.248864
  H       3.582808      0.825674     -0.153168
15
Coordinates from ORCA-job EMC_anion_cpcm_40_moread E -382.905563141389
  C      -2.188705      0.586270      0.545098
  C      -1.559810     -0.794500      0.661279
  O      -0.152073     -0.749349      0.912728
  C       0.691976     -0.709053     -0.264414
  O       0.216216     -0.245325     -1.361418
  O       1.893180     -0.102689      0.278114
  C       2.789551      0.386992     -0.713919
  H      -1.778887      1.120540     -0.315312
  H      -3.275533      0.496208      0.420219
  H      -1.996483      1.174192      1.449737
  H      -1.991247     -1.325804      1.519611
  H      -1.761117     -1.386932     -0.242606
  H       3.133181     -0.420511     -1.379466
  H       2.330453      1.169050     -1.331006
  H       3.649297      0.800911     -0.178647
15
Coordinates from ORCA-job EMC_anion_cpcm_40_moread E -382.906269500510
  C      -2.250114      0.564589      0.571406
  C      -1.555690     -0.786836      0.657279
  O      -0.154862     -0.673420      0.910765
  C       0.685732     -0.616185     -0.278376
  O       0.206505     -0.146568     -1.363372
  O       1.895755     -0.012319      0.270442
  C       2.841082      0.349626     -0.726615
  H      -1.863741      1.141336     -0.273106
  H      -3.331015      0.425815      0.439534
  H      -2.091358      1.138551      1.491324
  H      -1.967611     -1.359999      1.499224
  H      -1.728920     -1.366050     -0.260421
  H       3.160287     -0.522294     -1.321026
  H       2.443141      1.106180     -1.414753
  H       3.710808      0.757574     -0.202303
15
Coordinates from ORCA-job EMC_anion_cpcm_40_moread E -382.906767318990
  C      -2.350561      0.522030      0.617243
  C      -1.533526     -0.762477      0.643736
  O      -0.149405     -0.524402      0.887156
  C       0.674744     -0.450876     -0.322663
  O       0.189178      0.032733     -1.383623
  O       1.890529      0.152243      0.237961
  C       2.913100      0.279166     -0.734856
  H      -2.031315      1.167050     -0.205523
  H      -3.416034      0.290915      0.490341
  H      -2.234488      1.071991      1.557863
  H      -1.888704     -1.405336      1.461675
  H      -1.666378     -1.318340     -0.295044
  H       3.171868     -0.693138     -1.187753
  H       2.632692      0.967999     -1.543235
  H       3.798301      0.670441     -0.223279
15
Coordinates from ORCA-job EMC_anion_cpcm_40_moread E -382.906866991405
  C      -2.333665      0.527218      0.605605
  C      -1.535332     -0.768028      0.648860
  O      -0.147680     -0.545659      0.893587
  C       0.674488     -0.474486     -0.312001
  O       0.189513      0.016790     -1.372590
  O       1.889663      0.119993      0.247382
  C       2.900028      0.289456     -0.734128
  H      -2.003162      1.156888     -0.225079
  H      -3.401881      0.310036      0.478903
  H      -2.210185      1.087173      1.539318
  H      -1.899308     -1.397649      1.472792
  H      -1.670447     -1.330353     -0.285741
  H       3.158656     -0.665846     -1.220301
  H       2.602000      1.001330     -1.515947
  H       3.787311      0.673136     -0.220660
15
Coordinates from ORCA-job EMC_anion_cpcm_40_moread E -382.906930137020
  C      -2.335875      0.523530      0.599986
  C      -1.531202     -0.766971      0.652284
  O      -0.143688     -0.534488      0.896116
  C       0.673565     -0.468105     -0.307156
  O       0.190327      0.035629     -1.365123
  O       1.890898      0.111305      0.251505
  C       2.898018      0.286135     -0.734489
  H      -2.008737      1.147600     -0.236417
  H      -3.403082      0.300951      0.475437
  H      -2.212774      1.091877      1.528642
  H      -1.890645     -1.393965      1.479707
  H      -1.659614     -1.334057     -0.280430
  H       3.136299     -0.664987     -1.237699
  H       2.603051      1.015641     -1.501223
  H       3.793459      0.649904     -0.221139
15
Coordinates from ORCA-job EMC_anion_cpcm_40_moread E -382.906966749393
  C      -2.351745      0.514500      0.599262
  C      -1.525226     -0.761664      0.654690
  O      -0.140814     -0.503478      0.895933
  C       0.672224     -0.442529     -0.306678
  O       0.192145      0.075565     -1.361476
  O       1.895803      0.117162      0.250963
  C       2.905749      0.274134     -0.736407
  H      -2.037054      1.139860     -0.240936
  H      -3.415399      0.274041      0.478224
  H      -2.234914      1.089258      1.524754
  H      -1.872116     -1.392627      1.484255
  H      -1.642588     -1.332790     -0.276951
  H       3.115769     -0.680015     -1.245803
  H       2.627197      1.016407     -1.496929
  H       3.810969      0.612174     -0.222901
15
Coordinates from ORCA-job EMC_anion_cpcm_40_moread E -382.906986900908
  C      -2.366904      0.507620      0.600387
  C      -1.521265     -0.755908      0.656037
  O      -0.140366     -0.476225      0.895217
  C       0.671838     -0.422235     -0.306993
  O       0.195862      0.104273     -1.361301
  O       1.902055      0.121478      0.249052
  C       2.914047      0.263878     -0.738568
  H      -2.062890      1.136211     -0.241234
  H      -3.427090      0.251128      0.481618
  H      -2.257027      1.085385      1.524813
  H      -1.857510     -1.391110      1.486817
  H      -1.630260     -1.330154     -0.274652
  H       3.105887     -0.692139     -1.251566
  H       2.648424      1.014105     -1.495679
  H       3.825199      0.583692     -0.223948
15
Coordinates from ORCA-job EMC_anion_cpcm_40_moread E -382.907002656183
  C      -2.386851      0.499028      0.602039
  C      -1.516310     -0.747475      0.658060
  O      -0.140968     -0.439509      0.894184
  C       0.671253     -0.397124     -0.307854
  O       0.202445      0.139833     -1.361689
  O       1.911487      0.123156      0.246255
  C       2.924847      0.250339     -0.741537
  H      -2.096598      1.132436     -0.240826
  H      -3.441881      0.220960      0.485613
  H      -2.287425      1.079871      1.525653
  H      -1.839044     -1.388006      1.490394
  H      -1.614879     -1.326148     -0.270985
  H       3.097225     -0.706043     -1.260826
  H       2.674265      1.010691     -1.493512
  H       3.842434      0.547989     -0.224969
15
Coordinates from ORCA-job EMC_anion_cpcm_40_moread E -382.907009834201
  C      -2.390036      0.498600      0.602171
  C      -1.516010     -0.745511      0.658820
  O      -0.141798     -0.433408      0.894489
  C       0.671444     -0.396359     -0.307746
  O       0.205552      0.141674     -1.362135
  O       1.914653      0.117699      0.246095
  C       2.926451      0.248704     -0.742247
  H      -2.101207      1.132989     -0.240414
  H      -3.444156      0.217174      0.485373
  H      -2.293146      1.079553      1.525976
  H      -1.837517     -1.386539      1.491391
  H      -1.613368     -1.325420     -0.269614
  H       3.099999     -0.705410     -1.265487
  H       2.674768      1.011485     -1.491382
  H       3.844371      0.544768     -0.225289
15
Coordinates from ORCA-job EMC_anion_cpcm_40_moread E -382.907019331263
  C      -2.405036      0.493832      0.600898
  C      -1.512385     -0.736781      0.663621
  O      -0.143783     -0.401471      0.895779
  C       0.670857     -0.386046     -0.307705
  O       0.218435      0.164063     -1.361035
  O       1.927448      0.093793      0.246347
  C       2.932867      0.238930     -0.744970
  H      -2.125103      1.129835     -0.243568
  H      -3.454439      0.195039      0.484555
  H      -2.318949      1.079309      1.522901
  H      -1.825920     -1.379099      1.498666
  H      -1.601862     -1.323450     -0.261444
  H       3.101879     -0.704606     -1.288875
  H       2.680778      1.017032     -1.478023
  H       3.855214      0.519618     -0.227148
15
Coordinates from ORCA-job EMC_anion_cpcm_40_moread E -382.907022700347
  C      -2.396607      0.497321      0.600288
  C      -1.514502     -0.740910      0.662514
  O      -0.143077     -0.417855      0.896640
  C       0.671228     -0.395948     -0.307109
  O       0.214788      0.150138     -1.360228
  O       1.923373      0.095241      0.247845
  C       2.928483      0.244680     -0.743732
  H      -2.110876      1.131245     -0.243803
  H      -3.448579      0.208150      0.483102
  H      -2.305398      1.081778      1.522475
  H      -1.833865     -1.381416      1.496548
  H      -1.608073     -1.325097     -0.263760
  H       3.104249     -0.700062     -1.283290
  H       2.670301      1.017577     -1.480149
  H       3.848555      0.535158     -0.227341
15
Coordinates from ORCA-job EMC_anion_cpcm_40_moread E -382.907023591543
  C      -2.395959      0.497478      0.599550
  C      -1.514476     -0.741128      0.663073
  O      -0.142901     -0.418460      0.897353
  C       0.671078     -0.397111     -0.306875
  O       0.215415      0.150662     -1.359190
  O       1.923908      0.091570      0.248737
  C       2.927809      0.244943     -0.743691
  H      -2.109747      1.130316     -0.245221
  H      -3.448121      0.209028      0.482434
  H      -2.304292      1.082998      1.521020
  H      -1.834419     -1.380982      1.497330
  H      -1.607877     -1.325608     -0.263066
  H       3.104044     -0.698458     -1.285409
  H       2.667452      1.018954     -1.478115
  H       3.848088      0.535796     -0.227929
