15
Coordinates from ORCA-job EMC_anion_cpcm_5_moread E -382.821336208229
  C      -2.295011      0.527875      0.543211
  C      -1.508848     -0.770918      0.642061
  O      -0.123641     -0.527855      0.905730
  C       0.635622     -0.235481     -0.146661
  O       0.276990     -0.190628     -1.289389
  O       1.881442     -0.010724      0.278583
  C       2.828783      0.291902     -0.737117
  H      -1.953084      1.105128     -0.312311
  H      -3.350833      0.305160      0.418014
  H      -2.159851      1.117971      1.446411
  H      -1.847705     -1.374003      1.486418
  H      -1.600226     -1.342289     -0.287264
  H       2.916029     -0.540122     -1.438628
  H       2.528899      1.186371     -1.286595
  H       3.771435      0.457613     -0.222463
15
Coordinates from ORCA-job EMC_anion_cpcm_5_moread E -382.850163134037
  C      -2.242596      0.553775      0.531746
  C      -1.535361     -0.788136      0.656251
  O      -0.129686     -0.629803      0.903561
  C       0.649989     -0.411566     -0.177786
  O       0.255911     -0.227137     -1.318322
  O       1.881568     -0.080547      0.275591
  C       2.809619      0.341157     -0.726379
  H      -1.874303      1.092037     -0.342759
  H      -3.318384      0.392431      0.418885
  H      -2.066858      1.161830      1.421358
  H      -1.904771     -1.349242      1.518272
  H      -1.670259     -1.382843     -0.256974
  H       2.974413     -0.469898     -1.449151
  H       2.438052      1.222917     -1.257755
  H       3.732666      0.575025     -0.196536
15
Coordinates from ORCA-job EMC_anion_cpcm_5_moread E -382.873415524534
  C      -2.178923      0.576554      0.516467
  C      -1.546585     -0.799494      0.667773
  O      -0.132694     -0.729602      0.901117
  C       0.662940     -0.584399     -0.217049
  O       0.228796     -0.256933     -1.341595
  O       1.877943     -0.146704      0.273945
  C       2.769632      0.384346     -0.707826
  H      -1.785761      1.073809     -0.372906
  H      -3.266680      0.476909      0.412798
  H      -1.963869      1.195492      1.391927
  H      -1.945760     -1.316929      1.545646
  H      -1.727777     -1.408900     -0.229935
  H       3.013072     -0.394709     -1.448783
  H       2.329206      1.242606     -1.226508
  H       3.666459      0.687956     -0.165072
15
Coordinates from ORCA-job EMC_anion_cpcm_5_moread E -382.884749158911
  C      -2.135303      0.590796      0.509111
  C      -1.556183     -0.806462      0.677632
  O      -0.145581     -0.805384      0.912722
  C       0.677825     -0.727907     -0.260259
  O       0.203011     -0.267554     -1.366358
  O       1.892430     -0.183358      0.278613
  C       2.745382      0.412392     -0.694299
  H      -1.715967      1.063039     -0.382780
  H      -3.228364      0.538301      0.401377
  H      -1.901892      1.211875      1.381561
  H      -1.990076     -1.290706      1.561691
  H      -1.777153     -1.421854     -0.207746
  H       3.059497     -0.336339     -1.440415
  H       2.253208      1.239375     -1.220186
  H       3.619165      0.783785     -0.150662
15
Coordinates from ORCA-job EMC_anion_cpcm_5_moread E -382.885893267686
  C      -2.150835      0.591984      0.526356
  C      -1.552282     -0.800883      0.665030
  O      -0.147536     -0.782765      0.918467
  C       0.688031     -0.735729     -0.258147
  O       0.209335     -0.257574     -1.346366
  O       1.887269     -0.141213      0.285221
  C       2.753398      0.399816     -0.704153
  H      -1.724198      1.097756     -0.342769
  H      -3.239491      0.525942      0.400258
  H      -1.943285      1.190179      1.420682
  H      -1.995296     -1.312128      1.529843
  H      -1.760844     -1.397933     -0.234959
  H       3.093563     -0.380176     -1.403605
  H       2.266477      1.192357     -1.285877
  H       3.615695      0.810368     -0.169981
15
Coordinates from ORCA-job EMC_anion_cpcm_5_moread E -382.886752344734
  C      -2.218147      0.575022      0.560555
  C      -1.551807     -0.791141      0.656315
  O      -0.155339     -0.707801      0.922082
  C       0.689269     -0.661192     -0.267490
  O       0.206412     -0.179790     -1.344724
  O       1.893777     -0.043249      0.280377
  C       2.810584      0.363174     -0.722271
  H      -1.806002      1.136516     -0.281349
  H      -3.300529      0.460683      0.417625
  H      -2.053831      1.147733      1.480349
  H      -1.984378     -1.353060      1.496421
  H      -1.731211     -1.366853     -0.263017
  H       3.147142     -0.486445     -1.338777
  H       2.378277      1.117325     -1.392783
  H       3.675784      0.789077     -0.203313
15
Coordinates from ORCA-job EMC_anion_cpcm_5_moread E -382.887252393773
  C      -2.271219      0.551717      0.583029
  C      -1.542373     -0.784319      0.652936
  O      -0.153849     -0.632464      0.916088
  C       0.679436     -0.566463     -0.288187
  O       0.191625     -0.073404     -1.345836
  O       1.889823      0.046791      0.269462
  C       2.852099      0.325796     -0.729640
  H      -1.885518      1.149301     -0.247010
  H      -3.347297      0.391630      0.437372
  H      -2.133341      1.113451      1.513703
  H      -1.951993     -1.384368      1.478900
  H      -1.697444     -1.347565     -0.278133
  H       3.157054     -0.582597     -1.276318
  H       2.482844      1.053842     -1.464883
  H       3.730153      0.738650     -0.221483
15
Coordinates from ORCA-job EMC_anion_cpcm_5_moread E -382.887395193799
  C      -2.327090      0.527183      0.606516
  C      -1.529974     -0.770986      0.648079
  O      -0.148844     -0.550692      0.901299
  C       0.671713     -0.470992     -0.314180
  O       0.182581      0.025719     -1.364386
  O       1.888007      0.130243      0.251646
  C       2.891549      0.288325     -0.732399
  H      -1.980550      1.157292     -0.216630
  H      -3.395773      0.316687      0.467511
  H      -2.207823      1.080696      1.544801
  H      -1.904025     -1.406333      1.464418
  H      -1.663512     -1.324261     -0.292964
  H       3.152176     -0.671419     -1.211114
  H       2.589326      0.989008     -1.523858
  H       3.782239      0.679531     -0.228738
15
Coordinates from ORCA-job EMC_anion_cpcm_5_moread E -382.887458890720
  C      -2.319651      0.529136      0.599419
  C      -1.530772     -0.773281      0.651545
  O      -0.147260     -0.560226      0.903967
  C       0.671684     -0.480962     -0.308053
  O       0.184013      0.020903     -1.359627
  O       1.889136      0.109872      0.256792
  C       2.885451      0.293228     -0.732041
  H      -1.970159      1.149472     -0.230157
  H      -3.389667      0.324136      0.462800
  H      -2.195452      1.090531      1.532340
  H      -1.907064     -1.400323      1.472914
  H      -1.664599     -1.332062     -0.286207
  H       3.140782     -0.656404     -1.232538
  H       2.574889      1.010584     -1.504937
  H       3.778668      0.675395     -0.226218
15
Coordinates from ORCA-job EMC_anion_cpcm_5_moread E -382.887506371900
  C      -2.325536      0.524225      0.594558
  C      -1.527087     -0.771375      0.654945
  O      -0.143590     -0.546488      0.904839
  C       0.670699     -0.469091     -0.304397
  O       0.185262      0.046084     -1.354163
  O       1.892328      0.102440      0.259175
  C       2.886940      0.288267     -0.732919
  H      -1.983705      1.139656     -0.241979
  H      -3.394372      0.310532      0.462688
  H      -2.201578      1.095038      1.521747
  H      -1.895778     -1.395988      1.481153
  H      -1.653838     -1.336491     -0.279981
  H       3.118850     -0.658408     -1.249384
  H       2.582918      1.024075     -1.490683
  H       3.788486      0.647523     -0.225600
15
Coordinates from ORCA-job EMC_anion_cpcm_5_moread E -382.887524499693
  C      -2.337044      0.518091      0.593895
  C      -1.523287     -0.767506      0.656581
  O      -0.142054     -0.525253      0.905411
  C       0.670075     -0.451429     -0.303186
  O       0.186667      0.074105     -1.350775
  O       1.897029      0.105849      0.258573
  C       2.893052      0.279850     -0.734873
  H      -2.003702      1.135231     -0.244822
  H      -3.403425      0.291395      0.463950
  H      -2.218492      1.092963      1.519261
  H      -1.883650     -1.394798      1.484404
  H      -1.642311     -1.336104     -0.277204
  H       3.105816     -0.668459     -1.256235
  H       2.599970      1.024994     -1.487699
  H       3.801355      0.621071     -0.227280
15
Coordinates from ORCA-job EMC_anion_cpcm_5_moread E -382.887536573053
  C      -2.350052      0.512089      0.594209
  C      -1.519417     -0.762468      0.657921
  O      -0.141638     -0.500937      0.906388
  C       0.669770     -0.434023     -0.302129
  O       0.189500      0.100352     -1.347914
  O       1.903111      0.109249      0.257299
  C       2.899975      0.270579     -0.737328
  H      -2.024587      1.133116     -0.244717
  H      -3.413274      0.270911      0.464435
  H      -2.239561      1.088945      1.519305
  H      -1.871730     -1.393704      1.486382
  H      -1.630559     -1.334086     -0.274922
  H       3.096915     -0.678794     -1.262744
  H       2.617389      1.023251     -1.486610
  H       3.814158      0.595519     -0.229574
15
Coordinates from ORCA-job EMC_anion_cpcm_5_moread E -382.887544146163
  C      -2.359226      0.508445      0.594381
  C      -1.516836     -0.758348      0.659259
  O      -0.141971     -0.482966      0.907477
  C       0.669609     -0.423839     -0.301376
  O       0.193030      0.115896     -1.346358
  O       1.908495      0.107774      0.256537
  C       2.904558      0.264284     -0.739156
  H      -2.038384      1.132490     -0.244081
  H      -3.419970      0.256992      0.463790
  H      -2.255497      1.086152      1.519710
  H      -1.864167     -1.392234      1.488013
  H      -1.622696     -1.332345     -0.272688
  H       3.093462     -0.683874     -1.269650
  H       2.627246      1.022718     -1.484593
  H       3.822345      0.578857     -0.231266
15
Coordinates from ORCA-job EMC_anion_cpcm_5_moread E -382.887551789798
  C      -2.367953      0.505388      0.593855
  C      -1.514414     -0.753903      0.661536
  O      -0.142589     -0.464802      0.908994
  C       0.669311     -0.416223     -0.300683
  O       0.198376      0.129332     -1.344936
  O       1.915051      0.099828      0.256421
  C       2.908424      0.258532     -0.740888
  H      -2.050998      1.131476     -0.244568
  H      -3.426172      0.244045      0.462201
  H      -2.271198      1.084668      1.518938
  H      -1.857429     -1.389517      1.491003
  H      -1.615254     -1.331080     -0.269005
  H       3.091743     -0.685515     -1.280681
  H       2.633456      1.024735     -1.479222
  H       3.829647      0.563035     -0.232963
15
Coordinates from ORCA-job EMC_anion_cpcm_5_moread E -382.887556727661
  C      -2.372249      0.504147      0.592593
  C      -1.513271     -0.751364      0.663927
  O      -0.142983     -0.455040      0.910344
  C       0.668907     -0.414337     -0.300427
  O       0.203005      0.136022     -1.343862
  O       1.919916      0.088296      0.257141
  C       2.909858      0.255902     -0.741716
  H      -2.056968      1.129754     -0.246856
  H      -3.429204      0.237941      0.460590
  H      -2.278962      1.085814      1.516539
  H      -1.854440     -1.386683      1.494476
  H      -1.611485     -1.331300     -0.265250
  H       3.091771     -0.682866     -1.291269
  H       2.633070      1.028882     -1.472232
  H       3.833036      0.554830     -0.233999
15
Coordinates from ORCA-job EMC_anion_cpcm_5_moread E -382.887558768700
  C      -2.372008      0.504424      0.591457
  C      -1.513436     -0.751252      0.665253
  O      -0.142986     -0.454944      0.911093
  C       0.668575     -0.416282     -0.300589
  O       0.204831      0.136768     -1.343115
  O       1.921633      0.080174      0.258038
  C       2.909341      0.256190     -0.741684
  H      -2.056489      1.128168     -0.249331
  H      -3.429102      0.238632      0.459820
  H      -2.278285      1.088083      1.514112
  H      -1.854972     -1.385231      1.496619
  H      -1.611512     -1.332389     -0.263278
  H       3.092664     -0.679358     -1.296345
  H       2.629050      1.032014     -1.467768
  H       3.832697      0.555002     -0.234283
15
Coordinates from ORCA-job EMC_anion_cpcm_5_moread E -382.887559222618
  C      -2.371333      0.504550      0.590947
  C      -1.513665     -0.751649      0.665625
  O      -0.142845     -0.456390      0.911337
  C       0.668343     -0.416978     -0.300808
  O       0.204961      0.137757     -1.342484
  O       1.921888      0.077493      0.258470
  C       2.908980      0.256497     -0.741588
  H      -2.055734      1.127152     -0.250682
  H      -3.428708      0.239661      0.459808
  H      -2.276602      1.089258      1.512835
  H      -1.855447     -1.384874      1.497397
  H      -1.611889     -1.333097     -0.262742
  H       3.092845     -0.678310     -1.297318
  H       2.627075      1.032829     -1.466450
  H       3.832131      0.556101     -0.234349
