15
Coordinates from ORCA-job EMC_anion_cpcm_20_moread E -382.841753241903
  C      -2.295011      0.527875      0.543211
  C      -1.508848     -0.770918      0.642061
  O      -0.123641     -0.527855      0.905730
  C       0.635622     -0.235481     -0.146661
  O       0.276990     -0.190628     -1.289389
  O       1.881442     -0.010724      0.278583
  C       2.828783      0.291902     -0.737117
  H      -1.953084      1.105128     -0.312311
  H      -3.350833      0.305160      0.418014
  H      -2.159851      1.117971      1.446411
  H      -1.847705     -1.374003      1.486418
  H      -1.600226     -1.342289     -0.287264
  H       2.916029     -0.540122     -1.438628
  H       2.528899      1.186371     -1.286595
  H       3.771435      0.457613     -0.222463
15
Coordinates from ORCA-job EMC_anion_cpcm_20_moread E -382.866491400159
  C      -2.237159      0.555840      0.530857
  C      -1.537033     -0.789226      0.654964
  O      -0.128491     -0.632569      0.899411
  C       0.649956     -0.420769     -0.178708
  O       0.259417     -0.243301     -1.317644
  O       1.876006     -0.084626      0.274186
  C       2.805600      0.344210     -0.725303
  H      -1.869682      1.092500     -0.345473
  H      -3.313355      0.398883      0.421658
  H      -2.056151      1.163971      1.419872
  H      -1.906384     -1.347031      1.518903
  H      -1.678268     -1.385198     -0.255589
  H       2.978522     -0.460020     -1.451971
  H       2.431040      1.226867     -1.252894
  H       3.725984      0.580468     -0.192268
15
Coordinates from ORCA-job EMC_anion_cpcm_20_moread E -382.889804746655
  C      -2.176873      0.578299      0.516829
  C      -1.549862     -0.799764      0.666543
  O      -0.131902     -0.731019      0.895156
  C       0.664092     -0.592662     -0.219131
  O       0.234073     -0.273082     -1.344607
  O       1.873997     -0.149991      0.271072
  C       2.769205      0.387066     -0.707145
  H      -1.787664      1.075360     -0.374541
  H      -3.264528      0.481392      0.418755
  H      -1.956276      1.196949      1.391242
  H      -1.946533     -1.314148      1.546784
  H      -1.737897     -1.410823     -0.227659
  H       3.020663     -0.385670     -1.450431
  H       2.327226      1.245914     -1.222950
  H       3.662278      0.692178     -0.159917
15
Coordinates from ORCA-job EMC_anion_cpcm_20_moread E -382.899364143557
  C      -2.159680      0.586251      0.515170
  C      -1.562477     -0.803651      0.676578
  O      -0.145666     -0.779008      0.904895
  C       0.674536     -0.680378     -0.249753
  O       0.217165     -0.280227     -1.377694
  O       1.895400     -0.172888      0.271993
  C       2.767603      0.405825     -0.699943
  H      -1.757258      1.068425     -0.378991
  H      -3.251340      0.516439      0.416170
  H      -1.928192      1.207990      1.386531
  H      -1.979151     -1.296585      1.562158
  H      -1.775540     -1.420815     -0.208680
  H       3.060255     -0.349110     -1.447790
  H       2.296001      1.248210     -1.218496
  H       3.648342      0.749521     -0.152149
15
Coordinates from ORCA-job EMC_anion_cpcm_20_moread E -382.901806989481
  C      -2.120328      0.598799      0.513942
  C      -1.551974     -0.804244      0.665463
  O      -0.142195     -0.810501      0.911210
  C       0.688418     -0.774468     -0.259374
  O       0.209678     -0.289307     -1.342552
  O       1.875921     -0.173111      0.283520
  C       2.727639      0.413623     -0.696349
  H      -1.693076      1.087590     -0.364561
  H      -3.209737      0.552500      0.397112
  H      -1.894360      1.202895      1.399309
  H      -1.996691     -1.295687      1.539432
  H      -1.776903     -1.408661     -0.224558
  H       3.078679     -0.337824     -1.418635
  H       2.221372      1.213741     -1.249612
  H       3.583557      0.824656     -0.154345
15
Coordinates from ORCA-job EMC_anion_cpcm_20_moread E -382.902785223955
  C      -2.188914      0.585898      0.545035
  C      -1.558991     -0.794580      0.661428
  O      -0.152184     -0.748613      0.913909
  C       0.691636     -0.707606     -0.264462
  O       0.215352     -0.241786     -1.360157
  O       1.893599     -0.101697      0.278811
  C       2.789293      0.386215     -0.713903
  H      -1.777929      1.120083     -0.314845
  H      -3.275694      0.495498      0.418958
  H      -1.997629      1.173719      1.449979
  H      -1.991270     -1.326530      1.519134
  H      -1.759373     -1.386462     -0.243139
  H       3.132069     -0.422163     -1.379054
  H       2.330240      1.167668     -1.331946
  H       3.649794      0.800355     -0.179747
15
Coordinates from ORCA-job EMC_anion_cpcm_20_moread E -382.903468687606
  C      -2.247868      0.564645      0.570036
  C      -1.554926     -0.787616      0.657900
  O      -0.154904     -0.675393      0.912385
  C       0.685062     -0.616904     -0.277908
  O       0.205095     -0.144442     -1.361091
  O       1.895935     -0.014220      0.271561
  C       2.838919      0.350022     -0.726167
  H      -1.859068      1.139416     -0.274697
  H      -3.328917      0.427420      0.437008
  H      -2.088908      1.139354      1.489479
  H      -1.968607     -1.359840      1.499798
  H      -1.728009     -1.366797     -0.259967
  H       3.157371     -0.520580     -1.323121
  H       2.439253      1.107484     -1.412452
  H       3.709572      0.757453     -0.202763
15
Coordinates from ORCA-job EMC_anion_cpcm_20_moread E -382.903967125771
  C      -2.344789      0.523363      0.613723
  C      -1.533438     -0.764859      0.645288
  O      -0.149404     -0.531983      0.890442
  C       0.673948     -0.456093     -0.320161
  O       0.187662      0.031394     -1.378734
  O       1.890656      0.144661      0.241335
  C       2.908474      0.281867     -0.734421
  H      -2.019596      1.163744     -0.210288
  H      -3.411198      0.297281      0.484981
  H      -2.227495      1.075469      1.552953
  H      -1.892971     -1.404420      1.464019
  H      -1.667019     -1.321731     -0.292931
  H       3.167855     -0.686240     -1.196085
  H       2.622499      0.975813     -1.536564
  H       3.794816      0.671734     -0.223557
15
Coordinates from ORCA-job EMC_anion_cpcm_20_moread E -382.904054683822
  C      -2.330403      0.527897      0.603672
  C      -1.534838     -0.769229      0.649577
  O      -0.147647     -0.549743      0.895758
  C       0.674072     -0.477057     -0.310707
  O       0.188761      0.016585     -1.369646
  O       1.889929      0.116036      0.249539
  C       2.897005      0.290782     -0.733698
  H      -1.996063      1.155087     -0.227273
  H      -3.399071      0.313505      0.475333
  H      -2.206556      1.088696      1.536850
  H      -1.901500     -1.397358      1.473586
  H      -1.670145     -1.331734     -0.285025
  H       3.155512     -0.662249     -1.224640
  H       2.595628      1.005105     -1.512110
  H       3.785317      0.673678     -0.221215
15
Coordinates from ORCA-job EMC_anion_cpcm_20_moread E -382.904116727824
  C      -2.334401      0.523742      0.599014
  C      -1.530493     -0.767425      0.652502
  O      -0.143606     -0.536064      0.897542
  C       0.673404     -0.468958     -0.306435
  O       0.190217      0.036390     -1.363339
  O       1.891194      0.109376      0.253030
  C       2.896181      0.286539     -0.734116
  H      -2.005082      1.146702     -0.237321
  H      -3.401781      0.302338      0.473273
  H      -2.211306      1.092357      1.527530
  H      -1.891407     -1.394134      1.479644
  H      -1.658485     -1.334171     -0.280580
  H       3.133442     -0.663548     -1.239931
  H       2.599456      1.017385     -1.499022
  H       3.792667      0.649471     -0.221790
15
Coordinates from ORCA-job EMC_anion_cpcm_20_moread E -382.904150261237
  C      -2.350242      0.514909      0.598683
  C      -1.524769     -0.762124      0.654646
  O      -0.140982     -0.505445      0.897247
  C       0.672176     -0.443717     -0.306048
  O       0.192037      0.075059     -1.360165
  O       1.896045      0.115845      0.252232
  C       2.904127      0.274694     -0.736076
  H      -2.033311      1.139762     -0.241021
  H      -3.414125      0.275802      0.476260
  H      -2.233485      1.089340      1.524408
  H      -1.873361     -1.393147      1.483640
  H      -1.641882     -1.332507     -0.277577
  H       3.114132     -0.678807     -1.246933
  H       2.623698      1.017287     -1.495708
  H       3.809943      0.613048     -0.223589
15
Coordinates from ORCA-job EMC_anion_cpcm_20_moread E -382.904169187324
  C      -2.366712      0.507032      0.599511
  C      -1.520233     -0.756042      0.656431
  O      -0.140389     -0.475453      0.896786
  C       0.671441     -0.420479     -0.306264
  O       0.195514      0.108686     -1.359065
  O       1.902945      0.120677      0.250253
  C       2.913142      0.263202     -0.738518
  H      -2.061391      1.135115     -0.241995
  H      -3.426776      0.250227      0.479489
  H      -2.257778      1.085216      1.523808
  H      -1.857253     -1.391493      1.486901
  H      -1.627957     -1.330113     -0.274600
  H       3.102269     -0.692259     -1.253792
  H       2.647320      1.015098     -1.494011
  H       3.825858      0.580587     -0.224933
15
Coordinates from ORCA-job EMC_anion_cpcm_20_moread E -382.904181562408
  C      -2.379868      0.501774      0.600587
  C      -1.517223     -0.750373      0.657864
  O      -0.141076     -0.451560      0.896445
  C       0.671178     -0.405039     -0.306629
  O       0.200203      0.130565     -1.359377
  O       1.909829      0.120365      0.248351
  C       2.920354      0.254541     -0.740666
  H      -2.082999      1.133249     -0.241356
  H      -3.436593      0.230901      0.481592
  H      -2.278307      1.081656      1.524616
  H      -1.845796     -1.389242      1.489320
  H      -1.618338     -1.327614     -0.271933
  H       3.098192     -0.700502     -1.260884
  H       2.663398      1.013267     -1.492265
  H       3.837045      0.558013     -0.225665
15
Coordinates from ORCA-job EMC_anion_cpcm_20_moread E -382.904190951851
  C      -2.389837      0.498301      0.600831
  C      -1.515001     -0.745370      0.659739
  O      -0.142124     -0.432276      0.896705
  C       0.670962     -0.395689     -0.306727
  O       0.205874      0.145538     -1.359365
  O       1.916572      0.113686      0.247462
  C       2.925371      0.248100     -0.742442
  H      -2.098859      1.132060     -0.241457
  H      -3.443730      0.216415      0.482067
  H      -2.294854      1.079722      1.524564
  H      -1.837796     -1.386192      1.492217
  H      -1.611178     -1.325867     -0.268567
  H       3.097726     -0.703810     -1.270411
  H       2.672062      1.013784     -1.488173
  H       3.844812      0.541599     -0.226443
15
Coordinates from ORCA-job EMC_anion_cpcm_20_moread E -382.904198006229
  C      -2.394889      0.496989      0.599843
  C      -1.513822     -0.742193      0.661969
  O      -0.142934     -0.421057      0.897792
  C       0.670766     -0.393603     -0.306384
  O       0.211342      0.152608     -1.358420
  O       1.922012      0.101551      0.248080
  C       2.927261      0.244940     -0.743511
  H      -2.106374      1.130849     -0.243253
  H      -3.447159      0.209206      0.480866
  H      -2.304039      1.080423      1.522720
  H      -1.834422     -1.382954      1.495516
  H      -1.607258     -1.325625     -0.264840
  H       3.099337     -0.701637     -1.281264
  H       2.671814      1.017246     -1.481635
  H       3.848365      0.533257     -0.227478
15
Coordinates from ORCA-job EMC_anion_cpcm_20_moread E -382.904201641822
  C      -2.394995      0.497379      0.598348
  C      -1.513669     -0.741489      0.663653
  O      -0.143098     -0.419172      0.899186
  C       0.670590     -0.396535     -0.305947
  O       0.214543      0.153134     -1.356874
  O       1.924686      0.090395      0.249590
  C       2.926496      0.244912     -0.743717
  H      -2.106002      1.129666     -0.245822
  H      -3.447118      0.209231      0.479139
  H      -2.304886      1.082791      1.520061
  H      -1.835092     -1.380955      1.497889
  H      -1.606551     -1.326464     -0.262319
  H       3.101074     -0.697055     -1.288769
  H       2.665896      1.021127     -1.475878
  H       3.848128      0.533033     -0.228540
15
Coordinates from ORCA-job EMC_anion_cpcm_20_moread E -382.904202460485
  C      -2.393780      0.497808      0.597695
  C      -1.513844     -0.741979      0.664053
  O      -0.142895     -0.420994      0.899853
  C       0.670482     -0.398449     -0.305811
  O       0.214949      0.152498     -1.355934
  O       1.924871      0.086985      0.250507
  C       2.925583      0.245583     -0.743566
  H      -2.103967      1.129008     -0.247043
  H      -3.446272      0.211085      0.478488
  H      -2.302796      1.084079      1.518785
  H      -1.836224     -1.380754      1.498379
  H      -1.606893     -1.326951     -0.261942
  H       3.101334     -0.695294     -1.290069
  H       2.662326      1.022217     -1.474289
  H       3.847127      0.535158     -0.229107
