15
Coordinates from ORCA-job EMC_anion_cpcm_1000_moread E -382.848943145152
  C      -2.295011      0.527875      0.543211
  C      -1.508848     -0.770918      0.642061
  O      -0.123641     -0.527855      0.905730
  C       0.635622     -0.235481     -0.146661
  O       0.276990     -0.190628     -1.289389
  O       1.881442     -0.010724      0.278583
  C       2.828783      0.291902     -0.737117
  H      -1.953084      1.105128     -0.312311
  H      -3.350833      0.305160      0.418014
  H      -2.159851      1.117971      1.446411
  H      -1.847705     -1.374003      1.486418
  H      -1.600226     -1.342289     -0.287264
  H       2.916029     -0.540122     -1.438628
  H       2.528899      1.186371     -1.286595
  H       3.771435      0.457613     -0.222463
15
Coordinates from ORCA-job EMC_anion_cpcm_1000_moread E -382.872041072366
  C      -2.235295      0.556767      0.530734
  C      -1.538029     -0.789535      0.654606
  O      -0.128277     -0.634139      0.897831
  C       0.650066     -0.424870     -0.179310
  O       0.260796     -0.251139     -1.318287
  O       1.874254     -0.086340      0.273479
  C       2.804521      0.345779     -0.724892
  H      -1.868060      1.092741     -0.346282
  H      -3.311758      0.401692      0.422994
  H      -2.052080      1.164777      1.419513
  H      -1.907464     -1.345986      1.519333
  H      -1.681974     -1.385777     -0.255102
  H       2.980817     -0.455855     -1.453128
  H       2.428743      1.228712     -1.251027
  H       3.723740      0.583171     -0.190464
15
Coordinates from ORCA-job EMC_anion_cpcm_1000_moread E -382.895213817340
  C      -2.175337      0.579218      0.516806
  C      -1.551110     -0.799898      0.666048
  O      -0.131638     -0.732405      0.893196
  C       0.664636     -0.596775     -0.219576
  O       0.236084     -0.281060     -1.345581
  O       1.872467     -0.151662      0.270165
  C       2.768405      0.388578     -0.706826
  H      -1.787071      1.075982     -0.375210
  H      -3.263029      0.483957      0.420552
  H      -1.952510      1.197565      1.390900
  H      -1.947335     -1.312965      1.547082
  H      -1.741855     -1.411262     -0.227052
  H       3.023119     -0.381462     -1.451279
  H       2.325164      1.247512     -1.221181
  H       3.660009      0.694678     -0.158043
15
Coordinates from ORCA-job EMC_anion_cpcm_1000_moread E -382.904822540009
  C      -2.160822      0.586905      0.516040
  C      -1.564599     -0.803329      0.676425
  O      -0.145925     -0.779296      0.902434
  C       0.675419     -0.682884     -0.250771
  O       0.219638     -0.288128     -1.381711
  O       1.895323     -0.173768      0.270368
  C       2.769579      0.407113     -0.699959
  H      -1.760944      1.069677     -0.378959
  H      -3.252533      0.517354      0.419662
  H      -1.927375      1.208509      1.386908
  H      -1.979470     -1.295435      1.563015
  H      -1.779936     -1.421137     -0.207596
  H       3.064575     -0.346257     -1.448206
  H       2.298257      1.250033     -1.217593
  H       3.648812      0.750643     -0.150056
15
Coordinates from ORCA-job EMC_anion_cpcm_1000_moread E -382.907246229460
  C      -2.119919      0.599758      0.514449
  C      -1.553561     -0.803879      0.665071
  O      -0.142176     -0.812121      0.908965
  C       0.689403     -0.778614     -0.259737
  O       0.211517     -0.297852     -1.346102
  O       1.875212     -0.174778      0.282165
  C       2.728032      0.415360     -0.696195
  H      -1.694707      1.089056     -0.364848
  H      -3.209441      0.554383      0.399846
  H      -1.892032      1.203561      1.399478
  H      -1.996914     -1.294370      1.539958
  H      -1.780506     -1.408803     -0.223907
  H       3.081613     -0.334303     -1.418752
  H       2.221340      1.215809     -1.248324
  H       3.582138      0.826794     -0.152065
15
Coordinates from ORCA-job EMC_anion_cpcm_1000_moread E -382.908241520784
  C      -2.188398      0.586673      0.545170
  C      -1.560627     -0.794438      0.661118
  O      -0.151989     -0.750177      0.911603
  C       0.692330     -0.710597     -0.264322
  O       0.217071     -0.249076     -1.362665
  O       1.892736     -0.103630      0.277452
  C       2.789725      0.387814     -0.713933
  H      -1.779635      1.121029     -0.315721
  H      -3.275275      0.497037      0.421409
  H      -1.995254      1.174641      1.449543
  H      -1.991316     -1.325114      1.520023
  H      -1.762842     -1.387342     -0.242137
  H       3.134285     -0.418835     -1.379817
  H       2.330503      1.170376     -1.330135
  H       3.648685      0.801640     -0.177587
15
Coordinates from ORCA-job EMC_anion_cpcm_1000_moread E -382.908973595552
  C      -2.252502      0.564512      0.572944
  C      -1.556433     -0.786012      0.656581
  O      -0.154857     -0.671241      0.909150
  C       0.686434     -0.615298     -0.278876
  O       0.207924     -0.148743     -1.365710
  O       1.895524     -0.009938      0.269290
  C       2.843347      0.349143     -0.727107
  H      -1.868549      1.143468     -0.271176
  H      -3.333230      0.424095      0.442107
  H      -2.094096      1.137537      1.493483
  H      -1.966604     -1.360341      1.498422
  H      -1.729713     -1.365080     -0.261083
  H       3.163395     -0.524400     -1.318477
  H       2.447269      1.104433     -1.417564
  H       3.712090      0.757866     -0.201984
15
Coordinates from ORCA-job EMC_anion_cpcm_1000_moread E -382.909464397105
  C      -2.356441      0.520696      0.621051
  C      -1.533597     -0.759970      0.642023
  O      -0.149448     -0.516567      0.883706
  C       0.675600     -0.445589     -0.325341
  O       0.190714      0.033605     -1.388840
  O       1.890271      0.160490      0.234314
  C       2.917794      0.276404     -0.735271
  H      -2.043250      1.170656     -0.200201
  H      -3.420918      0.284476      0.495898
  H      -2.241642      1.068171      1.563248
  H      -1.884325     -1.406398      1.458977
  H      -1.665733     -1.314555     -0.297473
  H       3.176133     -0.700373     -1.178493
  H       2.643134      0.959349     -1.550491
  H       3.801706      0.669606     -0.223108
15
Coordinates from ORCA-job EMC_anion_cpcm_1000_moread E -382.909578801233
  C      -2.337034      0.526526      0.607767
  C      -1.535820     -0.766771      0.648035
  O      -0.147753     -0.541396      0.891309
  C       0.674931     -0.471773     -0.313430
  O       0.190233      0.016774     -1.375756
  O       1.889274      0.124557      0.245047
  C       2.903142      0.288066     -0.734558
  H      -2.010439      1.158892     -0.222501
  H      -3.404777      0.306503      0.482671
  H      -2.213942      1.085414      1.542150
  H      -1.897048     -1.398120      1.471739
  H      -1.670732     -1.328693     -0.286702
  H       3.162030     -0.669814     -1.215234
  H       2.608656      0.996916     -1.520352
  H       3.789278      0.672917     -0.220184
15
Coordinates from ORCA-job EMC_anion_cpcm_1000_moread E -382.909643859892
  C      -2.337186      0.523379      0.600873
  C      -1.531936     -0.766568      0.652125
  O      -0.143747     -0.533151      0.894710
  C       0.673756     -0.467503     -0.307809
  O       0.190480      0.034578     -1.366914
  O       1.890574      0.113000      0.250036
  C       2.899719      0.285853     -0.734853
  H      -2.012170      1.148345     -0.235729
  H      -3.404272      0.299789      0.477610
  H      -2.213906      1.091600      1.529567
  H      -1.889955     -1.393696      1.479912
  H      -1.660831     -1.334061     -0.280165
  H       3.138963     -0.666155     -1.235730
  H       2.606379      1.014211     -1.503161
  H       3.794132      0.650380     -0.220474
15
Coordinates from ORCA-job EMC_anion_cpcm_1000_moread E -382.909683064112
  C      -2.352855      0.514267      0.599800
  C      -1.525796     -0.761367      0.654750
  O      -0.140687     -0.502273      0.894654
  C       0.672261     -0.441814     -0.307335
  O       0.192107      0.075416     -1.362804
  O       1.895444      0.118381      0.249702
  C       2.907173      0.273835     -0.736705
  H      -2.040123      1.139960     -0.240912
  H      -3.416382      0.272881      0.480144
  H      -2.235739      1.089338      1.525048
  H      -1.871262     -1.392097      1.484905
  H      -1.643672     -1.333230     -0.276288
  H       3.117691     -0.680895     -1.244584
  H       2.630195      1.015600     -1.498191
  H       3.811646      0.611998     -0.222186
15
Coordinates from ORCA-job EMC_anion_cpcm_1000_moread E -382.909705820222
  C      -2.369214      0.506883      0.601142
  C      -1.521477     -0.755083      0.656066
  O      -0.140084     -0.472936      0.893621
  C       0.671913     -0.420073     -0.307872
  O       0.196281      0.105994     -1.362939
  O       1.901911      0.123251      0.247655
  C       2.916045      0.262814     -0.738898
  H      -2.068207      1.136042     -0.241165
  H      -3.428973      0.248215      0.484157
  H      -2.259342      1.085155      1.525229
  H      -1.855293     -1.390432      1.487523
  H      -1.630406     -1.330178     -0.274023
  H       3.106920     -0.694085     -1.250336
  H       2.653084      1.012914     -1.496964
  H       3.826843      0.581519     -0.223195
15
Coordinates from ORCA-job EMC_anion_cpcm_1000_moread E -382.909723115534
  C      -2.390685      0.497610      0.603188
  C      -1.516148     -0.745943      0.657993
  O      -0.140686     -0.433454      0.892076
  C       0.671374     -0.393012     -0.309061
  O       0.203490      0.143862     -1.363897
  O       1.911641      0.125830      0.244574
  C       2.927659      0.248258     -0.741921
  H      -2.104927      1.132032     -0.240498
  H      -3.444836      0.215720      0.489068
  H      -2.291667      1.079068      1.526425
  H      -1.835154     -1.387163      1.491054
  H      -1.613908     -1.325474     -0.270501
  H       3.097448     -0.709464     -1.259277
  H       2.681200      1.008660     -1.495108
  H       3.845199      0.543471     -0.224114
15
Coordinates from ORCA-job EMC_anion_cpcm_1000_moread E -382.909730700160
  C      -2.393826      0.497291      0.603499
  C      -1.515969     -0.743973      0.658606
  O      -0.141601     -0.427548      0.892249
  C       0.671662     -0.392520     -0.308980
  O       0.206689      0.144977     -1.364617
  O       1.914735      0.120591      0.244352
  C       2.929313      0.246728     -0.742611
  H      -2.109575      1.132877     -0.239787
  H      -3.447093      0.212152      0.489036
  H      -2.297226      1.078647      1.527047
  H      -1.833800     -1.385817      1.491784
  H      -1.612610     -1.324531     -0.269395
  H       3.100691     -0.708922     -1.263451
  H       2.681614      1.009152     -1.493339
  H       3.846995      0.540897     -0.224393
15
Coordinates from ORCA-job EMC_anion_cpcm_1000_moread E -382.909741768531
  C      -2.407951      0.493006      0.602809
  C      -1.512794     -0.735685      0.662723
  O      -0.143760     -0.397572      0.893128
  C       0.671335     -0.383268     -0.308988
  O       0.219072      0.164577     -1.364201
  O       1.926709      0.098697      0.244487
  C       2.935519      0.237637     -0.745149
  H      -2.132456      1.130618     -0.241949
  H      -3.456790      0.191644      0.488911
  H      -2.321269      1.078086      1.524977
  H      -1.823212     -1.379205      1.497823
  H      -1.602145     -1.321971     -0.262482
  H       3.103822     -0.708695     -1.284117
  H       2.687054      1.013298     -1.481912
  H       3.856866      0.518833     -0.226059
15
Coordinates from ORCA-job EMC_anion_cpcm_1000_moread E -382.909744860144
  C      -2.402687      0.495269      0.601786
  C      -1.514023     -0.738112      0.662640
  O      -0.143248     -0.407375      0.894198
  C       0.671536     -0.390363     -0.308390
  O       0.217830      0.156419     -1.362953
  O       1.925039      0.095852      0.246053
  C       2.932468      0.241244     -0.744435
  H      -2.123489      1.130780     -0.243344
  H      -3.453158      0.199863      0.487528
  H      -2.312855      1.080675      1.523472
  H      -1.828356     -1.379943      1.497437
  H      -1.605755     -1.323468     -0.262971
  H       3.105376     -0.704203     -1.283443
  H       2.678579      1.015307     -1.480996
  H       3.852744      0.528054     -0.226584
15
Coordinates from ORCA-job EMC_anion_cpcm_1000_moread E -382.909745953381
  C      -2.401087      0.495705      0.600751
  C      -1.514136     -0.738824      0.663256
  O      -0.142922     -0.409705      0.895224
  C       0.671318     -0.392481     -0.308076
  O       0.218123      0.156279     -1.361424
  O       1.925284      0.091585      0.247349
  C       2.931219      0.242053     -0.744264
  H      -2.120804      1.129533     -0.245327
  H      -3.452057      0.202109      0.486636
  H      -2.310115      1.082498      1.521448
  H      -1.829714     -1.379649      1.498268
  H      -1.606011     -1.324337     -0.262284
  H       3.105078     -0.701887     -1.285547
  H       2.674202      1.017082     -1.478642
  H       3.851622      0.530039     -0.227367
15
Coordinates from ORCA-job EMC_anion_cpcm_1000_moread E -382.909746108558
  C      -2.401764      0.495213      0.600493
  C      -1.513897     -0.738620      0.663561
  O      -0.142852     -0.408395      0.895440
  C       0.671136     -0.391275     -0.308143
  O       0.218479      0.159096     -1.360849
  O       1.925838      0.090512      0.247576
  C       2.931529      0.241408     -0.744397
  H      -2.122009      1.128635     -0.246075
  H      -3.452579      0.200984      0.486692
  H      -2.310881      1.082753      1.520720
  H      -1.828928     -1.379348      1.498836
  H      -1.605184     -1.324491     -0.261817
  H       3.104300     -0.702203     -1.286563
  H       2.674528      1.017295     -1.477836
  H       3.852285      0.528437     -0.227638
