15
Coordinates from ORCA-job EMC_anion_cpcm_80_moread E -382.847232476720
  C      -2.295011      0.527875      0.543211
  C      -1.508848     -0.770918      0.642061
  O      -0.123641     -0.527855      0.905730
  C       0.635622     -0.235481     -0.146661
  O       0.276990     -0.190628     -1.289389
  O       1.881442     -0.010724      0.278583
  C       2.828783      0.291902     -0.737117
  H      -1.953084      1.105128     -0.312311
  H      -3.350833      0.305160      0.418014
  H      -2.159851      1.117971      1.446411
  H      -1.847705     -1.374003      1.486418
  H      -1.600226     -1.342289     -0.287264
  H       2.916029     -0.540122     -1.438628
  H       2.528899      1.186371     -1.286595
  H       3.771435      0.457613     -0.222463
15
Coordinates from ORCA-job EMC_anion_cpcm_80_moread E -382.870727517240
  C      -2.235735      0.556537      0.530755
  C      -1.537774     -0.789464      0.654688
  O      -0.128318     -0.633740      0.898211
  C       0.650033     -0.423861     -0.179157
  O       0.260457     -0.249181     -1.318099
  O       1.874659     -0.085922      0.273655
  C       2.804763      0.345385     -0.724990
  H      -1.868445      1.092679     -0.346098
  H      -3.312130      0.401001      0.422662
  H      -2.053058      1.164583      1.419590
  H      -1.907183     -1.346243      1.519224
  H      -1.681058     -1.385650     -0.255216
  H       2.980238     -0.456872     -1.452847
  H       2.429283      1.228255     -1.251476
  H       3.724267      0.582495     -0.190902
15
Coordinates from ORCA-job EMC_anion_cpcm_80_moread E -382.893942825084
  C      -2.175744      0.578986      0.516820
  C      -1.550810     -0.799864      0.666170
  O      -0.131702     -0.732036      0.893655
  C       0.664501     -0.595746     -0.219488
  O       0.235597     -0.279062     -1.345364
  O       1.872840     -0.151242      0.270373
  C       2.768630      0.388194     -0.706905
  H      -1.787276      1.075829     -0.375046
  H      -3.263424      0.483301      0.420142
  H      -1.953459      1.197414      1.390987
  H      -1.947120     -1.313253      1.547019
  H      -1.740901     -1.411167     -0.227185
  H       3.022552     -0.382507     -1.451065
  H       2.325725      1.247115     -1.221625
  H       3.660589      0.694038     -0.158489
15
Coordinates from ORCA-job EMC_anion_cpcm_80_moread E -382.903538318620
  C      -2.160599      0.586733      0.515845
  C      -1.564093     -0.803401      0.676466
  O      -0.145868     -0.779186      0.903018
  C       0.675203     -0.682235     -0.250547
  O       0.219036     -0.286140     -1.380765
  O       1.895358     -0.173531      0.270748
  C       2.769154      0.406780     -0.699962
  H      -1.760135      1.069378     -0.378954
  H      -3.252295      0.517085      0.418847
  H      -1.927636      1.208374      1.386831
  H      -1.979378     -1.295717      1.562816
  H      -1.778881     -1.421065     -0.207845
  H       3.063576     -0.346984     -1.448096
  H       2.297806      1.249580     -1.217840
  H       3.648753      0.750330     -0.150562
15
Coordinates from ORCA-job EMC_anion_cpcm_80_moread E -382.905963869394
  C      -2.119965      0.599515      0.514285
  C      -1.553165     -0.803985      0.665179
  O      -0.142163     -0.811760      0.909496
  C       0.689141     -0.777631     -0.259672
  O       0.211026     -0.295664     -1.345183
  O       1.875356     -0.174431      0.282487
  C       2.727897      0.414941     -0.696216
  H      -1.694266      1.088641     -0.364852
  H      -3.209459      0.553939      0.399167
  H      -1.892510      1.203425      1.399364
  H      -1.996841     -1.294658      1.539872
  H      -1.779653     -1.408821     -0.224017
  H       3.080851     -0.335102     -1.418763
  H       2.221301      1.215350     -1.248556
  H       3.582450      0.826240     -0.152590
15
Coordinates from ORCA-job EMC_anion_cpcm_80_moread E -382.906956682401
  C      -2.188556      0.586474      0.545133
  C      -1.560232     -0.794466      0.661198
  O      -0.152027     -0.749767      0.912141
  C       0.692157     -0.709840     -0.264371
  O       0.216658     -0.247235     -1.362062
  O       1.892954     -0.103184      0.277768
  C       2.789649      0.387412     -0.713926
  H      -1.779295      1.120786     -0.315532
  H      -3.275409      0.496623      0.420841
  H      -1.995855      1.174428      1.449628
  H      -1.991272     -1.325442      1.519833
  H      -1.762010     -1.387152     -0.242355
  H       3.133749     -0.419646     -1.379657
  H       2.330495      1.169743     -1.330544
  H       3.648993      0.801266     -0.178095
15
Coordinates from ORCA-job EMC_anion_cpcm_80_moread E -382.907675947573
  C      -2.251326      0.564553      0.572176
  C      -1.556076     -0.786417      0.656929
  O      -0.154855     -0.672325      0.909932
  C       0.686090     -0.615752     -0.278629
  O       0.207236     -0.147686     -1.364570
  O       1.895642     -0.011155      0.269853
  C       2.842236      0.349389     -0.726863
  H      -1.866200      1.142407     -0.272156
  H      -3.332141      0.424945      0.440854
  H      -2.092730      1.138056      1.492396
  H      -1.967094     -1.360152      1.498840
  H      -1.729345     -1.365579     -0.260736
  H       3.161865     -0.523328     -1.319771
  H       2.445236      1.105338     -1.416136
  H       3.711462      0.757704     -0.202120
15
Coordinates from ORCA-job EMC_anion_cpcm_80_moread E -382.908170526603
  C      -2.353700      0.521286      0.619235
  C      -1.533537     -0.761161      0.642850
  O      -0.149418     -0.520202      0.885358
  C       0.675166     -0.447945     -0.324091
  O       0.189941      0.033465     -1.386314
  O       1.890410      0.156636      0.236054
  C       2.915597      0.277658     -0.735077
  H      -2.037654      1.168901     -0.202746
  H      -3.418637      0.287432      0.493250
  H      -2.238329      1.069962      1.560671
  H      -1.886353     -1.405915      1.460274
  H      -1.665977     -1.316365     -0.296307
  H       3.174050     -0.697038     -1.182885
  H       2.638276      0.963423     -1.547073
  H       3.800164      0.669863     -0.223199
15
Coordinates from ORCA-job EMC_anion_cpcm_80_moread E -382.908277881285
  C      -2.335397      0.526857      0.606697
  C      -1.535587     -0.767388      0.648449
  O      -0.147716     -0.543477      0.892422
  C       0.674706     -0.473076     -0.312731
  O       0.189872      0.016849     -1.374194
  O       1.889477      0.122296      0.246191
  C       2.901635      0.288738     -0.734352
  H      -2.006903      1.157894     -0.223790
  H      -3.403370      0.308210      0.480827
  H      -2.212118      1.086286      1.540740
  H      -1.898148     -1.397876      1.472281
  H      -1.670597     -1.329532     -0.286207
  H       3.160386     -0.667871     -1.217748
  H       2.605423      0.999101     -1.518178
  H       3.788336      0.672987     -0.220408
15
Coordinates from ORCA-job EMC_anion_cpcm_80_moread E -382.908341774116
  C      -2.336513      0.523479      0.600441
  C      -1.531604     -0.766778      0.652197
  O      -0.143735     -0.533892      0.895396
  C       0.673666     -0.467866     -0.307492
  O       0.190405      0.034985     -1.366053
  O       1.890738      0.112137      0.250749
  C       2.898883      0.286022     -0.734675
  H      -2.010429      1.148010     -0.236053
  H      -3.403667      0.300424      0.476540
  H      -2.213313      1.091743      1.529129
  H      -1.890351     -1.393822      1.479806
  H      -1.660302     -1.334075     -0.280292
  H       3.137762     -0.665533     -1.236685
  H       2.604698      1.014909     -1.502222
  H       3.793761      0.650254     -0.220788
15
Coordinates from ORCA-job EMC_anion_cpcm_80_moread E -382.908379915800
  C      -2.352329      0.514379      0.599537
  C      -1.525515     -0.761502      0.654718
  O      -0.140745     -0.502833      0.895274
  C       0.672248     -0.442164     -0.307009
  O       0.192142      0.075482     -1.362161
  O       1.895623      0.117774      0.250318
  C       2.906485      0.273975     -0.736559
  H      -2.038655      1.139919     -0.240925
  H      -3.415915      0.273428      0.479210
  H      -2.235359      1.089298      1.524906
  H      -1.871663     -1.392348      1.484587
  H      -1.643134     -1.333011     -0.276611
  H       3.116751     -0.680464     -1.245194
  H       2.628743      1.016005     -1.497560
  H       3.811324      0.612062     -0.222530
15
Coordinates from ORCA-job EMC_anion_cpcm_80_moread E -382.908401323707
  C      -2.368057      0.507261      0.600773
  C      -1.521385     -0.755494      0.656044
  O      -0.140220     -0.474592      0.894395
  C       0.671884     -0.421191     -0.307437
  O       0.196084      0.105052     -1.362150
  O       1.901964      0.122367      0.248343
  C       2.915054      0.263360     -0.738731
  H      -2.065569      1.136146     -0.241195
  H      -3.428032      0.249687      0.482915
  H      -2.258167      1.085276      1.525030
  H      -1.856405     -1.390765      1.487167
  H      -1.630363     -1.330165     -0.274341
  H       3.106442     -0.693100     -1.250927
  H       2.650763      1.013512     -1.496331
  H       3.826009      0.582646     -0.223555
15
Coordinates from ORCA-job EMC_anion_cpcm_80_moread E -382.908417900945
  C      -2.388854      0.498290      0.602638
  C      -1.516225     -0.746673      0.658021
  O      -0.140823     -0.436341      0.893091
  C       0.671321     -0.394991     -0.308472
  O       0.203003      0.141913     -1.362838
  O       1.911573      0.124537      0.245389
  C       2.926312      0.249256     -0.741737
  H      -2.100942      1.132240     -0.240648
  H      -3.443426      0.218228      0.487403
  H      -2.289647      1.079447      1.526059
  H      -1.837020     -1.387575      1.490726
  H      -1.614362     -1.325784     -0.270743
  H       3.097333     -0.707820     -1.260032
  H       2.677874      1.009647     -1.494331
  H       3.843882      0.545626     -0.224526
15
Coordinates from ORCA-job EMC_anion_cpcm_80_moread E -382.908425266356
  C      -2.391971      0.497938      0.602859
  C      -1.516000     -0.744728      0.658701
  O      -0.141695     -0.430429      0.893332
  C       0.671563     -0.394420     -0.308376
  O       0.206137      0.143303     -1.363424
  O       1.914681      0.119198      0.245201
  C       2.927920      0.247706     -0.742430
  H      -2.105491      1.132952     -0.240081
  H      -3.445659      0.214624      0.487261
  H      -2.295216      1.079087      1.526536
  H      -1.835627     -1.386179      1.491578
  H      -1.612998     -1.324958     -0.269517
  H       3.100370     -0.707205     -1.264417
  H       2.678279      1.010291     -1.492397
  H       3.845709      0.542820     -0.224822
15
Coordinates from ORCA-job EMC_anion_cpcm_80_moread E -382.908435866583
  C      -2.405816      0.493689      0.601904
  C      -1.512781     -0.736604      0.662981
  O      -0.143708     -0.400916      0.894438
  C       0.671131     -0.385304     -0.308322
  O       0.218272      0.163117     -1.362655
  O       1.926599      0.096975      0.245441
  C       2.933897      0.238748     -0.744953
  H      -2.127662      1.130454     -0.242598
  H      -3.455153      0.194408      0.486715
  H      -2.318987      1.078746      1.524087
  H      -1.825180     -1.379475      1.497916
  H      -1.602550     -1.322781     -0.262310
  H       3.103039     -0.706567     -1.285571
  H       2.683393      1.014937     -1.480517
  H       3.855506      0.520574     -0.226555
15
Coordinates from ORCA-job EMC_anion_cpcm_80_moread E -382.908438710185
  C      -2.398712      0.496705      0.601140
  C      -1.514530     -0.739984      0.662304
  O      -0.143114     -0.414508      0.895400
  C       0.671432     -0.394155     -0.307733
  O       0.215679      0.151400     -1.361709
  O       1.923565      0.096472      0.246948
  C       2.930063      0.243615     -0.743941
  H      -2.115559      1.131452     -0.243225
  H      -3.450219      0.205511      0.485219
  H      -2.307672      1.081223      1.523289
  H      -1.831996     -1.381119      1.496498
  H      -1.607694     -1.324323     -0.263858
  H       3.105278     -0.701965     -1.282081
  H       2.673631      1.016071     -1.481368
  H       3.849847      0.533605     -0.226883
15
Coordinates from ORCA-job EMC_anion_cpcm_80_moread E -382.908439712569
  C      -2.398011      0.496868      0.600233
  C      -1.514484     -0.740206      0.663004
  O      -0.142908     -0.415109      0.896248
  C       0.671263     -0.395504     -0.307442
  O       0.216492      0.152127     -1.360457
  O       1.924264      0.091995      0.248016
  C       2.929286      0.243896     -0.743903
  H      -2.114339      1.130280     -0.244992
  H      -3.449730      0.206450      0.484449
  H      -2.306459      1.082718      1.521491
  H      -1.832605     -1.380537      1.497504
  H      -1.607441     -1.324965     -0.262947
  H       3.104993     -0.699991     -1.284813
  H       2.670309      1.017840     -1.478815
  H       3.849367      0.534138     -0.227576
15
Coordinates from ORCA-job EMC_anion_cpcm_80_moread E -382.908440021902
  C      -2.399264      0.496077      0.599877
  C      -1.514032     -0.739720      0.663513
  O      -0.142821     -0.412522      0.896557
  C       0.671006     -0.393628     -0.307531
  O       0.217280      0.156419     -1.359676
  O       1.925235      0.090078      0.248359
  C       2.929811      0.242791     -0.744113
  H      -2.116548      1.129013     -0.246050
  H      -3.450662      0.204386      0.484510
  H      -2.308081      1.083034      1.520462
  H      -1.831214     -1.380014      1.498376
  H      -1.605960     -1.325031     -0.262204
  H       3.103837     -0.700465     -1.286615
  H       2.670896      1.018204     -1.477444
  H       3.850518      0.531377     -0.228020
