15
 energy: -24.979296004688 gnorm: 0.000714607189 xtb: 6.7.1pre (5071a88)
C           -1.54450433111309        0.74699084999393        0.78612721123528
C           -1.53049391658498       -0.71170637970834        0.32926927260033
O           -0.37016620014938       -1.40725987354566        0.75139809906616
C            0.74403498336975       -1.31001299284361       -0.12477267697956
O            0.58756898322170       -1.44489919730723       -1.37843673223949
O            1.55578852520894       -0.14565464189373        0.36067392147084
C            2.16251594009009        0.59367910145759       -0.64063039894233
H           -0.63625632965192        1.23099600751333        0.43912597975597
H           -2.41251230533603        1.27032985225658        0.38122469044774
H           -1.56646428230122        0.80051983866356        1.87342547245383
H           -2.39699831879331       -1.24810922746267        0.74452312783897
H           -1.57578132406712       -0.76034252478534       -0.76913979922997
H            3.26034249151119        0.53178600807986       -0.56255443109801
H            1.85158408909573        0.19740421471795       -1.61806660166376
H            1.87134197549923        1.65627894486391       -0.57216713471605
