15
Coordinates from ORCA-job EMC_anion_cpcm_5_moread E -382.887559222618
  C          -2.37133269563983      0.50454993388700      0.59094744771651
  C          -1.51366464866413     -0.75164949445883      0.66562549173966
  O          -0.14284523275179     -0.45638977237177      0.91133693175001
  C           0.66834322428496     -0.41697812033830     -0.30080810924041
  O           0.20496107524906      0.13775685460118     -1.34248364345935
  O           1.92188766946614      0.07749312154198      0.25847048213179
  C           2.90897952049918      0.25649695966644     -0.74158809432759
  H          -2.05573375468062      1.12715185103202     -0.25068215808943
  H          -3.42870786935086      0.23966073880261      0.45980846891893
  H          -2.27660243217106      1.08925772919856      1.51283533413644
  H          -1.85544715697862     -1.38487360508531      1.49739700452937
  H          -1.61188862805375     -1.33309667913287     -0.26274164915058
  H           3.09284460685839     -0.67830979252191     -1.29731836776057
  H           2.62707485679199      1.03282938195136     -1.46645044803612
  H           3.83213144514096      0.55610087322782     -0.23434869085867
