13
 energy: -23.972717640829 gnorm: 0.000925908425 xtb: 6.7.1pre (5071a88)
C            1.65138881610451       -0.32304960580184        0.17620917396383
C            0.12675459652127       -0.43523229964582        0.22681052534996
C           -0.57421925836085        0.94829340099846        0.36878493681896
O           -1.35140966500241        1.08982997475239       -0.77197623229801
C           -1.62590406174114       -0.26452030120069       -1.28171420200597
O           -2.72858948509013       -0.82177150910688       -1.01439914893555
O           -0.36835240617004       -0.95992345554534       -0.96570457057472
H            2.03244354668120        0.08599079960377        1.11186393918725
H            1.94067647847976        0.32535479825528       -0.64767064828067
H            2.08480947560781       -1.30762543701704        0.01229401686689
H           -0.15589677285914       -1.08073326464359        1.08217057010667
H            0.15744086850461        1.77029523378421        0.41612586597945
H           -1.18914212267546        0.97309167556706        1.28720576382189
