6
Coordinates from ORCA-job AN_optfreq E -132.716132016158
  C          -0.48824830240491     -0.00008136575051      0.00899233974613
  C           0.96207643814381      0.00012680097483     -0.01769527967609
  N           2.11646352029799      0.00033753366609     -0.03895194482154
  H          -0.87848032608730     -0.61615849144256     -0.80571406108319
  H          -0.84601212638439     -0.40376762328784      0.96009820808165
  H          -0.86579920356521      1.01954315583999     -0.10672927224696
