6
Coordinates from ORCA-job AN_optfreq E -132.715575694489
  C      -0.487239     -0.000071      0.008966
  C       0.949039      0.000135     -0.017464
  N       2.091434      0.000308     -0.038485
  H      -0.866102     -0.615938     -0.805650
  H      -0.833651     -0.403612      0.959535
  H      -0.853481      1.019178     -0.106902
6
Coordinates from ORCA-job AN_optfreq E -132.716115803358
  C      -0.489141     -0.000075      0.008995
  C       0.958074      0.000136     -0.017629
  N       2.111679      0.000318     -0.038849
  H      -0.875275     -0.616973     -0.806855
  H      -0.842737     -0.404288      0.961277
  H      -0.862599      1.020881     -0.106939
6
Coordinates from ORCA-job AN_optfreq E -132.716130727430
  C      -0.488955     -0.000078      0.008996
  C       0.961064      0.000134     -0.017681
  N       2.115614      0.000326     -0.038926
  H      -0.877636     -0.616534     -0.806227
  H      -0.845130     -0.404007      0.960651
  H      -0.864958      1.020158     -0.106813
6
Coordinates from ORCA-job AN_optfreq E -132.716131793869
  C      -0.488572     -0.000080      0.008994
  C       0.961877      0.000130     -0.017694
  N       2.116347      0.000332     -0.038945
  H      -0.878271     -0.616283     -0.805883
  H      -0.845788     -0.403847      0.960283
  H      -0.865593      1.019747     -0.106755
6
Coordinates from ORCA-job AN_optfreq E -132.716132016158
  C      -0.488248     -0.000081      0.008992
  C       0.962076      0.000127     -0.017695
  N       2.116464      0.000338     -0.038952
  H      -0.878480     -0.616158     -0.805714
  H      -0.846012     -0.403768      0.960098
  H      -0.865799      1.019543     -0.106729
