35
Coordinates from ORCA-job TMP_m2_shell2_oxidized_opt_relaxed E -1530.881451094642
  C       0.255256     -3.029250     -0.501619
  O       0.771433     -1.787732      0.073868
  P       0.222140     -0.376042     -0.520400
  O       0.508712     -0.074127     -1.933860
  O      -1.293144     -0.356857     -0.065811
  C      -2.339419      0.214751     -0.915240
  O       1.072829      0.467674      0.574582
  C       1.327239      1.892555      0.335097
  H       0.816020     -3.837624     -0.033961
  H       0.418465     -3.028528     -1.582344
  H      -0.807770     -3.121458     -0.266495
  H      -3.240681     -0.359611     -0.702677
  H      -2.061899      0.131536     -1.967949
  H      -2.485079      1.260906     -0.638063
  H       1.496615      2.060840     -0.731351
  H       2.222314      2.142922      0.905657
  H       0.469187      2.468262      0.689273
  Li      2.250695     -1.043739      1.159181
  C       3.972225     -0.273281      3.827108
  O       3.692319     -0.532004      2.414693
  P       4.716105      0.080747      1.308820
  O       4.843128      1.547009      1.234608
  O       6.042150     -0.749237      1.547621
  C       7.361221     -0.140300      1.367774
  O       3.903260     -0.626641      0.096254
  C       4.104509     -0.149055     -1.275906
  H       3.128475     -0.678851      4.384140
  H       4.055513      0.803707      3.993716
  H       4.894072     -0.785804      4.111963
  H       8.033929     -0.699236      2.017472
  H       7.333094      0.914259      1.649140
  H       7.665626     -0.251208      0.324774
  H       3.203946     -0.419184     -1.828713
  H       4.979547     -0.648434     -1.697793
  H       4.237205      0.935740     -1.272135
35
Coordinates from ORCA-job TMP_m2_shell2_oxidized_opt_relaxed E -1530.883730216474
  C       0.274899     -3.057727     -0.512079
  O       0.777889     -1.797169      0.063602
  P       0.227775     -0.392194     -0.536185
  O       0.521953     -0.087195     -1.949618
  O      -1.292183     -0.360988     -0.086620
  C      -2.347922      0.241930     -0.906139
  O       1.067337      0.464293      0.558124
  C       1.300379      1.903896      0.342562
  H       0.841964     -3.855702     -0.035392
  H       0.444386     -3.062957     -1.591854
  H      -0.787421     -3.161231     -0.279284
  H      -3.247270     -0.342490     -0.704889
  H      -2.076028      0.215910     -1.963583
  H      -2.494445      1.276727     -0.570788
  H       1.463189      2.098573     -0.720169
  H       2.188877      2.158551      0.923044
  H       0.433413      2.458624      0.714226
  Li      2.250262     -1.043173      1.159457
  C       3.946984     -0.260932      3.853162
  O       3.685331     -0.520797      2.425170
  P       4.709831      0.095575      1.327375
  O       4.831165      1.564373      1.248161
  O       6.044947     -0.729470      1.554112
  C       7.375425     -0.150362      1.339224
  O       3.909899     -0.610230      0.104620
  C       4.132224     -0.161338     -1.281608
  H       3.097857     -0.672666      4.396321
  H       4.021964      0.815953      4.024012
  H       4.865572     -0.772342      4.149465
  H       8.045344     -0.702746      1.999043
  H       7.369587      0.917189      1.570785
  H       7.662401     -0.314135      0.292547
  H       3.240706     -0.448005     -1.841965
  H       5.011426     -0.677234     -1.679488
  H       4.271519      0.922192     -1.303925
35
Coordinates from ORCA-job TMP_m2_shell2_oxidized_opt_relaxed E -1530.885667846581
  C       0.298250     -3.095987     -0.520916
  O       0.783207     -1.811516      0.051176
  P       0.236800     -0.420752     -0.558457
  O       0.541830     -0.111862     -1.973127
  O      -1.289930     -0.371253     -0.121179
  C      -2.351690      0.284436     -0.891429
  O       1.059981      0.458198      0.530683
  C       1.262479      1.910496      0.338947
  H       0.875302     -3.875476     -0.026959
  H       0.479295     -3.106217     -1.597662
  H      -0.762366     -3.208224     -0.289257
  H      -3.246225     -0.319223     -0.726965
  H      -2.075848      0.359489     -1.945052
  H      -2.504696      1.284338     -0.457906
  H       1.405697      2.129389     -0.721198
  H       2.146664      2.169479      0.924585
  H       0.387986      2.434995      0.738194
  Li      2.249326     -1.045995      1.162011
  C       3.914866     -0.248899      3.886468
  O       3.679022     -0.507977      2.440061
  P       4.698990      0.115711      1.357459
  O       4.811701      1.589632      1.272207
  O       6.048206     -0.696296      1.568631
  C       7.388704     -0.164807      1.293500
  O       3.919612     -0.582943      0.117077
  C       4.171728     -0.164239     -1.278320
  H       3.056967     -0.672456      4.405293
  H       3.976134      0.827608      4.058111
  H       4.829610     -0.759490      4.192169
  H       8.054797     -0.689182      1.979337
  H       7.407028      0.918760      1.429041
  H       7.647803     -0.425079      0.256363
  H       3.289143     -0.463387     -1.846124
  H       5.050892     -0.704442     -1.645045
  H       4.327969      0.915875     -1.320292
35
Coordinates from ORCA-job TMP_m2_shell2_oxidized_opt_relaxed E -1530.886450175942
  C       0.304869     -3.113733     -0.521400
  O       0.782075     -1.819629      0.046917
  P       0.240481     -0.438171     -0.568519
  O       0.550361     -0.129090     -1.984692
  O      -1.289304     -0.383433     -0.142940
  C      -2.347923      0.309452     -0.883028
  O       1.056285      0.453799      0.515057
  C       1.239881      1.909284      0.331118
  H       0.887066     -3.883170     -0.018132
  H       0.492068     -3.124111     -1.596659
  H      -0.755224     -3.226134     -0.289458
  H      -3.238540     -0.310309     -0.765490
  H      -2.058029      0.457479     -1.924770
  H      -2.515329      1.275497     -0.384029
  H       1.362691      2.136357     -0.729602
  H       2.128121      2.172234      0.908726
  H       0.365474      2.417795      0.750271
  Li      2.248582     -1.050840      1.165279
  C       3.903550     -0.247292      3.900755
  O       3.679539     -0.504498      2.447529
  P       4.693696      0.124207      1.373711
  O       4.801219      1.601389      1.287665
  O       6.049472     -0.675281      1.584281
  C       7.390761     -0.170710      1.267986
  O       3.924802     -0.567980      0.123641
  C       4.194835     -0.160751     -1.271497
  H       3.041346     -0.677384      4.406581
  H       3.958019      0.829564      4.070006
  H       4.817867     -0.757347      4.207228
  H       8.057509     -0.656094      1.980863
  H       7.413784      0.919218      1.329421
  H       7.638636     -0.502138      0.249173
  H       3.313500     -0.454499     -1.843784
  H       5.068996     -0.717397     -1.624856
  H       4.368101      0.916422     -1.315926
35
Coordinates from ORCA-job TMP_m2_shell2_oxidized_opt_relaxed E -1530.887358335214
  C       0.305599     -3.132627     -0.517712
  O       0.776217     -1.830167      0.044861
  P       0.242725     -0.459698     -0.578127
  O       0.558195     -0.152903     -1.996648
  O      -1.290157     -0.406013     -0.173742
  C      -2.337653      0.341523     -0.873626
  O       1.052237      0.447166      0.496351
  C       1.209925      1.904106      0.317608
  H       0.892671     -3.891908     -0.005150
  H       0.498692     -3.142260     -1.591617
  H      -0.754342     -3.242145     -0.285499
  H      -3.220763     -0.298691     -0.848037
  H      -2.017652      0.597283     -1.884980
  H      -2.537132      1.246865     -0.284414
  H       1.294773      2.138771     -0.745083
  H       2.111713      2.174883      0.870025
  H       0.342164      2.394819      0.769327
  Li      2.247188     -1.060770      1.171998
  C       3.896786     -0.251072      3.915419
  O       3.684080     -0.504492      2.456757
  P       4.688927      0.131761      1.392423
  O       4.788525      1.613103      1.307887
  O       6.051396     -0.645489      1.612994
  C       7.388594     -0.174851      1.236251
  O       3.930753     -0.550677      0.131869
  C       4.224878     -0.153237     -1.259153
  H       3.030797     -0.688208      4.408153
  H       3.944516      0.826329      4.081408
  H       4.812157     -0.759643      4.219981
  H       8.061262     -0.578651      1.992626
  H       7.406693      0.915212      1.180748
  H       7.629225     -0.614602      0.259457
  H       3.341035     -0.424264     -1.838574
  H       5.086058     -0.735261     -1.601898
  H       4.429153      0.918510     -1.300460
35
Coordinates from ORCA-job TMP_m2_shell2_oxidized_opt_relaxed E -1530.888231015238
  C       0.299865     -3.152814     -0.509571
  O       0.766307     -1.844150      0.045623
  P       0.243598     -0.483394     -0.587750
  O       0.568030     -0.181855     -2.008573
  O      -1.292710     -0.439005     -0.216782
  C      -2.318907      0.381111     -0.864513
  O       1.048499      0.437284      0.475812
  C       1.174329      1.894857      0.300972
  H       0.889776     -3.904535      0.010442
  H       0.497015     -3.163601     -1.582613
  H      -0.760426     -3.258028     -0.278145
  H      -3.185140     -0.270537     -0.987403
  H      -1.950690      0.779536     -1.811142
  H      -2.574577      1.187044     -0.166704
  H       1.197907      2.138686     -0.762960
  H       2.101702      2.176901      0.803521
  H       0.325447      2.368024      0.803208
  Li      2.244714     -1.076793      1.183253
  C       3.894718     -0.261171      3.931068
  O       3.691093     -0.508573      2.468896
  P       4.684917      0.139035      1.412337
  O       4.771171      1.625023      1.330622
  O       6.054907     -0.603994      1.654828
  C       7.380889     -0.174859      1.197554
  O       3.936619     -0.532945      0.142834
  C       4.259604     -0.144487     -1.241811
  H       3.026843     -0.705010      4.413964
  H       3.936560      0.816472      4.096499
  H       4.812499     -0.766636      4.232704
  H       8.066675     -0.438773      2.002139
  H       7.378431      0.894237      0.977744
  H       7.622932     -0.758040      0.301944
  H       3.368646     -0.369846     -1.830026
  H       5.095458     -0.763659     -1.580399
  H       4.512537      0.917201     -1.276147
35
Coordinates from ORCA-job TMP_m2_shell2_oxidized_opt_relaxed E -1530.888774992104
  C       0.289964     -3.164201     -0.500686
  O       0.757752     -1.855876      0.050180
  P       0.242841     -0.496190     -0.591709
  O       0.577004     -0.200027     -2.012838
  O      -1.295976     -0.462396     -0.249337
  C      -2.300420      0.409381     -0.864892
  O       1.047624      0.427633      0.466498
  C       1.156633      1.885381      0.293488
  H       0.878163     -3.916597      0.020276
  H       0.486689     -3.178715     -1.573951
  H      -0.771052     -3.266753     -0.271102
  H      -3.146377     -0.234427     -1.110470
  H      -1.891394      0.904724     -1.747036
  H      -2.606717      1.133424     -0.102634
  H       1.129042      2.136234     -0.769033
  H       2.107669      2.172773      0.747073
  H       0.330973      2.352461      0.837685
  Li      2.241672     -1.092438      1.194736
  C       3.898027     -0.273638      3.940321
  O       3.695112     -0.516527      2.479125
  P       4.683072      0.141262      1.422835
  O       4.755680      1.629635      1.342661
  O       6.059308     -0.573098      1.684407
  C       7.371897     -0.163513      1.171096
  O       3.938177     -0.527517      0.152190
  C       4.276289     -0.143605     -1.229197
  H       3.031609     -0.719762      4.423704
  H       3.938368      0.803647      4.109727
  H       4.817981     -0.776108      4.240554
  H       8.069362     -0.307403      1.996167
  H       7.341508      0.874549      0.835004
  H       7.625944     -0.840452      0.349206
  H       3.376976     -0.324925     -1.820337
  H       5.086530     -0.792335     -1.573523
  H       4.569307      0.908107     -1.258764
35
Coordinates from ORCA-job TMP_m2_shell2_oxidized_opt_relaxed E -1530.889129094311
  C       0.277176     -3.168520     -0.492139
  O       0.750816     -1.865663      0.057909
  P       0.241822     -0.500511     -0.590473
  O       0.587276     -0.208236     -2.009993
  O      -1.299664     -0.474171     -0.271063
  C      -2.283998      0.428925     -0.878367
  O       1.049018      0.417942      0.467918
  C       1.156630      1.876430      0.297719
  H       0.860181     -3.927610      0.025225
  H       0.470763     -3.188035     -1.566240
  H      -0.784716     -3.269613     -0.264900
  H      -3.111088     -0.202733     -1.207334
  H      -1.844163      0.977052     -1.713526
  H      -2.628836      1.101671     -0.086725
  H       1.090579      2.135050     -0.761506
  H       2.127997      2.160288      0.709517
  H       0.355383      2.345298      0.875526
  Li      2.237849     -1.108286      1.207204
  C       3.904934     -0.287592      3.945570
  O       3.695790     -0.527681      2.488445
  P       4.681541      0.139005      1.426980
  O       4.739828      1.628050      1.345916
  O       6.064972     -0.552873      1.700330
  C       7.363940     -0.137945      1.153198
  O       3.936146     -0.533773      0.161084
  C       4.275987     -0.152927     -1.221349
  H       3.042371     -0.733050      4.436737
  H       3.946713      0.788868      4.121948
  H       4.826585     -0.787766      4.245253
  H       8.068531     -0.195321      1.983428
  H       7.303839      0.874253      0.748697
  H       7.636419     -0.865386      0.382177
  H       3.366210     -0.295364     -1.807764
  H       5.060362     -0.826311     -1.577459
  H       4.602046      0.889240     -1.250521
35
Coordinates from ORCA-job TMP_m2_shell2_oxidized_opt_relaxed E -1530.889287034093
  C       0.265642     -3.168187     -0.487166
  O       0.746535     -1.871051      0.064304
  P       0.242588     -0.500069     -0.587106
  O       0.598457     -0.208176     -2.004274
  O      -1.301627     -0.473428     -0.280836
  C      -2.274269      0.438775     -0.897655
  O       1.051131      0.411035      0.474955
  C       1.167064      1.870621      0.309707
  H       0.843267     -3.933970      0.026673
  H       0.456781     -3.191015     -1.561865
  H      -0.796858     -3.267280     -0.261132
  H      -3.090950     -0.189405     -1.258727
  H      -1.818033      1.001140     -1.714360
  H      -2.638156      1.095612     -0.101027
  H       1.079284      2.137020     -0.746061
  H       2.151262      2.144644      0.698017
  H       0.384021      2.342407      0.909589
  Li      2.234664     -1.120449      1.216710
  C       3.912867     -0.297389      3.947264
  O       3.695177     -0.536609      2.493568
  P       4.678833      0.135405      1.426452
  O       4.725215      1.624450      1.341891
  O       6.069475     -0.543687      1.701184
  C       7.360452     -0.109193      1.146466
  O       3.932746     -0.545104      0.166352
  C       4.265167     -0.167647     -1.219966
  H       3.054259     -0.742049      4.446381
  H       3.956079      0.778415      4.128633
  H       4.835757     -0.796610      4.245316
  H       8.065001     -0.131066      1.978860
  H       7.280235      0.892948      0.720919
  H       7.649306     -0.849534      0.393532
  H       3.345263     -0.285947     -1.796547
  H       5.028797     -0.859023     -1.586452
  H       4.613805      0.867121     -1.252173
35
Coordinates from ORCA-job TMP_m2_shell2_oxidized_opt_relaxed E -1530.889439736320
  C       0.248869     -3.166971     -0.482330
  O       0.740675     -1.876653      0.071636
  P       0.246304     -0.499470     -0.582449
  O       0.617935     -0.206076     -1.995928
  O      -1.301610     -0.467291     -0.292532
  C      -2.262068      0.449820     -0.925872
  O       1.054471      0.402379      0.485980
  C       1.184194      1.863066      0.329435
  H       0.819055     -3.940504      0.028516
  H       0.438581     -3.192459     -1.557386
  H      -0.814436     -3.260589     -0.257237
  H      -3.065719     -0.178064     -1.316170
  H      -1.787324      1.023802     -1.723522
  H      -2.648362      1.092533     -0.128216
  H       1.068359      2.140777     -0.720599
  H       2.183689      2.121097      0.689996
  H       0.425923      2.336737      0.958811
  Li      2.230526     -1.137398      1.229252
  C       3.925609     -0.308780      3.948685
  O       3.695557     -0.547491      2.498306
  P       4.672709      0.130991      1.424302
  O       4.701486      1.620225      1.333231
  O       6.073814     -0.531492      1.696673
  C       7.356568     -0.068579      1.141542
  O       3.927545     -0.561670      0.171485
  C       4.246879     -0.189899     -1.220611
  H       3.072469     -0.753911      4.457029
  H       3.969246      0.766495      4.134020
  H       4.850820     -0.806857      4.241806
  H       8.055632     -0.054470      1.979131
  H       7.251741      0.922126      0.695562
  H       7.669653     -0.818465      0.407704
  H       3.312995     -0.277248     -1.780940
  H       4.980241     -0.906386     -1.600294
  H       4.627210      0.833381     -1.257592
35
Coordinates from ORCA-job TMP_m2_shell2_oxidized_opt_relaxed E -1530.889670159956
  C       0.217314     -3.164291     -0.474854
  O       0.729628     -1.885375      0.084151
  P       0.257069     -0.499092     -0.573263
  O       0.659127     -0.202136     -1.979062
  O      -1.296322     -0.451779     -0.312098
  C      -2.237104      0.467465     -0.977769
  O       1.061672      0.386868      0.508472
  C       1.217839      1.848020      0.367999
  H       0.773372     -3.950256      0.032925
  H       0.407236     -3.192110     -1.549947
  H      -0.847577     -3.243947     -0.251541
  H      -3.018032     -0.163240     -1.408044
  H      -1.732786      1.054693     -1.746626
  H      -2.660411      1.092970     -0.185535
  H       1.054254      2.146375     -0.669698
  H       2.240905      2.076844      0.681678
  H       0.504286      2.322652      1.046782
  Li      2.223394     -1.169682      1.252393
  C       3.951186     -0.327277      3.950079
  O       3.698456     -0.566396      2.504552
  P       4.658503      0.123067      1.418612
  O       4.653839      1.612205      1.314778
  O       6.077604     -0.509560      1.682736
  C       7.346879      0.004514      1.136140
  O       3.916555     -0.592677      0.178432
  C       4.208803     -0.229968     -1.223104
  H       3.108372     -0.775109      4.473434
  H       3.993533      0.747653      4.138398
  H       4.881819     -0.822512      4.230803
  H       8.029497      0.073034      1.985074
  H       7.201751      0.975701      0.660574
  H       7.706207     -0.753178      0.432149
  H       3.252051     -0.261997     -1.751693
  H       4.884883     -0.988720     -1.625979
  H       4.645436      0.769946     -1.269525
35
Coordinates from ORCA-job TMP_m2_shell2_oxidized_opt_relaxed E -1530.889928531308
  C       0.178936     -3.160530     -0.466754
  O       0.716177     -1.894675      0.099206
  P       0.275585     -0.499437     -0.560498
  O       0.717103     -0.198004     -1.955002
  O      -1.282225     -0.428715     -0.333867
  C      -2.200073      0.486035     -1.041426
  O       1.071878      0.367893      0.540338
  C       1.259971      1.827343      0.418303
  H       0.716652     -3.959906      0.039993
  H       0.372715     -3.188837     -1.541147
  H      -0.887970     -3.218991     -0.246741
  H      -2.955936     -0.150993     -1.505829
  H      -1.664426      1.079284     -1.783460
  H      -2.662323      1.102501     -0.264700
  H       1.043276      2.151021     -0.601639
  H       2.305793      2.023355      0.678371
  H       0.599819      2.300177      1.150087
  Li      2.215160     -1.211307      1.282060
  C       3.984147     -0.346680      3.950741
  O       3.704219     -0.588344      2.510253
  P       4.637473      0.113370      1.409924
  O       4.590966      1.601115      1.289939
  O       6.076149     -0.483456      1.659397
  C       7.329320      0.089829      1.130681
  O       3.900598     -0.631296      0.184764
  C       4.156748     -0.276182     -1.225762
  H       3.154669     -0.799884      4.490672
  H       4.022150      0.728543      4.138218
  H       4.922816     -0.836630      4.213129
  H       7.986610      0.212084      1.993884
  H       7.142039      1.039255      0.627791
  H       7.744108     -0.666083      0.456485
  H       3.178058     -0.243737     -1.715346
  H       4.762784     -1.078244     -1.655069
  H       4.656270      0.692829     -1.285571
35
Coordinates from ORCA-job TMP_m2_shell2_oxidized_opt_relaxed E -1530.889520399807
  C       0.083617     -3.149887     -0.443346
  O       0.683459     -1.913216      0.139194
  P       0.343195     -0.500975     -0.522365
  O       0.897110     -0.189228     -1.878078
  O      -1.216406     -0.357850     -0.387577
  C      -2.078361      0.519132     -1.210133
  O       1.099928      0.324149      0.639663
  C       1.354952      1.772409      0.559061
  H       0.570957     -3.975849      0.071783
  H       0.298978     -3.176943     -1.513226
  H      -0.987243     -3.140389     -0.235943
  H      -2.778528     -0.145174     -1.721564
  H      -1.476125      1.099372     -1.910321
  H      -2.621979      1.148607     -0.500663
  H       1.005821      2.162225     -0.401567
  H       2.441271      1.906489      0.680506
  H       0.833408      2.226422      1.410012
  Li      2.196133     -1.322601      1.363979
  C       4.075315     -0.387853      3.949415
  O       3.727122     -0.638852      2.519034
  P       4.573174      0.089783      1.381513
  O       4.419766      1.568484      1.219507
  O       6.050350     -0.419830      1.577696
  C       7.265919      0.285174      1.117571
  O       3.851652     -0.728882      0.191883
  C       4.008125     -0.379282     -1.229982
  H       3.282880     -0.862741      4.525224
  H       4.092607      0.689490      4.124879
  H       5.038211     -0.858101      4.152834
  H       7.846548      0.503417      2.018542
  H       6.999968      1.190759      0.570297
  H       7.810137     -0.435553      0.499280
  H       2.996519     -0.171425     -1.617675
  H       4.417089     -1.270353     -1.724533
  H       4.663669      0.491778     -1.333476
35
Coordinates from ORCA-job TMP_m2_shell2_oxidized_opt_relaxed E -1530.888126625661
  C       0.241785     -3.157849     -0.492504
  O       0.732096     -1.861188      0.051846
  P       0.215800     -0.485464     -0.580952
  O       0.572662     -0.173852     -1.997880
  O      -1.327787     -0.486407     -0.305012
  C      -2.299377      0.449499     -0.900768
  O       1.016021      0.423619      0.491542
  C       1.027302      1.888105      0.339320
  H       0.825602     -3.926050      0.011862
  H       0.415305     -3.183630     -1.570452
  H      -0.818595     -3.255125     -0.253749
  H      -3.044583     -0.161873     -1.411894
  H      -1.815770      1.116422     -1.619049
  H      -2.757802      0.995745     -0.070668
  H       0.729151      2.169928     -0.670853
  H       2.052327      2.221422      0.533888
  H       0.356772      2.319523      1.083244
  Li      2.235910     -1.133714      1.224217
  C       3.939479     -0.296188      3.941753
  O       3.717529     -0.522866      2.486938
  P       4.713722      0.125763      1.409497
  O       4.773145      1.618776      1.308275
  O       6.097777     -0.532050      1.720140
  C       7.397948     -0.113768      1.153812
  O       3.964412     -0.563257      0.150979
  C       4.379465     -0.224166     -1.222336
  H       3.080215     -0.739057      4.442318
  H       3.990262      0.777720      4.133816
  H       4.863388     -0.797399      4.235000
  H       8.060857      0.052831      2.000775
  H       7.293679      0.810229      0.579561
  H       7.758127     -0.946115      0.541782
  H       3.467232     -0.156373     -1.824561
  H       5.006798     -1.028910     -1.606335
  H       4.908384      0.728423     -1.232127
35
Coordinates from ORCA-job TMP_m2_shell2_oxidized_opt_relaxed E -1530.888977378102
  C       0.255092     -3.135863     -0.530930
  O       0.740780     -1.851328      0.047336
  P       0.220819     -0.471190     -0.564481
  O       0.589507     -0.138236     -1.971969
  O      -1.324642     -0.467061     -0.282437
  C      -2.306194      0.427473     -0.918601
  O       1.011599      0.422546      0.526217
  C       1.044483      1.888943      0.395271
  H       0.838451     -3.913886     -0.042560
  H       0.434711     -3.132698     -1.607899
  H      -0.805588     -3.239698     -0.298754
  H      -3.066880     -0.218598     -1.360373
  H      -1.833446      1.043595     -1.685938
  H      -2.742443      1.031430     -0.117690
  H       0.764754      2.188963     -0.615892
  H       2.068781      2.203287      0.615654
  H       0.364467      2.310491      1.138472
  Li      2.235849     -1.138506      1.231662
  C       3.943860     -0.252350      3.930163
  O       3.713648     -0.511935      2.481491
  P       4.710921      0.114208      1.393546
  O       4.766583      1.603394      1.270441
  O       6.096202     -0.555314      1.693742
  C       7.401637     -0.106602      1.173114
  O       3.960321     -0.596681      0.147255
  C       4.347417     -0.270396     -1.236592
  H       3.084353     -0.680606      4.441852
  H       3.999125      0.825481      4.095742
  H       4.864450     -0.754783      4.229905
  H       8.054528     -0.006979      2.040239
  H       7.303114      0.848846      0.654271
  H       7.764317     -0.898072      0.511715
  H       3.423541     -0.215873     -1.818640
  H       4.969775     -1.083007     -1.616021
  H       4.875344      0.683710     -1.267889
35
Coordinates from ORCA-job TMP_m2_shell2_oxidized_opt_relaxed E -1530.889542187417
  C       0.255045     -3.131134     -0.545249
  O       0.744220     -1.854352      0.049312
  P       0.237043     -0.466416     -0.557394
  O       0.630961     -0.122728     -1.954844
  O      -1.311930     -0.448682     -0.285473
  C      -2.289610      0.426584     -0.951484
  O       1.016831      0.414171      0.552048
  C       1.083554      1.881881      0.445539
  H       0.831064     -3.916147     -0.059903
  H       0.443489     -3.117517     -1.620588
  H      -0.807004     -3.231987     -0.319083
  H      -3.053958     -0.234329     -1.364683
  H      -1.810643      1.018298     -1.732857
  H      -2.723753      1.055264     -0.168951
  H       0.812901      2.204567     -0.561956
  H       2.114100      2.165326      0.676678
  H       0.407549      2.296529      1.198040
  Li      2.232158     -1.157498      1.246396
  C       3.950226     -0.235900      3.925283
  O       3.708311     -0.512683      2.481460
  P       4.694537      0.112093      1.386105
  O       4.728890      1.598379      1.244361
  O       6.088919     -0.552315      1.671531
  C       7.390221     -0.074481      1.173262
  O       3.948885     -0.620997      0.151467
  C       4.298931     -0.304074     -1.244080
  H       3.095953     -0.661659      4.447622
  H       4.002102      0.844009      4.076507
  H       4.873403     -0.734622      4.222583
  H       8.035720      0.002430      2.049739
  H       7.280869      0.888790      0.673063
  H       7.764953     -0.846882      0.496337
  H       3.357263     -0.249267     -1.796006
  H       4.905409     -1.129079     -1.626701
  H       4.832628      0.647131     -1.296658
35
Coordinates from ORCA-job TMP_m2_shell2_oxidized_opt_relaxed E -1530.889680119686
  C       0.222219     -3.140788     -0.534992
  O       0.740293     -1.886235      0.079082
  P       0.309557     -0.468479     -0.543259
  O       0.800530     -0.121562     -1.908263
  O      -1.249245     -0.391417     -0.328046
  C      -2.183833      0.459000     -1.085507
  O       1.061347      0.370856      0.618155
  C       1.267768      1.831244      0.574049
  H       0.757554     -3.947156     -0.036865
  H       0.442313     -3.129891     -1.604267
  H      -0.847143     -3.209408     -0.331316
  H      -2.951087     -0.216676     -1.469346
  H      -1.657981      0.997079     -1.874732
  H      -2.633494      1.136929     -0.353643
  H       1.026157      2.217262     -0.419698
  H       2.325193      1.994762      0.814803
  H       0.625268      2.253372      1.352927
  Li      2.212662     -1.244755      1.309342
  C       3.980068     -0.251525      3.924093
  O       3.692328     -0.549285      2.493213
  P       4.615891      0.116895      1.374356
  O       4.553613      1.593665      1.195090
  O       6.049716     -0.500498      1.606531
  C       7.317519      0.084497      1.143408
  O       3.888326     -0.680486      0.176758
  C       4.094965     -0.373875     -1.251010
  H       3.156102     -0.692395      4.482538
  H       4.008177      0.831219      4.061261
  H       4.923243     -0.728446      4.194031
  H       7.951730      0.153196      2.031064
  H       7.145713      1.050151      0.667093
  H       7.747960     -0.644478      0.449134
  H       3.092954     -0.301369     -1.690946
  H       4.641669     -1.225239     -1.670171
  H       4.641187      0.566542     -1.363445
35
Coordinates from ORCA-job TMP_m2_shell2_oxidized_opt_relaxed E -1530.885919199441
  C       0.217434     -3.138972     -0.500381
  O       0.715162     -1.858927      0.070130
  P       0.205818     -0.490662     -0.552661
  O       0.567609     -0.177269     -1.971472
  O      -1.337586     -0.496171     -0.301422
  C      -2.296715      0.448960     -0.916206
  O       1.012166      0.407083      0.514222
  C       1.011312      1.869087      0.327212
  H       0.794191     -3.923229     -0.013629
  H       0.389300     -3.145096     -1.578972
  H      -0.845462     -3.230141     -0.271958
  H      -3.012377     -0.157337     -1.481405
  H      -1.797809      1.131126     -1.613164
  H      -2.790518      0.977300     -0.093155
  H       0.638942      2.128525     -0.666692
  H       2.046169      2.221547      0.440636
  H       0.400529      2.330044      1.103969
  Li      2.229074     -1.160746      1.255606
  C       3.969306     -0.301569      3.952058
  O       3.734291     -0.538894      2.499362
  P       4.722049      0.098850      1.402521
  O       4.781177      1.597245      1.306633
  O       6.109966     -0.533079      1.729860
  C       7.408002     -0.087644      1.163155
  O       3.954749     -0.593680      0.151946
  C       4.376161     -0.235209     -1.215827
  H       3.111811     -0.733887      4.463574
  H       4.030913      0.772884      4.140051
  H       4.893104     -0.804900      4.240458
  H       8.049690      0.154019      2.012255
  H       7.283755      0.815342      0.556652
  H       7.812750     -0.928732      0.591460
  H       3.471005     -0.072662     -1.817125
  H       4.932269     -1.063122     -1.651928
  H       4.981001      0.672623     -1.194338
35
Coordinates from ORCA-job TMP_m2_shell2_oxidized_opt_relaxed E -1530.888609349711
  C       0.233637     -3.150367     -0.512943
  O       0.727018     -1.870669      0.068585
  P       0.233437     -0.490696     -0.556316
  O       0.625988     -0.171959     -1.963974
  O      -1.314828     -0.475346     -0.311799
  C      -2.269353      0.455637     -0.945637
  O       1.025328      0.399270      0.531955
  C       1.080749      1.864228      0.380561
  H       0.803530     -3.935014     -0.019461
  H       0.422068     -3.151719     -1.588634
  H      -0.830759     -3.242487     -0.292944
  H      -2.998819     -0.165502     -1.471468
  H      -1.764423      1.114884     -1.655812
  H      -2.749717      1.008213     -0.132885
  H       0.746803      2.158796     -0.616581
  H       2.122788      2.165929      0.534650
  H       0.457347      2.312007      1.157735
  Li      2.224731     -1.179364      1.268259
  C       3.958988     -0.280529      3.949570
  O       3.717711     -0.534376      2.500765
  P       4.692384      0.109763      1.403447
  O       4.724962      1.603580      1.287429
  O       6.091665     -0.523807      1.704947
  C       7.381784     -0.062706      1.148399
  O       3.937580     -0.604079      0.161771
  C       4.304352     -0.255275     -1.223079
  H       3.107615     -0.717111      4.467599
  H       4.008883      0.796651      4.122048
  H       4.887130     -0.775974      4.237162
  H       8.028077      0.136862      2.004976
  H       7.249476      0.849955      0.562686
  H       7.778484     -0.889021      0.551934
  H       3.371445     -0.125586     -1.782644
  H       4.865240     -1.088678     -1.650558
  H       4.887936      0.667192     -1.238321
35
Coordinates from ORCA-job TMP_m2_shell2_oxidized_opt_relaxed E -1530.889737309031
  C       0.249491     -3.160550     -0.521261
  O       0.738587     -1.881211      0.066231
  P       0.257040     -0.492669     -0.563147
  O       0.672691     -0.172075     -1.961700
  O      -1.295042     -0.463579     -0.322839
  C      -2.245409      0.462406     -0.962478
  O       1.039370      0.392682      0.538522
  C       1.139962      1.857173      0.416919
  H       0.814058     -3.944532     -0.020629
  H       0.451474     -3.159591     -1.594255
  H      -0.816243     -3.252931     -0.308521
  H      -2.984295     -0.163547     -1.466732
  H      -1.734667      1.113076     -1.674008
  H      -2.718037      1.023631     -0.152097
  H       0.838867      2.178716     -0.582416
  H       2.187154      2.115296      0.603541
  H       0.505056      2.294388      1.191868
  Li      2.222277     -1.191932      1.275398
  C       3.945955     -0.263635      3.947689
  O       3.701938     -0.529664      2.502233
  P       4.667724      0.121523      1.406167
  O       4.678330      1.610740      1.278894
  O       6.075134     -0.514410      1.688769
  C       7.357881     -0.047493      1.133664
  O       3.923180     -0.604716      0.169962
  C       4.245833     -0.264847     -1.226904
  H       3.099506     -0.704788      4.470090
  H       3.985056      0.815466      4.108936
  H       4.877703     -0.751704      4.236109
  H       8.010896      0.124635      1.991252
  H       7.219407      0.868486      0.557215
  H       7.745468     -0.867524      0.523300
  H       3.290885     -0.165725     -1.751873
  H       4.814796     -1.099375     -1.645064
  H       4.807211      0.670985     -1.271409
35
Coordinates from ORCA-job TMP_m2_shell2_oxidized_opt_relaxed E -1530.889888977091
  C       0.254389     -3.164933     -0.527436
  O       0.744874     -1.890030      0.069315
  P       0.278013     -0.495830     -0.561593
  O       0.716740     -0.170834     -1.951220
  O      -1.276756     -0.453295     -0.329820
  C      -2.219091      0.471499     -0.986957
  O       1.050185      0.381109      0.554630
  C       1.189006      1.844438      0.451622
  H       0.811074     -3.952181     -0.023173
  H       0.467582     -3.160174     -1.598332
  H      -0.813057     -3.252975     -0.322234
  H      -2.965489     -0.168369     -1.479844
  H      -1.698310      1.119480     -1.709734
  H      -2.690058      1.049086     -0.174624
  H       0.912003      2.181949     -0.547442
  H       2.238814      2.073161      0.660354
  H       0.551335      2.280318      1.220410
  Li      2.218590     -1.209640      1.288655
  C       3.943823     -0.253983      3.948768
  O       3.692548     -0.531543      2.506008
  P       4.645594      0.125766      1.405932
  O       4.634921      1.611825      1.266502
  O       6.060871     -0.506019      1.673442
  C       7.337936     -0.020506      1.121772
  O       3.907884     -0.617619      0.177631
  C       4.190048     -0.282167     -1.229076
  H       3.103681     -0.698755      4.478215
  H       3.974342      0.826886      4.100989
  H       4.880025     -0.734962      4.234331
  H       7.992597      0.132255      1.985414
  H       7.193782      0.905440      0.553968
  H       7.726428     -0.832866      0.494189
  H       3.221421     -0.202782     -1.728604
  H       4.759517     -1.109927     -1.648267
  H       4.733977      0.658880     -1.292366
35
Coordinates from ORCA-job TMP_m2_shell2_oxidized_opt_relaxed E -1530.889864492301
  C       0.260469     -3.166843     -0.531111
  O       0.752225     -1.898250      0.073026
  P       0.296084     -0.495694     -0.562108
  O       0.752770     -0.169987     -1.944832
  O      -1.261261     -0.443124     -0.335005
  C      -2.195782      0.474708     -1.009314
  O       1.065006      0.370982      0.563986
  C       1.244016      1.832960      0.481394
  H       0.809357     -3.959559     -0.025461
  H       0.481796     -3.161492     -1.600502
  H      -0.808999     -3.253877     -0.333636
  H      -2.950909     -0.147728     -1.476306
  H      -1.676685      1.086789     -1.731097
  H      -2.653657      1.066387     -0.226084
  H       0.990077      2.186116     -0.520435
  H       2.300824      2.027727      0.709264
  H       0.603712      2.274242      1.247829
  Li      2.214861     -1.222539      1.299023
  C       3.938782     -0.248761      3.949300
  O       3.680281     -0.534399      2.510659
  P       4.626316      0.131504      1.405969
  O       4.598059      1.614432      1.259282
  O       6.048053     -0.499373      1.662395
  C       7.317815      0.004247      1.111049
  O       3.890975     -0.623741      0.186179
  C       4.132981     -0.293524     -1.230846
  H       3.105223     -0.696018      4.488244
  H       3.962667      0.832972      4.098323
  H       4.879048     -0.722865      4.234855
  H       7.982026      0.141258      1.961035
  H       7.163914      0.928089      0.563125
  H       7.705867     -0.789274      0.473579
  H       3.144214     -0.230125     -1.704311
  H       4.705543     -1.119755     -1.657281
  H       4.663570      0.657220     -1.308762
35
Coordinates from ORCA-job TMP_m2_shell2_oxidized_opt_relaxed E -1530.890306286778
  C       0.247802     -3.159340     -0.530038
  O       0.746035     -1.893577      0.075587
  P       0.295824     -0.492204     -0.555757
  O       0.753245     -0.164222     -1.936985
  O      -1.259050     -0.441372     -0.333507
  C      -2.192636      0.471018     -1.013099
  O       1.063197      0.370594      0.573283
  C       1.234969      1.829608      0.482071
  H       0.793423     -3.955070     -0.026856
  H       0.466995     -3.153288     -1.599585
  H      -0.821485     -3.240086     -0.332064
  H      -2.938718     -0.165092     -1.494627
  H      -1.665500      1.095330     -1.736215
  H      -2.668047      1.061890     -0.224051
  H       0.965831      2.180704     -0.515313
  H       2.290719      2.032191      0.693603
  H       0.606149      2.273645      1.256997
  Li      2.214574     -1.227851      1.302287
  C       3.951479     -0.253519      3.945886
  O       3.688297     -0.538925      2.507404
  P       4.628021      0.125225      1.397343
  O       4.598772      1.608088      1.248515
  O       6.048533     -0.497911      1.659046
  C       7.316793      0.014107      1.121132
  O       3.891152     -0.636302      0.180431
  C       4.138093     -0.301570     -1.231749
  H       3.119290     -0.699268      4.486940
  H       3.978019      0.827729      4.094978
  H       4.892097     -0.728423      4.226583
  H       7.971295      0.167461      1.984825
  H       7.154386      0.939298      0.564096
  H       7.723610     -0.782233      0.490530
  H       3.151378     -0.210509     -1.705435
  H       4.689617     -1.142110     -1.667637
  H       4.695075      0.638686     -1.307192
35
Coordinates from ORCA-job TMP_m2_shell2_oxidized_opt_relaxed E -1530.889755439994
  C       0.238327     -3.156379     -0.527402
  O       0.741394     -1.891393      0.079429
  P       0.297902     -0.493827     -0.548579
  O       0.756992     -0.163588     -1.928162
  O      -1.254219     -0.437976     -0.330956
  C      -2.185349      0.473447     -1.019954
  O       1.060983      0.367957      0.584235
  C       1.219456      1.824829      0.482665
  H       0.781187     -3.952986     -0.024142
  H       0.457775     -3.149220     -1.596691
  H      -0.830888     -3.229960     -0.329599
  H      -2.928018     -0.169265     -1.499955
  H      -1.659321      1.096387     -1.754467
  H      -2.660710      1.077022     -0.235466
  H       0.933445      2.172590     -0.506418
  H       2.268618      2.041225      0.676945
  H       0.604331      2.269569      1.262304
  Li      2.214346     -1.234241      1.308095
  C       3.960322     -0.257797      3.947773
  O       3.695200     -0.542613      2.508053
  P       4.627174      0.120722      1.394700
  O       4.597161      1.603763      1.244776
  O       6.046399     -0.496215      1.652966
  C       7.317984      0.021314      1.121704
  O       3.890523     -0.646381      0.177972
  C       4.144103     -0.307579     -1.228896
  H       3.128937     -0.705120      4.487555
  H       3.986291      0.823283      4.095994
  H       4.902225     -0.732045      4.222828
  H       7.959844      0.165675      1.980023
  H       7.168377      0.948901      0.579195
  H       7.727952     -0.757781      0.483979
  H       3.180132     -0.215584     -1.710444
  H       4.687438     -1.131546     -1.665154
  H       4.692923      0.617518     -1.303482
35
Coordinates from ORCA-job TMP_m2_shell2_oxidized_opt_relaxed E -1530.888881703405
  C       0.238701     -3.155729     -0.531799
  O       0.742079     -1.894133      0.083118
  P       0.305138     -0.493868     -0.543566
  O       0.774913     -0.158552     -1.919233
  O      -1.249264     -0.431289     -0.334604
  C      -2.174103      0.476531     -1.036974
  O       1.063422      0.362129      0.596918
  C       1.229621      1.819209      0.500301
  H       0.777597     -3.956366     -0.029996
  H       0.463015     -3.144398     -1.600256
  H      -0.832089     -3.228158     -0.339494
  H      -2.922759     -0.152645     -1.506674
  H      -1.649824      1.075551     -1.769607
  H      -2.637946      1.087248     -0.273514
  H       0.923016      2.178655     -0.492195
  H       2.294896      2.024320      0.678527
  H       0.625252      2.264874      1.304399
  Li      2.211621     -1.244109      1.319336
  C       3.958452     -0.257872      3.955010
  O       3.691360     -0.545619      2.515991
  P       4.618905      0.120904      1.399587
  O       4.579676      1.603600      1.243337
  O       6.043033     -0.488654      1.656690
  C       7.313054      0.033919      1.103268
  O       3.885652     -0.655336      0.185743
  C       4.129944     -0.315248     -1.222595
  H       3.129064     -0.707395      4.497048
  H       3.981227      0.823552      4.102243
  H       4.902524     -0.729333      4.229107
  H       7.953709      0.206417      1.986856
  H       7.158897      0.974242      0.518830
  H       7.730476     -0.787339      0.467692
  H       3.160137     -0.219290     -1.698947
  H       4.668016     -1.142169     -1.664091
  H       4.681824      0.609057     -1.299031
35
Coordinates from ORCA-job TMP_m2_shell2_oxidized_opt_relaxed E -1530.890181906577
  C       0.240444     -3.158587     -0.529188
  O       0.742815     -1.896603      0.083991
  P       0.305534     -0.492194     -0.546289
  O       0.778453     -0.156552     -1.922063
  O      -1.252688     -0.431764     -0.339991
  C      -2.176842      0.477829     -1.039465
  O       1.064234      0.362076      0.596065
  C       1.238258      1.820391      0.502960
  H       0.778773     -3.959921     -0.025943
  H       0.465301     -3.150146     -1.597660
  H      -0.831231     -3.232986     -0.338185
  H      -2.925403     -0.156062     -1.521854
  H      -1.644049      1.088226     -1.766494
  H      -2.649823      1.080286     -0.263162
  H       0.939305      2.179426     -0.493330
  H       2.308812      2.019921      0.687924
  H       0.629021      2.269088      1.303009
  Li      2.210335     -1.244242      1.319669
  C       3.956678     -0.257218      3.954207
  O       3.688057     -0.546669      2.516958
  P       4.618647      0.120320      1.398637
  O       4.578645      1.603466      1.241112
  O       6.046609     -0.490629      1.652707
  C       7.311712      0.036501      1.102868
  O       3.883484     -0.656173      0.186914
  C       4.125684     -0.315822     -1.224120
  H       3.127647     -0.704635      4.499643
  H       3.980802      0.824536      4.100884
  H       4.900881     -0.728641      4.230785
  H       7.965843      0.202210      1.969921
  H       7.145782      0.964585      0.542106
  H       7.720603     -0.762411      0.467876
  H       3.135389     -0.211943     -1.698257
  H       4.666284     -1.163359     -1.670680
  H       4.695244      0.620400     -1.300129
35
Coordinates from ORCA-job TMP_m2_shell2_oxidized_opt_relaxed E -1530.890067719487
  C       0.237114     -3.157255     -0.528961
  O       0.740260     -1.894688      0.082884
  P       0.308415     -0.491051     -0.545854
  O       0.781533     -0.156590     -1.920238
  O      -1.246103     -0.429006     -0.340505
  C      -2.173698      0.476555     -1.034968
  O       1.065856      0.364264      0.597698
  C       1.235993      1.819985      0.500495
  H       0.774412     -3.956581     -0.023366
  H       0.463425     -3.149187     -1.596784
  H      -0.833802     -3.227724     -0.337797
  H      -2.912715     -0.163722     -1.513720
  H      -1.643540      1.091527     -1.764912
  H      -2.654965      1.081924     -0.256837
  H       0.948929      2.168831     -0.479335
  H       2.285949      2.030863      0.687562
  H       0.633283      2.267674      1.276730
  Li      2.209908     -1.247201      1.320297
  C       3.962257     -0.258189      3.951111
  O       3.692058     -0.547685      2.513800
  P       4.617532      0.117700      1.394965
  O       4.577288      1.600035      1.238192
  O       6.042918     -0.490170      1.647982
  C       7.304941      0.034896      1.108042
  O       3.882317     -0.659077      0.182617
  C       4.128818     -0.316257     -1.224727
  H       3.134439     -0.705851      4.496105
  H       3.986079      0.823574      4.095656
  H       4.906975     -0.728836      4.223915
  H       7.949587      0.198599      1.967905
  H       7.135569      0.953405      0.558832
  H       7.717914     -0.744322      0.478004
  H       3.151536     -0.212513     -1.702556
  H       4.665675     -1.153662     -1.669231
  H       4.693080      0.612440     -1.301577
35
Coordinates from ORCA-job TMP_m2_shell2_oxidized_opt_relaxed E -1530.890386427246
  C       0.235066     -3.158432     -0.529172
  O       0.741413     -1.899219      0.085820
  P       0.313201     -0.492496     -0.542634
  O       0.792917     -0.156241     -1.914320
  O      -1.242543     -0.426963     -0.341624
  C      -2.162620      0.482595     -1.046398
  O       1.070013      0.357379      0.605071
  C       1.250239      1.813427      0.512423
  H       0.768584     -3.961569     -0.024940
  H       0.462548     -3.150175     -1.596861
  H      -0.836655     -3.227420     -0.340000
  H      -2.905044     -0.158406     -1.532999
  H      -1.623179      1.097142     -1.775327
  H      -2.644941      1.089632     -0.270217
  H       0.939864      2.177374     -0.475544
  H       2.320489      2.008187      0.682024
  H       0.656665      2.262231      1.321457
  Li      2.209334     -1.256132      1.325227
  C       3.965209     -0.256195      3.948197
  O       3.690901     -0.550113      2.512915
  P       4.611569      0.118518      1.389879
  O       4.562551      1.599928      1.228322
  O       6.040349     -0.485066      1.642480
  C       7.302193      0.049770      1.112372
  O       3.876538     -0.666384      0.182705
  C       4.106873     -0.325280     -1.227932
  H       3.140377     -0.704573      4.498130
  H       3.986472      0.825910      4.091560
  H       4.911916     -0.723723      4.220819
  H       7.944332      0.211488      1.975324
  H       7.127190      0.971174      0.564268
  H       7.728287     -0.731816      0.481110
  H       3.124122     -0.227206     -1.694609
  H       4.642497     -1.158824     -1.677525
  H       4.662510      0.604178     -1.308575
35
Coordinates from ORCA-job TMP_m2_shell2_oxidized_opt_relaxed E -1530.890159811840
  C       0.232109     -3.157973     -0.526690
  O       0.740016     -1.900429      0.089923
  P       0.312778     -0.492481     -0.540735
  O       0.795686     -0.155585     -1.912531
  O      -1.245837     -0.424918     -0.342663
  C      -2.162498      0.484166     -1.055411
  O       1.067953      0.354918      0.609922
  C       1.251802      1.811891      0.518451
  H       0.763867     -3.963951     -0.023712
  H       0.459976     -3.149761     -1.594678
  H      -0.840692     -3.227131     -0.339527
  H      -2.909338     -0.149019     -1.539808
  H      -1.623486      1.085108     -1.782115
  H      -2.637922      1.092770     -0.291172
  H       0.963302      2.172669     -0.471461
  H       2.314274      2.009273      0.707777
  H       0.646511      2.263383      1.309935
  Li      2.207035     -1.258490      1.330165
  C       3.964509     -0.261258      3.952462
  O       3.688644     -0.553660      2.517613
  P       4.610632      0.116232      1.392140
  O       4.560506      1.598301      1.228823
  O       6.042990     -0.484956      1.643696
  C       7.305229      0.059303      1.102861
  O       3.874033     -0.670474      0.186714
  C       4.105601     -0.326861     -1.224788
  H       3.140041     -0.710415      4.503960
  H       3.986459      0.820528      4.098861
  H       4.911734     -0.729286      4.225110
  H       7.956289      0.233853      1.972186
  H       7.127460      0.989958      0.539422
  H       7.731829     -0.738313      0.468607
  H       3.108774     -0.207705     -1.687720
  H       4.631093     -1.181125     -1.682962
  H       4.687879      0.604140     -1.301230
35
Coordinates from ORCA-job TMP_m2_shell2_oxidized_opt_relaxed E -1530.890611247195
  C       0.225355     -3.156259     -0.527215
  O       0.737575     -1.900963      0.091168
  P       0.320680     -0.492230     -0.537729
  O       0.812486     -0.154818     -1.905077
  O      -1.235661     -0.419007     -0.347516
  C      -2.149506      0.486974     -1.063564
  O       1.072173      0.352241      0.617825
  C       1.260257      1.806282      0.525397
  H       0.752032     -3.963258     -0.022121
  H       0.456819     -3.148003     -1.594171
  H      -0.847367     -3.218330     -0.342035
  H      -2.886781     -0.153324     -1.551544
  H      -1.605741      1.094873     -1.788270
  H      -2.637671      1.095901     -0.296760
  H       0.951421      2.170598     -0.456123
  H       2.327709      2.000017      0.691808
  H       0.674628      2.255789      1.330055
  Li      2.205242     -1.269504      1.337478
  C       3.970950     -0.263104      3.951801
  O       3.690844     -0.557341      2.517612
  P       4.603460      0.114223      1.390362
  O       4.544254      1.594570      1.223602
  O       6.037231     -0.478412      1.636996
  C       7.293630      0.072813      1.101775
  O       3.870145     -0.679192      0.187075
  C       4.096417     -0.336286     -1.223662
  H       3.149601     -0.713839      4.505054
  H       3.990336      0.818925      4.095641
  H       4.919859     -0.728695      4.219513
  H       7.937445      0.251593      1.967113
  H       7.110204      0.993508      0.543357
  H       7.725490     -0.709800      0.473650
  H       3.107024     -0.211770     -1.682524
  H       4.610019     -1.186451     -1.680589
  H       4.678680      0.584986     -1.306959
35
Coordinates from ORCA-job TMP_m2_shell2_oxidized_opt_relaxed E -1530.890469432963
  C       0.222125     -3.154981     -0.523760
  O       0.733379     -1.896836      0.089961
  P       0.306414     -0.491133     -0.536457
  O       0.784491     -0.152667     -1.909275
  O      -1.248757     -0.427464     -0.344198
  C      -2.165220      0.484600     -1.051524
  O       1.062362      0.357964      0.613125
  C       1.217363      1.815687      0.511328
  H       0.754068     -3.960573     -0.021529
  H       0.446493     -3.147938     -1.592097
  H      -0.850054     -3.219942     -0.334335
  H      -2.894166     -0.149586     -1.558146
  H      -1.623066      1.102317     -1.768053
  H      -2.659400      1.081208     -0.282237
  H       0.882725      2.174623     -0.465824
  H       2.282062      2.031707      0.654878
  H       0.639907      2.264076      1.328434
  Li      2.207312     -1.261362      1.332057
  C       3.974257     -0.266204      3.951567
  O       3.698110     -0.554613      2.515728
  P       4.618503      0.111553      1.387934
  O       4.573158      1.594778      1.225702
  O       6.047145     -0.481725      1.645480
  C       7.310755      0.055866      1.108773
  O       3.879377     -0.674091      0.180634
  C       4.136023     -0.331959     -1.225264
  H       3.149298     -0.714888      4.501306
  H       3.998586      0.814987      4.099932
  H       4.921476     -0.735079      4.220888
  H       7.944037      0.249134      1.970472
  H       7.135139      0.968083      0.543752
  H       7.750122     -0.735113      0.494832
  H       3.159474     -0.190117     -1.701484
  H       4.643177     -1.187122     -1.683706
  H       4.732562      0.579514     -1.297470
35
Coordinates from ORCA-job TMP_m2_shell2_oxidized_opt_relaxed E -1530.890651995316
  C       0.214503     -3.155547     -0.522579
  O       0.733644     -1.903831      0.096891
  P       0.323957     -0.491831     -0.530983
  O       0.825548     -0.151181     -1.894430
  O      -1.233198     -0.414273     -0.352614
  C      -2.137216      0.492883     -1.082464
  O       1.071169      0.346656      0.632825
  C       1.257771      1.801739      0.542726
  H       0.735741     -3.966890     -0.018035
  H       0.446294     -3.148771     -1.589418
  H      -0.859138     -3.211795     -0.338816
  H      -2.867972     -0.146516     -1.587854
  H      -1.581173      1.101756     -1.798741
  H      -2.635319      1.099670     -0.323473
  H       0.932376      2.172806     -0.430743
  H       2.327473      1.995178      0.690390
  H       0.688134      2.249541      1.361338
  Li      2.203057     -1.283092      1.347804
  C       3.983705     -0.267276      3.948780
  O       3.694773     -0.561726      2.516844
  P       4.599704      0.111589      1.382522
  O       4.531030      1.591383      1.210189
  O       6.037236     -0.470598      1.626936
  C       7.291966      0.092422      1.103507
  O       3.864930     -0.691506      0.185047
  C       4.087022     -0.349872     -1.226469
  H       3.167606     -0.720408      4.508309
  H       4.001215      0.814728      4.093822
  H       4.936259     -0.729752      4.210436
  H       7.920759      0.284776      1.973279
  H       7.099216      1.004915      0.541961
  H       7.748238     -0.689694      0.486379
  H       3.096976     -0.203964     -1.678366
  H       4.578784     -1.207562     -1.692468
  H       4.684166      0.558748     -1.311110
35
Coordinates from ORCA-job TMP_m2_shell2_oxidized_opt_relaxed E -1530.890628663945
  C       0.210890     -3.155667     -0.524896
  O       0.732652     -1.904822      0.095613
  P       0.329348     -0.492048     -0.531845
  O       0.836722     -0.151215     -1.893136
  O      -1.227451     -0.408504     -0.356600
  C      -2.133398      0.498995     -1.084451
  O       1.074156      0.345018      0.634903
  C       1.265401      1.798199      0.543877
  H       0.728024     -3.967472     -0.017587
  H       0.446771     -3.149372     -1.590936
  H      -0.863147     -3.207044     -0.343685
  H      -2.859959     -0.141568     -1.579851
  H      -1.583734      1.107575     -1.802840
  H      -2.633263      1.107685     -0.322505
  H       0.931413      2.169776     -0.428249
  H       2.339458      1.988871      0.683150
  H       0.703161      2.245469      1.367535
  Li      2.200618     -1.290761      1.352734
  C       3.980456     -0.272433      3.953234
  O       3.692549     -0.566276      2.520176
  P       4.594157      0.109407      1.387093
  O       4.519330      1.588535      1.211729
  O       6.035151     -0.466093      1.628162
  C       7.284590      0.107022      1.095434
  O       3.864356     -0.698248      0.189402
  C       4.090853     -0.360815     -1.222945
  H       3.164293     -0.727364      4.510891
  H       3.996092      0.809537      4.098107
  H       4.933060     -0.734409      4.214125
  H       7.922813      0.309003      1.962953
  H       7.086463      1.021269      0.526871
  H       7.730701     -0.670142      0.476436
  H       3.102110     -0.206565     -1.674946
  H       4.574958     -1.226396     -1.683523
  H       4.699643      0.543559     -1.313009
35
Coordinates from ORCA-job TMP_m2_shell2_oxidized_opt_relaxed E -1530.890705151256
  C       0.204445     -3.152339     -0.521053
  O       0.729990     -1.903564      0.099936
  P       0.329978     -0.489113     -0.526490
  O       0.842291     -0.146292     -1.885583
  O      -1.227284     -0.405314     -0.358607
  C      -2.127199      0.495070     -1.098299
  O       1.072016      0.344598      0.645051
  C       1.259817      1.798598      0.555726
  H       0.719145     -3.966433     -0.014717
  H       0.439673     -3.146645     -1.587176
  H      -0.869826     -3.200927     -0.340021
  H      -2.848443     -0.148665     -1.607093
  H      -1.565482      1.102602     -1.809427
  H      -2.637840      1.101914     -0.345713
  H       0.915797      2.173781     -0.410752
  H       2.333822      1.990981      0.683685
  H       0.706767      2.243883      1.386883
  Li      2.199427     -1.295630      1.359107
  C       3.989039     -0.273997      3.951862
  O       3.695502     -0.566811      2.520113
  P       4.593714      0.108651      1.382990
  O       4.516144      1.587466      1.205717
  O       6.035117     -0.463458      1.622471
  C       7.285840      0.111442      1.094224
  O       3.861431     -0.702094      0.188236
  C       4.086258     -0.363513     -1.223335
  H       3.175867     -0.729962      4.513088
  H       4.004565      0.807769      4.098219
  H       4.943373     -0.734957      4.208642
  H       7.912660      0.318462      1.962801
  H       7.088129      1.020742      0.523582
  H       7.745006     -0.668527      0.481726
  H       3.097969     -0.194470     -1.672158
  H       4.556436     -1.233040     -1.690115
  H       4.705093      0.532499     -1.312092
35
Coordinates from ORCA-job TMP_m2_shell2_oxidized_opt_relaxed E -1530.890681586753
  C       0.200377     -3.155849     -0.519415
  O       0.728829     -1.907530      0.099638
  P       0.327677     -0.491513     -0.525327
  O       0.839960     -0.146539     -1.884030
  O      -1.229501     -0.406440     -0.358327
  C      -2.126711      0.505787     -1.097510
  O       1.069504      0.340842      0.648017
  C       1.251460      1.796081      0.558676
  H       0.714560     -3.970917     -0.013498
  H       0.433545     -3.151751     -1.585920
  H      -0.873967     -3.203058     -0.336882
  H      -2.848255     -0.130862     -1.611930
  H      -1.567433      1.116717     -1.808067
  H      -2.631564      1.111684     -0.342905
  H       0.898429      2.171795     -0.403671
  H       2.325290      1.992219      0.677294
  H       0.704892      2.239772      1.395312
  Li      2.199874     -1.302504      1.359281
  C       3.995930     -0.275158      3.944952
  O       3.698919     -0.568502      2.514361
  P       4.595409      0.106401      1.373631
  O       4.514751      1.585404      1.193512
  O       6.038543     -0.461092      1.615527
  C       7.288169      0.122041      1.107464
  O       3.861936     -0.709074      0.181841
  C       4.089789     -0.374385     -1.230271
  H       3.184805     -0.731598      4.509046
  H       4.010969      0.806697      4.091437
  H       4.951764     -0.734784      4.199898
  H       7.903997      0.336702      1.984875
  H       7.079139      1.025621      0.538042
  H       7.768066     -0.654030      0.503480
  H       3.103429     -0.197068     -1.679608
  H       4.551720     -1.247641     -1.698572
  H       4.714936      0.515235     -1.318925
35
Coordinates from ORCA-job TMP_m2_shell2_oxidized_opt_relaxed E -1530.890732755488
  C       0.201129     -3.152839     -0.521366
  O       0.729397     -1.905350      0.100271
  P       0.330622     -0.488411     -0.523686
  O       0.847036     -0.141984     -1.880550
  O      -1.227204     -0.402199     -0.359260
  C      -2.124639      0.500864     -1.104819
  O       1.069612      0.342261      0.653120
  C       1.254080      1.797313      0.566525
  H       0.713622     -3.968462     -0.014835
  H       0.437115     -3.147515     -1.587323
  H      -0.873577     -3.199111     -0.340997
  H      -2.844820     -0.142193     -1.614260
  H      -1.562516      1.107195     -1.817487
  H      -2.633961      1.111204     -0.354513
  H       0.900176      2.175320     -0.394847
  H       2.328451      1.991124      0.684934
  H       0.708953      2.239381      1.404788
  Li      2.198306     -1.303864      1.363790
  C       3.993484     -0.273858      3.948656
  O       3.696658     -0.567659      2.517744
  P       4.592792      0.106847      1.377251
  O       4.510970      1.585326      1.195388
  O       6.036365     -0.461259      1.615803
  C       7.286955      0.122308      1.097617
  O       3.860511     -0.710088      0.185647
  C       4.087901     -0.376596     -1.226867
  H       3.182396     -0.730818      4.512336
  H       4.007694      0.808051      4.094642
  H       4.949298     -0.733306      4.203574
  H       7.906416      0.332288      1.970660
  H       7.084544      1.030159      0.528620
  H       7.756916     -0.653738      0.486866
  H       3.101167     -0.196303     -1.674926
  H       4.546319     -1.252536     -1.693862
  H       4.717070      0.511154     -1.317212
35
Coordinates from ORCA-job TMP_m2_shell2_oxidized_opt_relaxed E -1530.890727595521
  C       0.194593     -3.149273     -0.518102
  O       0.726613     -1.902864      0.101774
  P       0.331710     -0.484549     -0.521988
  O       0.851017     -0.138939     -1.877802
  O      -1.225916     -0.397236     -0.361678
  C      -2.121439      0.497089     -1.111346
  O       1.070218      0.344597      0.656281
  C       1.252630      1.799244      0.571083
  H       0.704440     -3.965574     -0.010420
  H       0.430786     -3.145867     -1.583970
  H      -0.880058     -3.191653     -0.337640
  H      -2.835615     -0.149040     -1.628082
  H      -1.552443      1.103192     -1.815646
  H      -2.641750      1.102594     -0.366689
  H       0.889791      2.178480     -0.386816
  H       2.328735      1.994180      0.679988
  H       0.714050      2.238861      1.414797
  Li      2.196828     -1.307470      1.367790
  C       3.997388     -0.279397      3.948509
  O       3.698272     -0.569758      2.517666
  P       4.592245      0.106113      1.376841
  O       4.508607      1.584363      1.195467
  O       6.036412     -0.458891      1.614203
  C       7.284517      0.126827      1.094843
  O       3.859355     -0.710148      0.185716
  C       4.090975     -0.379175     -1.226176
  H       3.187479     -0.737713      4.512491
  H       4.011737      0.802077      4.096770
  H       4.953618     -0.739160      4.200449
  H       7.903863      0.348758      1.968199
  H       7.077488      1.029895      0.517583
  H       7.756316     -0.650644      0.491457
  H       3.106523     -0.189561     -1.675336
  H       4.541642     -1.259660     -1.691313
  H       4.728608      0.503007     -1.317478
35
Coordinates from ORCA-job TMP_m2_shell2_oxidized_opt_relaxed E -1530.890755658160
  C       0.196209     -3.149803     -0.520523
  O       0.728109     -1.903918      0.101001
  P       0.333236     -0.484613     -0.520958
  O       0.854909     -0.136624     -1.875126
  O      -1.224540     -0.396224     -0.361075
  C      -2.120145      0.499761     -1.113621
  O       1.069346      0.343085      0.660307
  C       1.251397      1.798119      0.577634
  H       0.705204     -3.966538     -0.012619
  H       0.433942     -3.145716     -1.586051
  H      -0.878672     -3.191990     -0.341257
  H      -2.835545     -0.147143     -1.624242
  H      -1.553976      1.103711     -1.823436
  H      -2.636505      1.111020     -0.369086
  H       0.884956      2.179798     -0.377935
  H       2.327533      1.992668      0.683638
  H       0.715631      2.235022      1.424505
  Li      2.196237     -1.311835      1.370474
  C       3.997398     -0.276062      3.946897
  O       3.697444     -0.568502      2.516403
  P       4.590568      0.106208      1.374250
  O       4.504708      1.583928      1.189980
  O       6.035347     -0.458403      1.610717
  C       7.284733      0.130584      1.096091
  O       3.858334     -0.713592      0.184767
  C       4.089533     -0.385808     -1.227891
  H       3.188452     -0.734877      4.511888
  H       4.010246      0.805653      4.093855
  H       4.954342     -0.734487      4.198714
  H       7.899653      0.346539      1.971289
  H       7.079656      1.036195      0.522790
  H       7.759607     -0.644537      0.488983
  H       3.105051     -0.190602     -1.675297
  H       4.533543     -1.270424     -1.692538
  H       4.733294      0.492111     -1.321105
35
Coordinates from ORCA-job TMP_m2_shell2_oxidized_opt_relaxed E -1530.890767226928
  C       0.197241     -3.149583     -0.521954
  O       0.728988     -1.904159      0.100707
  P       0.333139     -0.483703     -0.519514
  O       0.855972     -0.133559     -1.872770
  O      -1.225219     -0.394832     -0.359695
  C      -2.119923      0.502254     -1.116096
  O       1.067560      0.342669      0.664023
  C       1.246380      1.798488      0.584774
  H       0.705566     -3.966834     -0.013915
  H       0.436095     -3.145023     -1.587258
  H      -0.878009     -3.191774     -0.343772
  H      -2.838193     -0.144755     -1.624227
  H      -1.554227      1.103724     -1.830044
  H      -2.631515      1.118163     -0.372717
  H       0.876082      2.181733     -0.368242
  H       2.321907      1.994575      0.688209
  H       0.712518      2.232211      1.434722
  Li      2.195416     -1.316049      1.373588
  C       3.997155     -0.274097      3.945406
  O       3.696897     -0.567699      2.515191
  P       4.590435      0.105834      1.371938
  O       4.503885      1.583557      1.185851
  O       6.035881     -0.458894      1.607847
  C       7.286160      0.133901      1.095813
  O       3.857958     -0.715913      0.183751
  C       4.092605     -0.393706     -1.229681
  H       3.188565     -0.733063      4.511021
  H       4.009290      0.807773      4.091619
  H       4.954500     -0.731906      4.197518
  H       7.900735      0.347118      1.972125
  H       7.081698      1.041484      0.526233
  H       7.760643     -0.638110      0.485282
  H       3.109930     -0.195219     -1.678695
  H       4.532469     -1.281800     -1.691717
  H       4.740650      0.479899     -1.323897
35
Coordinates from ORCA-job TMP_m2_shell2_oxidized_opt_relaxed E -1530.890784124330
  C       0.196924     -3.145916     -0.524181
  O       0.730361     -1.902175      0.099550
  P       0.334471     -0.479227     -0.517590
  O       0.859549     -0.126643     -1.868896
  O      -1.223913     -0.390640     -0.357506
  C      -2.119928      0.500476     -1.119834
  O       1.067106      0.344058      0.669293
  C       1.242569      1.800408      0.596048
  H       0.702746     -3.964569     -0.015804
  H       0.437295     -3.141713     -1.589127
  H      -0.878697     -3.186489     -0.347577
  H      -2.836701     -0.150996     -1.621040
  H      -1.555386      1.096947     -1.838209
  H      -2.632986      1.122465     -0.380535
  H       0.862350      2.187560     -0.351384
  H       2.318815      1.997980      0.690454
  H       0.715470      2.228243      1.453243
  Li      2.193754     -1.323607      1.379024
  C       3.998576     -0.271804      3.940669
  O       3.696332     -0.566116      2.511281
  P       4.589577      0.105886      1.366159
  O       4.501531      1.583054      1.177942
  O       6.034988     -0.459304      1.601952
  C       7.286596      0.138570      1.099716
  O       3.856020     -0.718035      0.180532
  C       4.095314     -0.404971     -1.233926
  H       3.191447     -0.731260      4.508050
  H       4.009792      0.810082      4.086743
  H       4.956687     -0.728583      4.191932
  H       7.895145      0.348711      1.980454
  H       7.081767      1.047609      0.533103
  H       7.767532     -0.630051      0.487982
  H       3.115282     -0.194855     -1.684022
  H       4.523047     -1.301323     -1.691907
  H       4.755808      0.458933     -1.331171
35
Coordinates from ORCA-job TMP_m2_shell2_oxidized_opt_relaxed E -1530.890798234589
  C       0.195967     -3.144176     -0.523357
  O       0.731066     -1.901473      0.100319
  P       0.337633     -0.477922     -0.516279
  O       0.865444     -0.125350     -1.866022
  O      -1.220372     -0.388100     -0.357539
  C      -2.114582      0.500997     -1.124082
  O       1.068407      0.343883      0.672143
  C       1.240318      1.800241      0.604244
  H       0.699100     -3.963438     -0.013668
  H       0.438107     -3.141152     -1.587853
  H      -0.879785     -3.182265     -0.348369
  H      -2.832358     -0.151382     -1.623603
  H      -1.549016      1.094366     -1.844078
  H      -2.626073      1.126218     -0.388197
  H       0.850774      2.191962     -0.338008
  H       2.317014      1.999779      0.690115
  H       0.719257      2.221799      1.468132
  Li      2.191930     -1.332150      1.385593
  C       4.000130     -0.272165      3.937639
  O       3.696116     -0.566275      2.508756
  P       4.586619      0.106625      1.362901
  O       4.496247      1.583406      1.174887
  O       6.032197     -0.457219      1.597246
  C       7.283164      0.143753      1.099745
  O       3.852492     -0.717401      0.178732
  C       4.095273     -0.411388     -1.235857
  H       3.194671     -0.732887      4.506030
  H       4.010018      0.809655      4.083934
  H       4.959153     -0.727680      4.186928
  H       7.888957      0.353691      1.982558
  H       7.077666      1.053023      0.532939
  H       7.766472     -0.622947      0.488600
  H       3.118036     -0.189285     -1.686348
  H       4.510721     -1.315292     -1.690234
  H       4.768473      0.443252     -1.336524
35
Coordinates from ORCA-job TMP_m2_shell2_oxidized_opt_relaxed E -1530.890811095604
  C       0.199409     -3.140769     -0.524400
  O       0.733244     -1.898308      0.099664
  P       0.336921     -0.474893     -0.517091
  O       0.860667     -0.123525     -1.868549
  O      -1.221015     -0.387986     -0.353178
  C      -2.118789      0.495474     -1.119758
  O       1.070092      0.347260      0.668531
  C       1.239388      1.803635      0.603357
  H       0.702678     -3.960492     -0.015406
  H       0.441342     -3.137596     -1.588986
  H      -0.876523     -3.180339     -0.350163
  H      -2.839430     -0.160017     -1.612079
  H      -1.555404      1.083458     -1.845237
  H      -2.628139      1.124840     -0.385572
  H       0.849543      2.195602     -0.338385
  H       2.316007      2.005632      0.689858
  H       0.717086      2.223503      1.467173
  Li      2.191235     -1.332846      1.387020
  C       3.997069     -0.270809      3.935427
  O       3.694446     -0.564812      2.506715
  P       4.587827      0.107765      1.361595
  O       4.502068      1.585224      1.177042
  O       6.031431     -0.461007      1.597018
  C       7.284276      0.138159      1.102227
  O       3.851342     -0.711706      0.176712
  C       4.098756     -0.410540     -1.237963
  H       3.190459     -0.730022      4.503581
  H       4.008560      0.810971      4.081932
  H       4.955221     -0.727370      4.186492
  H       7.892605      0.341601      1.986171
  H       7.081102      1.051216      0.540918
  H       7.764373     -0.626603      0.486851
  H       3.123414     -0.188544     -1.692628
  H       4.514684     -1.315771     -1.688708
  H       4.773292      0.442319     -1.338758
35
Coordinates from ORCA-job TMP_m2_shell2_oxidized_opt_relaxed E -1530.890818652520
  C       0.202872     -3.140324     -0.524469
  O       0.735093     -1.897447      0.099957
  P       0.337716     -0.475199     -0.518457
  O       0.858509     -0.125555     -1.871534
  O      -1.220103     -0.389382     -0.351328
  C      -2.119692      0.493246     -1.116276
  O       1.072385      0.348263      0.664711
  C       1.241342      1.804522      0.600111
  H       0.706800     -3.959870     -0.015802
  H       0.444784     -3.136753     -1.589079
  H      -0.873095     -3.181243     -0.350649
  H      -2.844329     -0.162572     -1.602945
  H      -1.558660      1.077473     -1.846793
  H      -2.624304      1.126000     -0.381829
  H       0.854259      2.197008     -0.342577
  H       2.317480      2.007044      0.689835
  H       0.716762      2.224627      1.462577
  Li      2.190922     -1.332789      1.387708
  C       3.994071     -0.270050      3.935480
  O       3.692777     -0.564434      2.506656
  P       4.587185      0.108916      1.362472
  O       4.504448      1.586978      1.180895
  O       6.029639     -0.462717      1.597800
  C       7.283438      0.133910      1.102190
  O       3.849821     -0.707472      0.176410
  C       4.097920     -0.406679     -1.238170
  H       3.186459     -0.728134      4.503134
  H       4.006609      0.811785      4.081645
  H       4.951580     -0.727282      4.187833
  H       7.895008      0.330648      1.985432
  H       7.082853      1.050652      0.545990
  H       7.759054     -0.629608      0.482088
  H       3.122778     -0.186545     -1.693941
  H       4.515617     -1.311311     -1.688374
  H       4.771240      0.447002     -1.339277
35
Coordinates from ORCA-job TMP_m2_shell2_oxidized_opt_relaxed E -1530.890827665522
  C       0.209083     -3.140897     -0.524476
  O       0.738242     -1.897005      0.101014
  P       0.339378     -0.476932     -0.520527
  O       0.854945     -0.130261     -1.876485
  O      -1.218235     -0.391921     -0.348292
  C      -2.120740      0.490566     -1.110065
  O       1.076548      0.349293      0.658738
  C       1.246695      1.804825      0.591696
  H       0.714931     -3.959871     -0.016747
  H       0.450732     -3.135860     -1.589180
  H      -0.866817     -3.184531     -0.350795
  H      -2.853122     -0.165104     -1.585650
  H      -1.564343      1.067440     -1.850456
  H      -2.615352      1.130306     -0.374860
  H       0.864923      2.195904     -0.353726
  H       2.322701      2.007575      0.686857
  H       0.718674      2.227630      1.450499
  Li      2.190414     -1.332455      1.388754
  C       3.988968     -0.269149      3.936636
  O       3.689602     -0.564464      2.507508
  P       4.585319      0.110303      1.364852
  O       4.507317      1.589363      1.187941
  O       6.026337     -0.465461      1.599269
  C       7.281518      0.127058      1.101864
  O       3.847058     -0.701890      0.176509
  C       4.094466     -0.397754     -1.237309
  H       3.179547     -0.725154      4.503438
  H       4.003439      0.812838      4.081860
  H       4.945316     -0.727750      4.190988
  H       7.898781      0.310637      1.983457
  H       7.085210      1.050974      0.555999
  H       7.749014     -0.633695      0.472049
  H       3.118664     -0.180257     -1.693424
  H       4.515188     -1.299934     -1.689272
  H       4.764837      0.458339     -1.337239
35
Coordinates from ORCA-job TMP_m2_shell2_oxidized_opt_relaxed E -1530.890831982983
  C       0.212161     -3.141551     -0.524399
  O       0.740092     -1.897130      0.101585
  P       0.340916     -0.477752     -0.521364
  O       0.854211     -0.132203     -1.878516
  O      -1.216614     -0.392700     -0.347206
  C      -2.120336      0.489671     -1.107845
  O       1.078832      0.349738      0.656941
  C       1.249378      1.805165      0.588296
  H       0.719217     -3.960088     -0.017144
  H       0.453537     -3.135580     -1.589146
  H      -0.863616     -3.186338     -0.350271
  H      -2.857157     -0.165778     -1.576395
  H      -1.566249      1.061244     -1.854135
  H      -2.609031      1.134375     -0.372842
  H       0.869721      2.195782     -0.358258
  H       2.324998      2.007498      0.685573
  H       0.720412      2.229473      1.446030
  Li      2.189961     -1.333140      1.389832
  C       3.986728     -0.268816      3.937141
  O       3.687709     -0.564720      2.507898
  P       4.583691      0.110546      1.365723
  O       4.507484      1.589953      1.190314
  O       6.024329     -0.466630      1.599543
  C       7.279880      0.124672      1.101630
  O       3.845377     -0.700815      0.176483
  C       4.092362     -0.394149     -1.236936
  H       3.176492     -0.723576      4.503778
  H       4.002320      0.813264      4.081595
  H       4.942493     -0.728279      4.192144
  H       7.900128      0.300815      1.982416
  H       7.084842      1.052721      0.562344
  H       7.743385     -0.633621      0.465731
  H       3.116309     -0.176533     -1.692321
  H       4.513169     -1.295448     -1.690779
  H       4.762109      0.462637     -1.336016
35
Coordinates from ORCA-job TMP_m2_shell2_oxidized_opt_relaxed E -1530.890836821918
  C       0.215816     -3.142351     -0.524660
  O       0.742447     -1.897386      0.102190
  P       0.342558     -0.478384     -0.521455
  O       0.853323     -0.133485     -1.879678
  O      -1.214846     -0.393114     -0.345442
  C      -2.119754      0.488966     -1.105336
  O       1.081075      0.350532      0.656349
  C       1.251765      1.805635      0.583823
  H       0.724893     -3.960270     -0.018490
  H       0.456435     -3.134625     -1.589535
  H      -0.859653     -3.188716     -0.349290
  H      -2.862544     -0.166116     -1.564264
  H      -1.568250      1.052766     -1.859394
  H      -2.600237      1.140943     -0.371330
  H       0.872421      2.193691     -0.363929
  H       2.327657      2.008005      0.681057
  H       0.723097      2.232156      1.440461
  Li      2.189154     -1.334763      1.391825
  C       3.984532     -0.268621      3.937709
  O       3.685226     -0.565069      2.508361
  P       4.581523      0.110134      1.366522
  O       4.506763      1.589733      1.191941
  O       6.022034     -0.468055      1.599684
  C       7.277776      0.122638      1.101632
  O       3.843527     -0.701274      0.176422
  C       4.090652     -0.390507     -1.236136
  H       3.173413     -0.721816      4.504329
  H       4.001644      0.813556      4.081182
  H       4.939545     -0.729445      4.192953
  H       7.901599      0.289176      1.981538
  H       7.083575      1.055999      0.571222
  H       7.736359     -0.631904      0.457415
  H       3.114651     -0.170158     -1.690477
  H       4.509734     -1.291130     -1.692904
  H       4.761326      0.465963     -1.332866
35
Coordinates from ORCA-job TMP_m2_shell2_oxidized_opt_relaxed E -1530.890840008432
  C       0.217323     -3.142924     -0.524694
  O       0.743956     -1.897855      0.102287
  P       0.343975     -0.478536     -0.521176
  O       0.854456     -0.133476     -1.879372
  O      -1.213421     -0.393200     -0.345361
  C      -2.118092      0.489310     -1.105104
  O       1.082175      0.350790      0.657235
  C       1.252794      1.806019      0.582461
  H       0.727635     -3.960547     -0.019292
  H       0.457007     -3.134331     -1.589741
  H      -0.857884     -3.189842     -0.347944
  H      -2.864576     -0.164964     -1.558800
  H      -1.567121      1.048157     -1.862987
  H      -2.593814      1.145709     -0.371868
  H       0.872839      2.192676     -0.365640
  H       2.328676      2.007812      0.678585
  H       0.724940      2.233697      1.439248
  Li      2.188552     -1.336466      1.393383
  C       3.983927     -0.268926      3.938001
  O       3.683681     -0.565439      2.508695
  P       4.579785      0.109469      1.366750
  O       4.504336      1.588821      1.191404
  O       6.020681     -0.468046      1.600043
  C       7.275756      0.123235      1.101208
  O       3.842658     -0.703320      0.176637
  C       4.089630     -0.390061     -1.235603
  H       3.172563     -0.721232      4.504975
  H       4.001941      0.813279      4.081006
  H       4.938603     -0.730655      4.192822
  H       7.902237      0.285055      1.980265
  H       7.080533      1.059195      0.575811
  H       7.731600     -0.628760      0.452083
  H       3.113732     -0.166955     -1.688616
  H       4.506656     -1.290659     -1.694458
  H       4.761497      0.465675     -1.330816
35
Coordinates from ORCA-job TMP_m2_shell2_oxidized_opt_relaxed E -1530.890843146425
  C       0.219232     -3.143399     -0.525081
  O       0.745701     -1.898064      0.101652
  P       0.344487     -0.478564     -0.521021
  O       0.854505     -0.133054     -1.879171
  O      -1.212911     -0.394250     -0.345191
  C      -2.117487      0.489607     -1.103469
  O       1.082399      0.351479      0.657407
  C       1.251924      1.806962      0.579960
  H       0.731414     -3.960580     -0.020893
  H       0.457218     -3.133904     -1.590487
  H      -0.855582     -3.191447     -0.346387
  H      -2.868253     -0.163201     -1.552035
  H      -1.567230      1.044156     -1.864860
  H      -2.587676      1.149926     -0.370272
  H       0.871177      2.191112     -0.368864
  H       2.327859      2.009213      0.674903
  H       0.723996      2.235628      1.436080
  Li      2.188196     -1.337104      1.394126
  C       3.983008     -0.269122      3.938477
  O       3.682209     -0.565163      2.509066
  P       4.578873      0.108997      1.367299
  O       4.502714      1.588025      1.190965
  O       6.019929     -0.467937      1.601801
  C       7.274461      0.122655      1.100938
  O       3.842910     -0.704737      0.176954
  C       4.090716     -0.389527     -1.234949
  H       3.171124     -0.720518      4.505424
  H       4.002135      0.813057      4.081410
  H       4.937139     -0.732070      4.193023
  H       7.904342      0.279432      1.978578
  H       7.078751      1.061077      0.580091
  H       7.726383     -0.627444      0.446858
  H       3.115227     -0.164405     -1.687667
  H       4.506868     -1.289933     -1.694960
  H       4.763482      0.465804     -1.328283
35
Coordinates from ORCA-job TMP_m2_shell2_oxidized_opt_relaxed E -1530.890846836167
  C       0.220851     -3.143789     -0.525283
  O       0.747844     -1.898445      0.100756
  P       0.345707     -0.478772     -0.521072
  O       0.856723     -0.132677     -1.878645
  O      -1.211835     -0.396053     -0.346445
  C      -2.115471      0.490655     -1.102515
  O       1.082625      0.351683      0.657559
  C       1.251241      1.807524      0.578127
  H       0.734711     -3.960849     -0.022607
  H       0.456529     -3.133782     -1.591202
  H      -0.853548     -3.192689     -0.344342
  H      -2.871439     -0.159633     -1.546143
  H      -1.565464      1.040883     -1.867067
  H      -2.579376      1.154909     -0.368785
  H       0.869761      2.189623     -0.371186
  H       2.327133      2.009924      0.671749
  H       0.723235      2.236993      1.433856
  Li      2.187742     -1.338369      1.395334
  C       3.982235     -0.269817      3.939262
  O       3.680568     -0.564941      2.509806
  P       4.577381      0.108842      1.368077
  O       4.498887      1.587327      1.190076
  O       6.018927     -0.466229      1.604567
  C       7.272246      0.123624      1.099812
  O       3.843327     -0.706517      0.177819
  C       4.091235     -0.390211     -1.234029
  H       3.169987     -0.720402      4.506339
  H       4.002542      0.812277      4.082586
  H       4.935886     -0.734017      4.193252
  H       7.906846      0.275408      1.975121
  H       7.075558      1.064270      0.583492
  H       7.719445     -0.624652      0.440427
  H       3.116028     -0.163042     -1.686121
  H       4.506173     -1.290716     -1.694931
  H       4.764996      0.464364     -1.326219
35
Coordinates from ORCA-job TMP_m2_shell2_oxidized_opt_relaxed E -1530.890850954079
  C       0.223804     -3.144422     -0.525644
  O       0.750942     -1.898604      0.099018
  P       0.346701     -0.479361     -0.522177
  O       0.858284     -0.132770     -1.879467
  O      -1.211110     -0.399762     -0.348393
  C      -2.114373      0.491562     -1.099458
  O       1.082332      0.352322      0.655816
  C       1.248898      1.808695      0.574390
  H       0.740373     -3.961078     -0.025073
  H       0.455998     -3.133910     -1.592356
  H      -0.849992     -3.195032     -0.341601
  H      -2.878180     -0.154743     -1.535491
  H      -1.566044      1.036481     -1.869065
  H      -2.568331      1.160875     -0.364060
  H       0.868012      2.188285     -0.376207
  H       2.324352      2.012417      0.668532
  H       0.718887      2.238939      1.428423
  Li      2.187569     -1.338296      1.395656
  C       3.980276     -0.270360      3.940636
  O       3.678587     -0.563921      2.510855
  P       4.576372      0.109516      1.369648
  O       4.495868      1.587559      1.190149
  O       6.018059     -0.463887      1.609478
  C       7.270449      0.122580      1.098515
  O       3.844820     -0.706851      0.178889
  C       4.093450     -0.389972     -1.232854
  H       3.166968     -0.719752      4.507145
  H       4.002456      0.811596      4.084786
  H       4.932988     -0.736452      4.194624
  H       7.912130      0.265817      1.969995
  H       7.074351      1.066920      0.588658
  H       7.709489     -0.623732      0.431386
  H       3.118570     -0.162571     -1.685470
  H       4.509042     -1.290108     -1.693775
  H       4.767242      0.464727     -1.324081
35
Coordinates from ORCA-job TMP_m2_shell2_oxidized_opt_relaxed E -1530.890854630702
  C       0.225933     -3.144954     -0.525755
  O       0.753567     -1.898839      0.097599
  P       0.348279     -0.480184     -0.523648
  O       0.861362     -0.133301     -1.880464
  O      -1.209893     -0.403313     -0.351592
  C      -2.112579      0.492816     -1.097684
  O       1.082044      0.352369      0.654130
  C       1.247578      1.808917      0.572148
  H       0.744423     -3.961498     -0.026956
  H       0.455144     -3.134300     -1.593153
  H      -0.847399     -3.196621     -0.339259
  H      -2.883827     -0.149429     -1.526682
  H      -1.566083      1.032820     -1.872148
  H      -2.557019      1.166868     -0.360585
  H       0.867776      2.187479     -0.379252
  H       2.322689      2.013601      0.667544
  H       0.715902      2.239544      1.424979
  Li      2.187341     -1.338601      1.396285
  C       3.978653     -0.271148      3.942111
  O       3.677054     -0.563162      2.512055
  P       4.575051      0.110792      1.371168
  O       4.492055      1.588528      1.190335
  O       6.017115     -0.460244      1.613900
  C       7.268521      0.123018      1.096805
  O       3.846011     -0.706923      0.180119
  C       4.094295     -0.390670     -1.231686
  H       3.164478     -0.719700      4.508052
  H       4.002420      0.810652      4.087294
  H       4.930631     -0.738721      4.196120
  H       7.916957      0.258194      1.964445
  H       7.073369      1.070818      0.593177
  H       7.699883     -0.621413      0.422409
  H       3.119402     -0.163713     -1.684572
  H       4.510103     -1.290892     -1.692248
  H       4.768003      0.463914     -1.323567
35
Coordinates from ORCA-job TMP_m2_shell2_oxidized_opt_relaxed E -1530.890858087278
  C       0.227519     -3.145557     -0.525856
  O       0.755580     -1.898988      0.096158
  P       0.349524     -0.480983     -0.525552
  O       0.863998     -0.133801     -1.881974
  O      -1.209025     -0.406698     -0.355449
  C      -2.111561      0.493777     -1.096458
  O       1.081034      0.352420      0.652442
  C       1.245511      1.809018      0.571160
  H       0.747702     -3.961885     -0.028427
  H       0.454148     -3.134947     -1.593843
  H      -0.845408     -3.198016     -0.337223
  H      -2.889871     -0.144564     -1.518200
  H      -1.567425      1.028912     -1.876180
  H      -2.546450      1.172637     -0.357933
  H       0.867193      2.187816     -0.380767
  H       2.320131      2.014998      0.668872
  H       0.711999      2.239322      1.423053
  Li      2.187307     -1.338244      1.396327
  C       3.977237     -0.271533      3.943397
  O       3.676256     -0.562203      2.513019
  P       4.574460      0.112390      1.372400
  O       4.489721      1.590023      1.190504
  O       6.016764     -0.456472      1.617761
  C       7.267691      0.123145      1.095491
  O       3.847579     -0.706613      0.181023
  C       4.095500     -0.391755     -1.230793
  H       3.162044     -0.719270      4.508509
  H       4.002533      0.810129      4.089510
  H       4.928457     -0.740425      4.197839
  H       7.922161      0.249880      1.959517
  H       7.074205      1.074754      0.598253
  H       7.691546     -0.619177      0.413874
  H       3.120475     -0.165942     -1.684467
  H       4.511645     -1.292224     -1.690470
  H       4.769056      0.462782     -1.324092
35
Coordinates from ORCA-job TMP_m2_shell2_oxidized_opt_relaxed E -1530.890860981955
  C       0.227954     -3.146071     -0.526083
  O       0.756534     -1.899317      0.095300
  P       0.350799     -0.481558     -0.526969
  O       0.867065     -0.133936     -1.882734
  O      -1.208058     -0.408763     -0.359564
  C      -2.110177      0.494930     -1.097165
  O       1.079811      0.352072      0.652258
  C       1.244354      1.808358      0.572467
  H       0.749110     -3.962320     -0.029538
  H       0.453071     -3.135351     -1.594408
  H      -0.844716     -3.198711     -0.336081
  H      -2.894283     -0.140303     -1.512524
  H      -1.567945      1.024969     -1.881739
  H      -2.536942      1.178635     -0.358217
  H       0.866752      2.188457     -0.379204
  H       2.318896      2.014939      0.671729
  H       0.710434      2.237888      1.424500
  Li      2.187029     -1.338645      1.396933
  C       3.976694     -0.271718      3.944300
  O       3.676065     -0.561670      2.513781
  P       4.573756      0.113731      1.373067
  O       4.487267      1.591290      1.190089
  O       6.016584     -0.452587      1.619936
  C       7.267033      0.124999      1.094241
  O       3.848548     -0.707207      0.181825
  C       4.095617     -0.394167     -1.230101
  H       3.160846     -0.718878      4.508927
  H       4.003041      0.809866      4.090934
  H       4.927446     -0.741418      4.199035
  H       7.926079      0.244652      1.955613
  H       7.074641      1.080020      0.603239
  H       7.685130     -0.614822      0.406151
  H       3.120449     -0.168555     -1.683960
  H       4.510481     -1.295652     -1.689055
  H       4.769869      0.459547     -1.325557
35
Coordinates from ORCA-job TMP_m2_shell2_oxidized_opt_relaxed E -1530.890863201580
  C       0.227154     -3.146321     -0.526479
  O       0.756013     -1.899640      0.095097
  P       0.351047     -0.481589     -0.527381
  O       0.868467     -0.133415     -1.882534
  O      -1.207905     -0.408952     -0.362042
  C      -2.109645      0.495401     -1.099202
  O       1.078439      0.351607      0.653488
  C       1.243579      1.807594      0.575537
  H       0.748354     -3.962583     -0.030002
  H       0.452251     -3.135427     -1.594791
  H      -0.845485     -3.198660     -0.336273
  H      -2.896124     -0.138744     -1.511307
  H      -1.567983      1.022022     -1.886505
  H      -2.532771      1.182244     -0.361070
  H       0.865712      2.189597     -0.375269
  H       2.318263      2.014057      0.675122
  H       0.710454      2.235999      1.428684
  Li      2.186796     -1.339095      1.397320
  C       3.977196     -0.271103      3.944253
  O       3.676759     -0.561512      2.513828
  P       4.573918      0.114028      1.372740
  O       4.486894      1.591558      1.189116
  O       6.017082     -0.450911      1.619696
  C       7.267458      0.126770      1.093960
  O       3.848975     -0.708330      0.182001
  C       4.095447     -0.396554     -1.230000
  H       3.161142     -0.717848      4.508909
  H       4.003854      0.810526      4.090549
  H       4.927823     -0.740879      4.199348
  H       7.927783      0.243029      1.954693
  H       7.075124      1.083807      0.606670
  H       7.683673     -0.610951      0.402479
  H       3.120211     -0.169989     -1.683801
  H       4.508352     -1.299074     -1.688619
  H       4.770931      0.456041     -1.326791
35
Coordinates from ORCA-job TMP_m2_shell2_oxidized_opt_relaxed E -1530.890865066464
  C       0.226997     -3.146854     -0.527597
  O       0.755720     -1.900280      0.094671
  P       0.351334     -0.481747     -0.527654
  O       0.870125     -0.132617     -1.881937
  O      -1.207719     -0.409621     -0.365084
  C      -2.108737      0.496306     -1.101223
  O       1.076706      0.350988      0.655285
  C       1.242613      1.806684      0.578838
  H       0.748881     -3.963006     -0.031694
  H       0.451822     -3.135081     -1.595937
  H      -0.845501     -3.199479     -0.336788
  H      -2.900134     -0.135733     -1.506736
  H      -1.568267      1.016321     -1.893586
  H      -2.524521      1.188909     -0.364314
  H       0.864100      2.190305     -0.371058
  H       2.317625      2.012766      0.678093
  H       0.710623      2.233927      1.433202
  Li      2.186195     -1.340098      1.398306
  C       3.977379     -0.269868      3.944392
  O       3.677117     -0.561232      2.514123
  P       4.573735      0.114140      1.372651
  O       4.485758      1.591498      1.187976
  O       6.017431     -0.448842      1.619939
  C       7.267435      0.128931      1.093213
  O       3.849351     -0.710195      0.182606
  C       4.095546     -0.399550     -1.229561
  H       3.160899     -0.715634      4.509198
  H       4.004679      0.811861      4.089815
  H       4.927674     -0.740019      4.200019
  H       7.930834      0.238435      1.952484
  H       7.075175      1.089593      0.613124
  H       7.679286     -0.605075      0.395148
  H       3.120570     -0.170856     -1.682968
  H       4.505465     -1.303550     -1.688039
  H       4.773043      0.451373     -1.327481
35
Coordinates from ORCA-job TMP_m2_shell2_oxidized_opt_relaxed E -1530.890866258928
  C       0.226880     -3.147176     -0.528482
  O       0.755112     -1.900761      0.094589
  P       0.350888     -0.481878     -0.527396
  O       0.870124     -0.132226     -1.881288
  O      -1.208158     -0.409813     -0.365889
  C      -2.108671      0.496545     -1.102143
  O       1.075833      0.350435      0.656334
  C       1.242405      1.806104      0.580355
  H       0.748909     -3.963329     -0.032740
  H       0.452049     -3.134791     -1.596728
  H      -0.845631     -3.200146     -0.337861
  H      -2.902129     -0.134726     -1.504657
  H      -1.568375      1.013280     -1.896746
  H      -2.521357      1.191849     -0.366095
  H       0.863409      2.190305     -0.369107
  H       2.317647      2.011518      0.678820
  H       0.711198      2.232972      1.435397
  Li      2.185874     -1.340515      1.398667
  C       3.977529     -0.268595      3.944299
  O       3.677481     -0.561203      2.514214
  P       4.574008      0.113682      1.372533
  O       4.485967      1.590962      1.187606
  O       6.017856     -0.448887      1.619658
  C       7.267708      0.129427      1.093008
  O       3.849321     -0.711030      0.182921
  C       4.095589     -0.400313     -1.229316
  H       3.160896     -0.713718      4.509393
  H       4.004905      0.813265      4.088717
  H       4.927711     -0.738675      4.200464
  H       7.932192      0.235807      1.951846
  H       7.075194      1.091827      0.616398
  H       7.677849     -0.602602      0.391970
  H       3.120798     -0.169966     -1.682353
  H       4.504119     -1.304755     -1.688054
  H       4.774108      0.449830     -1.326913
35
Coordinates from ORCA-job TMP_m2_shell2_oxidized_opt_relaxed E -1530.890868161945
  C       0.226585     -3.147772     -0.530257
  O       0.753493     -1.901752      0.094641
  P       0.349635     -0.482389     -0.526636
  O       0.869755     -0.131901     -1.879906
  O      -1.209398     -0.410184     -0.366736
  C      -2.108805      0.497105     -1.103376
  O       1.074420      0.349059      0.657918
  C       1.242476      1.804754      0.582362
  H       0.748406     -3.964084     -0.034565
  H       0.453035     -3.134278     -1.598209
  H      -0.846099     -3.201452     -0.340824
  H      -2.905329     -0.132993     -1.501688
  H      -1.568450      1.008953     -1.901014
  H      -2.517067      1.196263     -0.368561
  H       0.862489      2.189624     -0.366451
  H       2.318195      2.008722      0.678825
  H       0.712803      2.231369      1.438384
  Li      2.185297     -1.341042      1.399186
  C       3.977809     -0.266156      3.944347
  O       3.678314     -0.561335      2.514630
  P       4.574600      0.112755      1.372612
  O       4.486494      1.590004      1.187624
  O       6.018693     -0.449416      1.619054
  C       7.268244      0.130039      1.092479
  O       3.848979     -0.711832      0.183710
  C       4.095687     -0.400935     -1.228791
  H       3.161141     -0.710521      4.510010
  H       4.004744      0.815972      4.086819
  H       4.928030     -0.735597      4.201515
  H       7.934243      0.231776      1.950779
  H       7.075336      1.094908      0.621114
  H       7.676014     -0.599083      0.387132
  H       3.121394     -0.167805     -1.681047
  H       4.502196     -1.306069     -1.687947
  H       4.775879      0.447997     -1.325710
35
Coordinates from ORCA-job TMP_m2_shell2_oxidized_opt_relaxed E -1530.890869432595
  C       0.226853     -3.148357     -0.531634
  O       0.752484     -1.902582      0.094651
  P       0.348834     -0.483086     -0.526244
  O       0.869763     -0.132115     -1.879135
  O      -1.210259     -0.410915     -0.367253
  C      -2.108874      0.497416     -1.103759
  O       1.073572      0.347847      0.658538
  C       1.242617      1.803630      0.583098
  H       0.748315     -3.964852     -0.035845
  H       0.454498     -3.134160     -1.599326
  H      -0.846039     -3.202684     -0.343537
  H      -2.908890     -0.131313     -1.497132
  H      -1.569064      1.004555     -1.904846
  H      -2.512194      1.200510     -0.369977
  H       0.861958      2.188825     -0.365323
  H       2.318566      2.006615      0.678041
  H       0.714009      2.230371      1.439698
  Li      2.184837     -1.341432      1.399662
  C       3.977612     -0.264139      3.944610
  O       3.678781     -0.561435      2.515164
  P       4.574925      0.112209      1.372902
  O       4.486849      1.589548      1.188160
  O       6.019092     -0.450021      1.618771
  C       7.268467      0.129924      1.092009
  O       3.848523     -0.711731      0.184329
  C       4.095665     -0.400586     -1.228264
  H       3.160929     -0.708037      4.510625
  H       4.004043      0.818204      4.085553
  H       4.927910     -0.732884      4.202747
  H       7.936382      0.226098      1.949387
  H       7.075883      1.097506      0.625983
  H       7.673418     -0.596247      0.382089
  H       3.121755     -0.165108     -1.680033
  H       4.500670     -1.306103     -1.687819
  H       4.777347      0.447234     -1.324467
35
Coordinates from ORCA-job TMP_m2_shell2_oxidized_opt_relaxed E -1530.890870555184
  C       0.227033     -3.149085     -0.532577
  O       0.751409     -1.903415      0.094766
  P       0.348207     -0.484019     -0.526097
  O       0.870078     -0.132916     -1.878756
  O      -1.210977     -0.411676     -0.367763
  C      -2.108846      0.497919     -1.103781
  O       1.072976      0.346665      0.658539
  C       1.242797      1.802477      0.582863
  H       0.747735     -3.965732     -0.036229
  H       0.456243     -3.134653     -1.599943
  H      -0.846161     -3.203762     -0.346284
  H      -2.912275     -0.129313     -1.492578
  H      -1.569803      1.000981     -1.907975
  H      -2.507495      1.204515     -0.370746
  H       0.861311      2.187756     -0.365221
  H       2.318927      2.004844      0.676246
  H       0.715303      2.229655      1.439893
  Li      2.184461     -1.341478      1.399964
  C       3.977405     -0.262868      3.945231
  O       3.679265     -0.561665      2.515954
  P       4.575055      0.112106      1.373519
  O       4.486892      1.589669      1.189322
  O       6.019288     -0.450247      1.618633
  C       7.268491      0.129889      1.091466
  O       3.848006     -0.710865      0.184945
  C       4.095712     -0.399748     -1.227705
  H       3.160998     -0.707110      4.511388
  H       4.002812      0.819623      4.085252
  H       4.928073     -0.730514      4.204011
  H       7.938378      0.220706      1.947809
  H       7.076641      1.099892      0.630281
  H       7.670774     -0.593687      0.377327
  H       3.122247     -0.162430     -1.679150
  H       4.499419     -1.305758     -1.687498
  H       4.778856      0.446947     -1.323682
35
Coordinates from ORCA-job TMP_m2_shell2_oxidized_opt_relaxed E -1530.890871349238
  C       0.226953     -3.149852     -0.532648
  O       0.750629     -1.904143      0.095058
  P       0.348165     -0.484923     -0.526208
  O       0.870946     -0.134143     -1.878759
  O      -1.211104     -0.412048     -0.368223
  C      -2.108348      0.498432     -1.103961
  O       1.072890      0.345803      0.658237
  C       1.243125      1.801570      0.582060
  H       0.746552     -3.966577     -0.035256
  H       0.457779     -3.135869     -1.599682
  H      -0.846572     -3.204261     -0.348153
  H      -2.914465     -0.127531     -1.489146
  H      -1.569970      0.998415     -1.910584
  H      -2.503394      1.207845     -0.371631
  H       0.860581      2.186813     -0.365622
  H       2.319357      2.003736      0.673987
  H       0.716857      2.229287      1.439599
  Li      2.184231     -1.341477      1.400219
  C       3.977405     -0.262725      3.945897
  O       3.679598     -0.562085      2.516687
  P       4.574846      0.112308      1.374113
  O       4.486429      1.590088      1.190542
  O       6.019159     -0.450183      1.618364
  C       7.268174      0.130221      1.091070
  O       3.847437     -0.709874      0.185293
  C       4.095336     -0.398649     -1.227219
  H       3.161615     -0.708029      4.512103
  H       4.001480      0.819813      4.085805
  H       4.928690     -0.729093      4.204738
  H       7.939637      0.216809      1.946530
  H       7.076958      1.102095      0.633566
  H       7.668587     -0.591172      0.373625
  H       3.122122     -0.159662     -1.678423
  H       4.497602     -1.305071     -1.687427
  H       4.779949      0.446837     -1.323128
35
Coordinates from ORCA-job TMP_m2_shell2_oxidized_opt_relaxed E -1530.890872048338
  C       0.226404     -3.150590     -0.532070
  O       0.749810     -1.904739      0.095520
  P       0.348308     -0.485650     -0.526401
  O       0.871841     -0.135518     -1.878914
  O      -1.210990     -0.411859     -0.368559
  C      -2.107652      0.499044     -1.104424
  O       1.073021      0.345303      0.657913
  C       1.243260      1.800982      0.581105
  H       0.744556     -3.967283     -0.033126
  H       0.459065     -3.137592     -1.598718
  H      -0.847486     -3.204171     -0.349451
  H      -2.915357     -0.126090     -1.487592
  H      -1.569543      0.997144     -1.912377
  H      -2.500712      1.210293     -0.372737
  H       0.859104      2.186146     -0.365966
  H       2.319608      2.003321      0.671297
  H       0.718532      2.229086      1.439402
  Li      2.184120     -1.341262      1.400308
  C       3.977816     -0.263570      3.946492
  O       3.679959     -0.562627      2.517265
  P       4.574530      0.112725      1.374625
  O       4.485750      1.590668      1.191707
  O       6.018956     -0.449876      1.617893
  C       7.267776      0.131078      1.090879
  O       3.846930     -0.708919      0.185435
  C       4.095050     -0.397795     -1.226911
  H       3.163072     -0.710752      4.512721
  H       4.000074      0.818924      4.087038
  H       4.930042     -0.728368      4.204737
  H       7.940088      0.215223      1.945890
  H       7.076836      1.104008      0.635568
  H       7.667455     -0.588810      0.371419
  H       3.122141     -0.157258     -1.677999
  H       4.495597     -1.304858     -1.687468
  H       4.781277      0.446348     -1.323078
