35
Coordinates from ORCA-job TMP_m2_shell2_reduced_opt_relaxed E -1531.443817219244
  C       0.255256     -3.029250     -0.501619
  O       0.771433     -1.787732      0.073868
  P       0.222140     -0.376042     -0.520400
  O       0.508712     -0.074127     -1.933860
  O      -1.293144     -0.356857     -0.065811
  C      -2.339419      0.214751     -0.915240
  O       1.072829      0.467674      0.574582
  C       1.327239      1.892555      0.335097
  H       0.816020     -3.837624     -0.033961
  H       0.418465     -3.028528     -1.582344
  H      -0.807770     -3.121458     -0.266495
  H      -3.240681     -0.359611     -0.702677
  H      -2.061899      0.131536     -1.967949
  H      -2.485079      1.260906     -0.638063
  H       1.496615      2.060840     -0.731351
  H       2.222314      2.142922      0.905657
  H       0.469187      2.468262      0.689273
  Li      2.250695     -1.043739      1.159181
  C       3.972225     -0.273281      3.827108
  O       3.692319     -0.532004      2.414693
  P       4.716105      0.080747      1.308820
  O       4.843128      1.547009      1.234608
  O       6.042150     -0.749237      1.547621
  C       7.361221     -0.140300      1.367774
  O       3.903260     -0.626641      0.096254
  C       4.104509     -0.149055     -1.275906
  H       3.128475     -0.678851      4.384140
  H       4.055513      0.803707      3.993716
  H       4.894072     -0.785804      4.111963
  H       8.033929     -0.699236      2.017472
  H       7.333094      0.914259      1.649140
  H       7.665626     -0.251208      0.324774
  H       3.203946     -0.419184     -1.828713
  H       4.979547     -0.648434     -1.697793
  H       4.237205      0.935740     -1.272135
35
Coordinates from ORCA-job TMP_m2_shell2_reduced_opt_relaxed E -1531.444965891016
  C       0.259207     -3.035699     -0.498056
  O       0.769636     -1.794918      0.072371
  P       0.220157     -0.385335     -0.523571
  O       0.503053     -0.071822     -1.939193
  O      -1.302218     -0.353655     -0.070462
  C      -2.333909      0.232325     -0.919895
  O       1.070100      0.459458      0.573220
  C       1.325562      1.879934      0.336462
  H       0.826503     -3.833897     -0.015924
  H       0.428907     -3.040867     -1.579028
  H      -0.805486     -3.128441     -0.264238
  H      -3.244220     -0.332198     -0.715526
  H      -2.050800      0.150027     -1.972027
  H      -2.469501      1.280309     -0.640753
  H       1.504653      2.049218     -0.729091
  H       2.216034      2.127423      0.917130
  H       0.463369      2.455610      0.684606
  Li      2.249048     -1.053229      1.166414
  C       3.965327     -0.274751      3.831228
  O       3.693403     -0.531589      2.421597
  P       4.717397      0.081724      1.317685
  O       4.851890      1.550532      1.233769
  O       6.053439     -0.747967      1.545337
  C       7.362726     -0.133557      1.350875
  O       3.903890     -0.626309      0.103844
  C       4.101809     -0.150226     -1.264437
  H       3.115061     -0.692077      4.373681
  H       4.039060      0.803605      4.001158
  H       4.889659     -0.784683      4.118041
  H       8.046829     -0.686811      1.994850
  H       7.330313      0.922167      1.630470
  H       7.658550     -0.242892      0.304245
  H       3.201799     -0.430088     -1.815030
  H       4.981569     -0.644998     -1.685346
  H       4.226420      0.936383     -1.262982
35
Coordinates from ORCA-job TMP_m2_shell2_reduced_opt_relaxed E -1531.446177981671
  C       0.260019     -3.054623     -0.491700
  O       0.761226     -1.808338      0.067402
  P       0.214943     -0.403167     -0.531195
  O       0.486837     -0.064217     -1.950037
  O      -1.321110     -0.346021     -0.080253
  C      -2.323900      0.267112     -0.932784
  O       1.064889      0.441857      0.569321
  C       1.323796      1.856482      0.340417
  H       0.832902     -3.833679      0.018862
  H       0.443683     -3.076571     -1.570753
  H      -0.807034     -3.147556     -0.265600
  H      -3.253301     -0.272282     -0.742734
  H      -2.034225      0.182847     -1.983801
  H      -2.438247      1.319155     -0.655397
  H       1.524718      2.030939     -0.720912
  H       2.202132      2.101254      0.941662
  H       0.455271      2.433740      0.673329
  Li      2.244964     -1.076822      1.184031
  C       3.956011     -0.279484      3.846506
  O       3.700677     -0.529716      2.435442
  P       4.721689      0.084873      1.334866
  O       4.874949      1.557063      1.229895
  O       6.077087     -0.744804      1.539450
  C       7.367405     -0.116157      1.319042
  O       3.905052     -0.624777      0.119924
  C       4.095904     -0.153415     -1.244245
  H       3.100159     -0.723463      4.362294
  H       4.006324      0.798944      4.027562
  H       4.886254     -0.777814      4.137343
  H       8.075812     -0.659066      1.946645
  H       7.329181      0.939931      1.599595
  H       7.647280     -0.216314      0.266043
  H       3.200789     -0.453720     -1.793373
  H       4.984797     -0.635115     -1.664015
  H       4.202304      0.935630     -1.251405
35
Coordinates from ORCA-job TMP_m2_shell2_reduced_opt_relaxed E -1531.446619580312
  C       0.252952     -3.066123     -0.489137
  O       0.752977     -1.813889      0.062724
  P       0.212026     -0.410646     -0.536832
  O       0.477421     -0.059522     -1.955633
  O      -1.329183     -0.342932     -0.086340
  C      -2.319597      0.282164     -0.941839
  O       1.063033      0.431916      0.565829
  C       1.324525      1.845578      0.341927
  H       0.821265     -3.839534      0.034820
  H       0.444922     -3.098619     -1.566119
  H      -0.815707     -3.154788     -0.270673
  H      -3.258605     -0.241619     -0.754312
  H      -2.031173      0.192859     -1.992816
  H      -2.421284      1.337034     -0.669318
  H       1.537198      2.023384     -0.716474
  H       2.195826      2.090865      0.953044
  H       0.453679      2.424687      0.665586
  Li      2.242110     -1.092975      1.195729
  C       3.957478     -0.283729      3.857239
  O       3.708608     -0.527356      2.441903
  P       4.724664      0.088626      1.342069
  O       4.887611      1.560610      1.226536
  O       6.087509     -0.741238      1.537106
  C       7.370203     -0.104217      1.307188
  O       3.905247     -0.623043      0.128807
  C       4.092591     -0.154827     -1.235630
  H       3.105634     -0.744110      4.365085
  H       3.992673      0.793613      4.046071
  H       4.893535     -0.771193      4.146645
  H       8.090195     -0.645143      1.923539
  H       7.331592      0.950510      1.592867
  H       7.642418     -0.195323      0.251102
  H       3.201879     -0.465564     -1.786013
  H       4.986371     -0.627817     -1.655073
  H       4.188645      0.935063     -1.248187
35
Coordinates from ORCA-job TMP_m2_shell2_reduced_opt_relaxed E -1531.447313867329
  C       0.231983     -3.083480     -0.487659
  O       0.734751     -1.821762      0.051368
  P       0.208238     -0.420655     -0.548616
  O       0.463953     -0.052551     -1.964955
  O      -1.338219     -0.340998     -0.098236
  C      -2.312307      0.302142     -0.957639
  O       1.062276      0.413244      0.558150
  C       1.329635      1.826372      0.342474
  H       0.784828     -3.852675      0.056567
  H       0.439216     -3.133517     -1.560308
  H      -0.839974     -3.158873     -0.285204
  H      -3.265648     -0.193876     -0.766494
  H      -2.031927      0.199986     -2.009326
  H      -2.389708      1.361998     -0.696054
  H       1.560490      2.008725     -0.711047
  H       2.190174      2.072607      0.967715
  H       0.456522      2.409779      0.651129
  Li      2.236292     -1.127152      1.219501
  C       3.968290     -0.290639      3.874877
  O       3.726364     -0.520965      2.451838
  P       4.729330      0.098124      1.351327
  O       4.905276      1.567431      1.220240
  O       6.100232     -0.731598      1.535830
  C       7.373383     -0.081730      1.294289
  O       3.904279     -0.619213      0.144556
  C       4.085547     -0.155776     -1.221709
  H       3.130466     -0.780477      4.376314
  H       3.975242      0.784076      4.076802
  H       4.917231     -0.755051      4.157099
  H       8.109569     -0.624825      1.889396
  H       7.337185      0.968872      1.594047
  H       7.632181     -0.153956      0.233232
  H       3.202834     -0.482798     -1.774881
  H       4.987155     -0.613204     -1.641053
  H       4.164098      0.935120     -1.242147
35
Coordinates from ORCA-job TMP_m2_shell2_reduced_opt_relaxed E -1531.448241410744
  C       0.177420     -3.106481     -0.500633
  O       0.693960     -1.835398      0.019118
  P       0.206414     -0.431400     -0.576122
  O       0.449558     -0.044919     -1.982753
  O      -1.338367     -0.351534     -0.122112
  C      -2.301339      0.321659     -0.975212
  O       1.070060      0.375924      0.537712
  C       1.352160      1.789261      0.333673
  H       0.690322     -3.880041      0.070842
  H       0.412692     -3.182508     -1.564896
  H      -0.900840     -3.148838     -0.330626
  H      -3.270639     -0.130174     -0.757455
  H      -2.051126      0.195520     -2.030988
  H      -2.332348      1.387651     -0.729639
  H       1.606114      1.975414     -0.713349
  H       2.200602      2.034278      0.974296
  H       0.480180      2.382710      0.622920
  Li      2.224257     -1.208790      1.271248
  C       4.003393     -0.291768      3.901340
  O       3.765626     -0.502432      2.468988
  P       4.735086      0.123622      1.360034
  O       4.922419      1.583234      1.210720
  O       6.105645     -0.705255      1.545483
  C       7.374226     -0.045794      1.290807
  O       3.899804     -0.607698      0.172455
  C       4.069300     -0.148689     -1.198573
  H       3.202214     -0.831353      4.406701
  H       3.957605      0.777751      4.120485
  H       4.978557     -0.707720      4.165702
  H       8.124802     -0.606733      1.849904
  H       7.352260      0.995088      1.621026
  H       7.608949     -0.086309      0.222731
  H       3.200112     -0.500871     -1.756194
  H       4.983323     -0.578038     -1.618834
  H       4.116838      0.943338     -1.227374
35
Coordinates from ORCA-job TMP_m2_shell2_reduced_opt_relaxed E -1531.448618037169
  C       0.185623     -3.100168     -0.521990
  O       0.698817     -1.837068      0.011265
  P       0.204439     -0.429572     -0.573096
  O       0.451791     -0.041238     -1.978407
  O      -1.338625     -0.358312     -0.120445
  C      -2.306051      0.319950     -0.963955
  O       1.066573      0.375049      0.542337
  C       1.342729      1.789854      0.342914
  H       0.701685     -3.878009      0.042043
  H       0.421313     -3.164959     -1.587352
  H      -0.892884     -3.147203     -0.352001
  H      -3.273101     -0.135019     -0.743538
  H      -2.058615      0.199019     -2.021171
  H      -2.335388      1.384062     -0.710703
  H       1.590810      1.980714     -0.704835
  H       2.193818      2.033128      0.981097
  H       0.469144      2.377552      0.639994
  Li      2.223362     -1.212465      1.272601
  C       4.005592     -0.267938      3.894234
  O       3.763388     -0.501298      2.469407
  P       4.735763      0.118753      1.357645
  O       4.916859      1.579021      1.207929
  O       6.103696     -0.707171      1.554082
  C       7.375408     -0.055269      1.297077
  O       3.901306     -0.614689      0.170928
  C       4.074390     -0.161324     -1.201118
  H       3.201047     -0.796018      4.407570
  H       3.965285      0.805112      4.098193
  H       4.977186     -0.688974      4.165021
  H       8.121585     -0.617413      1.860678
  H       7.355069      0.987215      1.622935
  H       7.609803     -0.102844      0.229289
  H       3.203163     -0.512327     -1.756718
  H       4.987082     -0.597944     -1.617352
  H       4.127177      0.930496     -1.233133
35
Coordinates from ORCA-job TMP_m2_shell2_reduced_opt_relaxed E -1531.449127093976
  C       0.191015     -3.093267     -0.546755
  O       0.705028     -1.842800      0.000315
  P       0.206430     -0.428544     -0.572059
  O       0.464130     -0.039634     -1.976278
  O      -1.334336     -0.366316     -0.124686
  C      -2.305979      0.320030     -0.955449
  O       1.064141      0.373303      0.547452
  C       1.335834      1.789279      0.355271
  H       0.707551     -3.876182      0.012188
  H       0.428225     -3.150332     -1.612989
  H      -0.888258     -3.142892     -0.377372
  H      -3.270590     -0.138353     -0.732144
  H      -2.060595      0.205033     -2.014196
  H      -2.331761      1.381752     -0.692196
  H       1.581820      1.985447     -0.692239
  H       2.187934      2.027550      0.994591
  H       0.459684      2.370599      0.659053
  Li      2.220170     -1.222903      1.281508
  C       4.009229     -0.242785      3.892171
  O       3.757620     -0.495935      2.477461
  P       4.733323      0.116279      1.356765
  O       4.902546      1.578824      1.207310
  O       6.098931     -0.703631      1.561153
  C       7.373664     -0.062853      1.295251
  O       3.901396     -0.621406      0.171928
  C       4.076732     -0.175762     -1.201421
  H       3.204273     -0.763005      4.415751
  H       3.971726      0.832990      4.084237
  H       4.980677     -0.664328      4.165332
  H       8.115723     -0.626583      1.862521
  H       7.355860      0.981905      1.615239
  H       7.603393     -0.120210      0.226930
  H       3.202993     -0.528973     -1.752223
  H       4.988697     -0.619621     -1.612719
  H       4.132010      0.916027     -1.238279
35
Coordinates from ORCA-job TMP_m2_shell2_reduced_opt_relaxed E -1531.449437153687
  C       0.192087     -3.090837     -0.567382
  O       0.709716     -1.851629     -0.008150
  P       0.211645     -0.429430     -0.571316
  O       0.481415     -0.040735     -1.974606
  O      -1.327797     -0.371047     -0.131154
  C      -2.300441      0.324314     -0.952825
  O       1.063967      0.369480      0.553755
  C       1.335059      1.786263      0.368281
  H       0.704833     -3.880188     -0.012412
  H       0.431723     -3.142986     -1.633745
  H      -0.888062     -3.140529     -0.400536
  H      -3.264528     -0.134861     -0.729293
  H      -2.055645      0.214653     -2.012527
  H      -2.321915      1.383955     -0.681110
  H       1.582815      1.986342     -0.678179
  H       2.186424      2.019397      1.010692
  H       0.457199      2.364039      0.674627
  Li      2.215945     -1.238929      1.295390
  C       4.013624     -0.223437      3.894742
  O       3.751926     -0.490627      2.488098
  P       4.727793      0.115145      1.356887
  O       4.884227      1.580248      1.206881
  O       6.093283     -0.697406      1.563870
  C       7.369247     -0.063665      1.288302
  O       3.899188     -0.628273      0.175079
  C       4.073244     -0.188764     -1.200138
  H       3.212111     -0.739779      4.428626
  H       3.975696      0.854103      4.079198
  H       4.987692     -0.640499      4.167333
  H       8.110246     -0.627154      1.857069
  H       7.352909      0.982967      1.603047
  H       7.593354     -0.128709      0.219266
  H       3.198010     -0.546117     -1.746118
  H       4.985194     -0.635639     -1.608728
  H       4.127052      0.903041     -1.241500
35
Coordinates from ORCA-job TMP_m2_shell2_reduced_opt_relaxed E -1531.449708086176
  C       0.190736     -3.092372     -0.590546
  O       0.713313     -1.863674     -0.018580
  P       0.218947     -0.432902     -0.571327
  O       0.501527     -0.040329     -1.972315
  O      -1.321605     -0.375640     -0.141431
  C      -2.288879      0.335857     -0.955014
  O       1.064100      0.360083      0.562542
  C       1.334959      1.777981      0.387181
  H       0.696020     -3.889484     -0.038978
  H       0.434930     -3.139534     -1.656296
  H      -0.890628     -3.139273     -0.429180
  H      -3.256390     -0.117080     -0.733917
  H      -2.045006      0.232139     -2.015674
  H      -2.300021      1.393258     -0.674201
  H       1.586562      1.984607     -0.657125
  H       2.184062      2.006179      1.034316
  H       0.455175      2.352454      0.694629
  Li      2.209185     -1.265888      1.317994
  C       4.021591     -0.202756      3.899691
  O       3.748491     -0.484482      2.500413
  P       4.719531      0.115245      1.358806
  O       4.863771      1.582281      1.203408
  O       6.088233     -0.687626      1.567376
  C       7.361912     -0.056509      1.277224
  O       3.894404     -0.637994      0.182969
  C       4.065128     -0.208500     -1.195635
  H       3.226716     -0.717928      4.444969
  H       3.980016      0.876218      4.076603
  H       4.999806     -0.612220      4.169989
  H       8.106888     -0.616782      1.843875
  H       7.346534      0.992060      1.586007
  H       7.576780     -0.128267      0.206744
  H       3.189466     -0.572765     -1.736325
  H       4.977704     -0.656793     -1.601521
  H       4.115278      0.883140     -1.245247
35
Coordinates from ORCA-job TMP_m2_shell2_reduced_opt_relaxed E -1531.450063765761
  C       0.188019     -3.095051     -0.621724
  O       0.717703     -1.878931     -0.031468
  P       0.231691     -0.437901     -0.570047
  O       0.531408     -0.036403     -1.966025
  O      -1.312787     -0.381457     -0.157087
  C      -2.267360      0.354137     -0.963854
  O       1.065052      0.344057      0.578692
  C       1.335893      1.763890      0.419256
  H       0.680437     -3.904098     -0.075931
  H       0.439737     -3.133558     -1.686058
  H      -0.895001     -3.135678     -0.469874
  H      -3.242040     -0.086538     -0.749841
  H      -2.022793      0.258674     -2.025182
  H      -2.263201      1.408459     -0.671423
  H       1.594320      1.981152     -0.621187
  H       2.180706      1.986516      1.073538
  H       0.453509      2.334468      0.726513
  Li      2.197917     -1.308991      1.355586
  C       4.034289     -0.175587      3.907669
  O       3.745799     -0.476145      2.516194
  P       4.705563      0.115396      1.361172
  O       4.835461      1.583535      1.194007
  O       6.081294     -0.673089      1.571628
  C       7.348513     -0.040348      1.258849
  O       3.884455     -0.654765      0.196741
  C       4.049100     -0.241534     -1.187555
  H       3.250535     -0.689771      4.469636
  H       3.986883      0.904966      4.073741
  H       5.018732     -0.573448      4.172789
  H       8.103070     -0.592318      1.820878
  H       7.332894      1.011099      1.557828
  H       7.549635     -0.121214      0.186343
  H       3.173461     -0.615508     -1.721214
  H       4.962437     -0.690902     -1.590493
  H       4.093907      0.849589     -1.250674
35
Coordinates from ORCA-job TMP_m2_shell2_reduced_opt_relaxed E -1531.450423628756
  C       0.186134     -3.094857     -0.650911
  O       0.722373     -1.889536     -0.040935
  P       0.247090     -0.440856     -0.565602
  O       0.561866     -0.027325     -1.954699
  O      -1.302889     -0.386759     -0.171040
  C      -2.241981      0.370475     -0.976367
  O       1.067125      0.327538      0.599876
  C       1.337822      1.749808      0.457829
  H       0.665055     -3.916890     -0.113728
  H       0.445333     -3.121176     -1.713582
  H      -0.898179     -3.127968     -0.508794
  H      -3.224239     -0.058599     -0.773775
  H      -1.993030      0.283892     -2.037330
  H      -2.226323      1.421703     -0.673186
  H       1.604089      1.978890     -0.577973
  H       2.177519      1.968157      1.119386
  H       0.452838      2.316792      0.763683
  Li      2.186142     -1.353996      1.395990
  C       4.044866     -0.149854      3.914991
  O       3.743492     -0.468035      2.528549
  P       4.689722      0.113867      1.360579
  O       4.808245      1.581160      1.178309
  O       6.073967     -0.659876      1.574253
  C       7.332200     -0.020652      1.238829
  O       3.872197     -0.676133      0.210131
  C       4.031233     -0.280288     -1.180300
  H       3.272286     -0.661555      4.493544
  H       3.992586      0.932145      4.068549
  H       5.035051     -0.536532      4.174148
  H       8.098637     -0.559726      1.797259
  H       7.313455      1.034137      1.525194
  H       7.521408     -0.112096      0.164984
  H       3.156595     -0.663021     -1.708506
  H       4.945469     -0.730141     -1.580231
  H       4.071084      0.810008     -1.257701
35
Coordinates from ORCA-job TMP_m2_shell2_reduced_opt_relaxed E -1531.450836533318
  C       0.190287     -3.086725     -0.693112
  O       0.732806     -1.896436     -0.052803
  P       0.272041     -0.439238     -0.554681
  O       0.605827     -0.001671     -1.930672
  O      -1.287153     -0.394239     -0.188875
  C      -2.202962      0.390174     -0.995533
  O       1.069266      0.306223      0.637995
  C       1.334762      1.732936      0.526327
  H       0.653095     -3.926508     -0.171448
  H       0.459558     -3.090606     -1.753244
  H      -0.895295     -3.110257     -0.563250
  H      -3.194852     -0.025997     -0.813851
  H      -1.942872      0.318172     -2.054693
  H      -2.177220      1.436514     -0.676206
  H       1.614782      1.983315     -0.500700
  H       2.164281      1.946320      1.201065
  H       0.443167      2.290796      0.828962
  Li      2.168097     -1.419014      1.456885
  C       4.055770     -0.110273      3.919609
  O       3.738761     -0.453824      2.539745
  P       4.665301      0.109287      1.353493
  O       4.771763      1.572474      1.142231
  O       6.062045     -0.643089      1.576750
  C       7.305549      0.007576      1.209618
  O       3.852970     -0.714187      0.227022
  C       4.008478     -0.349762     -1.172944
  H       3.296507     -0.615073      4.519891
  H       3.999361      0.973918      4.052366
  H       5.052213     -0.484752      4.170606
  H       8.089146     -0.508503      1.765995
  H       7.278749      1.067736      1.473931
  H       7.481185     -0.102538      0.135146
  H       3.137504     -0.747439     -1.694699
  H       4.925703     -0.801151     -1.563685
  H       4.040617      0.738547     -1.275819
35
Coordinates from ORCA-job TMP_m2_shell2_reduced_opt_relaxed E -1531.451086357313
  C       0.217045     -3.066808     -0.744914
  O       0.753957     -1.892549     -0.067169
  P       0.296407     -0.425467     -0.537069
  O       0.650294      0.045529     -1.895258
  O      -1.272452     -0.401553     -0.205868
  C      -2.168707      0.404742     -1.012994
  O       1.062444      0.295235      0.687940
  C       1.309608      1.728087      0.615371
  H       0.673172     -3.921797     -0.243674
  H       0.496627     -3.039230     -1.801888
  H      -0.869498     -3.091300     -0.626706
  H      -3.166706     -0.006630     -0.855031
  H      -1.893336      0.350779     -2.069216
  H      -2.141788      1.445242     -0.674924
  H       1.607875      2.007108     -0.398940
  H       2.122678      1.938721      1.309755
  H       0.404268      2.266674      0.911837
  Li      2.144238     -1.476806      1.523938
  C       4.066404     -0.057955      3.913004
  O       3.732177     -0.432884      2.543746
  P       4.640925      0.101665      1.338851
  O       4.741135      1.557331      1.086971
  O       6.046732     -0.631812      1.579573
  C       7.278539      0.022791      1.181607
  O       3.831815     -0.760068      0.242227
  C       3.991665     -0.443280     -1.169037
  H       3.314310     -0.545635      4.535246
  H       4.015059      1.029267      4.018789
  H       5.064346     -0.430608      4.159487
  H       8.074723     -0.470960      1.740480
  H       7.245303      1.088858      1.419618
  H       7.443862     -0.111662      0.108183
  H       3.126294     -0.862003     -1.682326
  H       4.913699     -0.901187     -1.540318
  H       4.016120      0.640869     -1.309867
35
Coordinates from ORCA-job TMP_m2_shell2_reduced_opt_relaxed E -1531.451186921539
  C       0.202147     -3.047491     -0.760204
  O       0.767589     -1.889873     -0.077062
  P       0.328574     -0.419573     -0.532486
  O       0.690737      0.072733     -1.879924
  O      -1.244045     -0.405645     -0.216500
  C      -2.132141      0.412413     -1.020722
  O       1.078690      0.279307      0.712706
  C       1.318602      1.714728      0.676676
  H       0.648678     -3.915149     -0.272345
  H       0.470325     -3.013791     -1.820086
  H      -0.883013     -3.053786     -0.628138
  H      -3.132817      0.004474     -0.871048
  H      -1.851730      0.366206     -2.075950
  H      -2.102120      1.449753     -0.673435
  H       1.634516      2.018532     -0.325059
  H       2.119053      1.912666      1.388954
  H       0.405388      2.241297      0.970804
  Li      2.140727     -1.533189      1.553918
  C       4.051664     -0.040961      3.909165
  O       3.706292     -0.410801      2.541431
  P       4.614603      0.102923      1.317052
  O       4.696597      1.554484      1.041666
  O       6.031250     -0.606064      1.573089
  C       7.252286      0.059458      1.160897
  O       3.823576     -0.793551      0.237250
  C       4.000243     -0.506442     -1.178121
  H       3.307791     -0.531997      4.538609
  H       3.998149      1.046125      4.016014
  H       5.056226     -0.405203      4.140513
  H       8.057105     -0.414174      1.724904
  H       7.204655      1.128521      1.382349
  H       7.416613     -0.089565      0.089229
  H       3.149601     -0.950217     -1.694298
  H       4.935361     -0.957783     -1.524122
  H       4.008066      0.574340     -1.344304
35
Coordinates from ORCA-job TMP_m2_shell2_reduced_opt_relaxed E -1531.451531603789
  C       0.257931     -3.019446     -0.799566
  O       0.795202     -1.864687     -0.089248
  P       0.330177     -0.385669     -0.511502
  O       0.698426      0.138952     -1.843392
  O      -1.246367     -0.403807     -0.215467
  C      -2.137778      0.410123     -1.020635
  O       1.053754      0.299895      0.756909
  C       1.258951      1.740895      0.756853
  H       0.727129     -3.887168     -0.333299
  H       0.523842     -2.952711     -1.858627
  H      -0.826555     -3.054443     -0.666949
  H      -3.133955     -0.013284     -0.884032
  H      -1.845942      0.377163     -2.073211
  H      -2.125506      1.444439     -0.663401
  H       1.593690      2.073190     -0.229518
  H       2.037343      1.940840      1.492503
  H       0.326247      2.238801      1.039632
  Li      2.123213     -1.534790      1.584325
  C       4.050470      0.002618      3.885508
  O       3.703053     -0.384718      2.523577
  P       4.611619      0.094098      1.289104
  O       4.703479      1.535225      0.973256
  O       6.024233     -0.613440      1.572123
  C       7.250079      0.040954      1.155214
  O       3.817865     -0.829744      0.233083
  C       4.016044     -0.598020     -1.189493
  H       3.291526     -0.459882      4.518767
  H       4.022155      1.092577      3.972855
  H       5.043171     -0.385308      4.129316
  H       8.049410     -0.425180      1.733202
  H       7.203779      1.113828      1.357416
  H       7.420921     -0.128151      0.087577
  H       3.174716     -1.066619     -1.698626
  H       4.958093     -1.058880     -1.502862
  H       4.018822      0.475053     -1.399967
35
Coordinates from ORCA-job TMP_m2_shell2_reduced_opt_relaxed E -1531.451739361283
  C       0.286318     -2.995641     -0.815977
  O       0.816583     -1.845581     -0.096835
  P       0.338864     -0.360202     -0.498989
  O       0.713642      0.186908     -1.819984
  O      -1.238902     -0.396266     -0.213935
  C      -2.136150      0.409075     -1.020957
  O       1.043895      0.312894      0.786689
  C       1.228423      1.755226      0.817825
  H       0.773299     -3.862554     -0.365737
  H       0.538662     -2.913051     -1.877540
  H      -0.796067     -3.047686     -0.670960
  H      -3.127750     -0.026071     -0.888282
  H      -1.838546      0.379965     -2.072090
  H      -2.136003      1.442882     -0.662240
  H       1.588872      2.109004     -0.151874
  H       1.982734      1.948594      1.580352
  H       0.281505      2.235283      1.083880
  Li      2.115815     -1.539010      1.596116
  C       4.043385      0.023876      3.860748
  O       3.690050     -0.364440      2.503571
  P       4.603712      0.090600      1.260757
  O       4.693208      1.525023      0.915318
  O       6.014777     -0.610541      1.564018
  C       7.244940      0.041463      1.156189
  O       3.815034     -0.857729      0.221648
  C       4.030758     -0.667137     -1.203674
  H       3.273048     -0.420568      4.493655
  H       4.036650      1.114890      3.943889
  H       5.026924     -0.383811      4.110110
  H       8.037258     -0.421113      1.746541
  H       7.194399      1.115456      1.351613
  H       7.427155     -0.134412      0.091620
  H       3.203345     -1.168446     -1.705419
  H       4.984247     -1.122575     -1.489381
  H       4.015153      0.398403     -1.449241
35
Coordinates from ORCA-job TMP_m2_shell2_reduced_opt_relaxed E -1531.451941906296
  C       0.301755     -2.971201     -0.819903
  O       0.837220     -1.827144     -0.099817
  P       0.354868     -0.335990     -0.486437
  O       0.739154      0.231089     -1.797045
  O      -1.223808     -0.381792     -0.210150
  C      -2.126208      0.409732     -1.024506
  O       1.043056      0.320891      0.816099
  C       1.214265      1.762389      0.879043
  H       0.805081     -3.838743     -0.388152
  H       0.531089     -2.878066     -1.886147
  H      -0.777110     -3.035566     -0.653554
  H      -3.113455     -0.035578     -0.893405
  H      -1.822941      0.378121     -2.074044
  H      -2.137510      1.445308     -0.671288
  H       1.610944      2.135432     -0.068942
  H       1.936496      1.943792      1.675157
  H       0.254738      2.231410      1.118735
  Li      2.112959     -1.547858      1.599710
  C       4.033741      0.034576      3.828779
  O       3.669342     -0.348913      2.476382
  P       4.589446      0.087087      1.226756
  O       4.668268      1.515747      0.853015
  O       6.001394     -0.602394      1.548562
  C       7.234423      0.057843      1.163436
  O       3.811118     -0.888068      0.204448
  C       4.041272     -0.734747     -1.222190
  H       3.253089     -0.390868      4.462751
  H       4.052540      1.125878      3.912442
  H       5.007143     -0.395501      4.081196
  H       8.018586     -0.401505      1.767005
  H       7.172564      1.131052      1.360314
  H       7.435359     -0.114408      0.101763
  H       3.235953     -1.280568     -1.714291
  H       5.011559     -1.169872     -1.482148
  H       3.992849      0.321139     -1.502151
35
Coordinates from ORCA-job TMP_m2_shell2_reduced_opt_relaxed E -1531.452133141862
  C       0.304656     -2.951821     -0.810693
  O       0.853397     -1.812870     -0.095425
  P       0.374734     -0.317577     -0.473389
  O       0.770172      0.262415     -1.775902
  O      -1.205259     -0.362685     -0.204040
  C      -2.108534      0.411619     -1.033219
  O       1.050723      0.322430      0.842446
  C       1.218685      1.762058      0.929590
  H       0.819366     -3.821842     -0.397240
  H       0.508045     -2.852524     -1.881880
  H      -0.770006     -3.021959     -0.620405
  H      -3.093079     -0.040068     -0.903715
  H      -1.798187      0.371148     -2.080448
  H      -2.129756      1.451158     -0.692440
  H       1.657486      2.146190      0.005060
  H       1.903885      1.931740      1.760303
  H       0.250361      2.230056      1.134069
  Li      2.114313     -1.558837      1.596856
  C       4.025113      0.033184      3.796699
  O       3.647342     -0.343695      2.447588
  P       4.571865      0.082141      1.194587
  O       4.636346      1.506717      0.799724
  O       5.987202     -0.593661      1.528091
  C       7.219434      0.085540      1.174859
  O       3.805231     -0.915538      0.186184
  C       4.040145     -0.786726     -1.241440
  H       3.237017     -0.372922      4.434571
  H       4.070046      1.123936      3.881483
  H       4.988445     -0.418808      4.049842
  H       7.996894     -0.370730      1.789295
  H       7.140554      1.155906      1.381069
  H       7.442775     -0.072493      0.115555
  H       3.261239     -1.378441     -1.723328
  H       5.028308     -1.189483     -1.486283
  H       3.950278      0.259148     -1.546600
35
Coordinates from ORCA-job TMP_m2_shell2_reduced_opt_relaxed E -1531.452289053032
  C       0.303527     -2.934556     -0.792475
  O       0.867913     -1.799790     -0.083104
  P       0.398783     -0.301843     -0.455461
  O       0.808007      0.286389     -1.750365
  O      -1.183686     -0.339328     -0.196260
  C      -2.081349      0.414190     -1.049744
  O       1.064158      0.319604      0.872262
  C       1.235903      1.757275      0.978021
  H       0.825866     -3.808489     -0.397569
  H       0.481641     -2.828996     -1.867689
  H      -0.766662     -3.006416     -0.579069
  H      -3.064857     -0.041300     -0.925475
  H      -1.759003      0.359663     -2.092716
  H      -2.113162      1.459330     -0.727492
  H       1.727422      2.144993      0.082253
  H       1.873777      1.917168      1.847300
  H       0.261542      2.232129      1.133096
  Li      2.117447     -1.572812      1.594829
  C       4.016612      0.023996      3.766036
  O       3.626362     -0.346900      2.418109
  P       4.550622      0.074042      1.162927
  O       4.599512      1.495057      0.751604
  O       5.972215     -0.585871      1.501211
  C       7.198496      0.121402      1.184443
  O       3.795330     -0.943565      0.168331
  C       4.024831     -0.830760     -1.261199
  H       3.221772     -0.359953      4.409289
  H       4.089570      1.113453      3.848885
  H       4.968640     -0.450909      4.019657
  H       7.971978     -0.329872      1.807532
  H       7.097185      1.187148      1.404239
  H       7.445796     -0.015245      0.127555
  H       3.278230     -1.471133     -1.731539
  H       5.031654     -1.188610     -1.500307
  H       3.883164      0.203215     -1.585693
35
Coordinates from ORCA-job TMP_m2_shell2_reduced_opt_relaxed E -1531.452347459165
  C       0.289615     -2.945536     -0.770934
  O       0.860312     -1.806841     -0.071593
  P       0.397191     -0.309097     -0.454936
  O       0.808044      0.265349     -1.755579
  O      -1.185198     -0.330266     -0.191918
  C      -2.079072      0.411570     -1.059249
  O       1.070961      0.316895      0.866953
  C       1.255649      1.754444      0.958553
  H       0.809304     -3.818826     -0.371540
  H       0.464921     -2.847861     -1.847279
  H      -0.780149     -3.011136     -0.553654
  H      -3.063449     -0.041786     -0.933712
  H      -1.753316      0.344149     -2.100398
  H      -2.112131      1.460881     -0.750989
  H       1.762345      2.127118      0.064995
  H       1.882261      1.919665      1.834913
  H       0.284111      2.241146      1.093687
  Li      2.124594     -1.561377      1.577601
  C       4.024749      0.005318      3.765643
  O       3.628663     -0.362655      2.417223
  P       4.551729      0.072988      1.168533
  O       4.601581      1.498439      0.772272
  O       5.974099     -0.591161      1.494543
  C       7.199128      0.126400      1.197269
  O       3.794098     -0.932711      0.164889
  C       4.005647     -0.798572     -1.265759
  H       3.231555     -0.376061      4.412158
  H       4.102155      1.094339      3.848267
  H       4.975976     -0.473580      4.014394
  H       7.970927     -0.330656      1.818244
  H       7.092920      1.188452      1.432105
  H       7.453890      0.007307      0.140026
  H       3.264029     -1.443356     -1.737812
  H       5.014914     -1.138015     -1.520950
  H       3.847188      0.237741     -1.574543
35
Coordinates from ORCA-job TMP_m2_shell2_reduced_opt_relaxed E -1531.452365380550
  C       0.295324     -2.947730     -0.753161
  O       0.862932     -1.804106     -0.056544
  P       0.406493     -0.306421     -0.444995
  O       0.825978      0.261881     -1.744550
  O      -1.178670     -0.322020     -0.196619
  C      -2.060071      0.409257     -1.085637
  O       1.073111      0.320843      0.879438
  C       1.260863      1.759405      0.962574
  H       0.812063     -3.819167     -0.346765
  H       0.476913     -2.853644     -1.828685
  H      -0.775521     -3.009774     -0.540789
  H      -3.046136     -0.043187     -0.969774
  H      -1.719933      0.331027     -2.121326
  H      -2.098864      1.461928     -0.789746
  H       1.791718      2.122252      0.079211
  H       1.865946      1.931274      1.852317
  H       0.288080      2.251016      1.067695
  Li      2.120076     -1.558656      1.593766
  C       4.031404     -0.015575      3.776568
  O       3.631291     -0.362942      2.421313
  P       4.542502      0.075457      1.169609
  O       4.597741      1.500852      0.777149
  O       5.967764     -0.592137      1.478600
  C       7.188606      0.131492      1.179738
  O       3.780170     -0.928675      0.170405
  C       3.976647     -0.788697     -1.261965
  H       3.238049     -0.398952      4.421347
  H       4.116453      1.071841      3.868986
  H       4.981965     -0.501729      4.012640
  H       7.965385     -0.325464      1.794710
  H       7.081039      1.192160      1.419870
  H       7.439596      0.018700      0.120856
  H       3.243084     -1.444276     -1.730539
  H       4.989987     -1.108532     -1.526323
  H       3.797254      0.245005     -1.567950
35
Coordinates from ORCA-job TMP_m2_shell2_reduced_opt_relaxed E -1531.452387162494
  C       0.287703     -2.945878     -0.755778
  O       0.858440     -1.803363     -0.061058
  P       0.400571     -0.309094     -0.448466
  O       0.813195      0.259972     -1.750101
  O      -1.182831     -0.325966     -0.191425
  C      -2.070659      0.407563     -1.072321
  O       1.074579      0.318324      0.871228
  C       1.262530      1.756802      0.954163
  H       0.804777     -3.817532     -0.349890
  H       0.466894     -2.852898     -1.831814
  H      -0.782793     -3.006636     -0.541048
  H      -3.055577     -0.045851     -0.950856
  H      -1.736916      0.332003     -2.110286
  H      -2.107683      1.459304     -0.772979
  H       1.784624      2.120801      0.065990
  H       1.876347      1.927012      1.838409
  H       0.290535      2.247465      1.069908
  Li      2.126745     -1.559043      1.583325
  C       4.021222     -0.010431      3.776366
  O       3.634285     -0.364167      2.419961
  P       4.551474      0.073007      1.168159
  O       4.604869      1.499570      0.779199
  O       5.976040     -0.592689      1.483352
  C       7.198147      0.129422      1.185913
  O       3.789920     -0.928877      0.164717
  C       3.992517     -0.785540     -1.266525
  H       3.222484     -0.395363      4.413499
  H       4.101160      1.077640      3.867174
  H       4.970163     -0.494134      4.024018
  H       7.972880     -0.326705      1.804050
  H       7.089897      1.190593      1.423565
  H       7.451599      0.013861      0.127928
  H       3.257512     -1.436815     -1.739198
  H       5.005443     -1.109457     -1.527400
  H       3.819146      0.249804     -1.570353
35
Coordinates from ORCA-job TMP_m2_shell2_reduced_opt_relaxed E -1531.452402184136
  C       0.286321     -2.947285     -0.762572
  O       0.858671     -1.808494     -0.063639
  P       0.398817     -0.311719     -0.448489
  O       0.812845      0.258160     -1.749202
  O      -1.184776     -0.329335     -0.194654
  C      -2.071145      0.409594     -1.072662
  O       1.071433      0.317359      0.872684
  C       1.254312      1.756526      0.955512
  H       0.799052     -3.820914     -0.355025
  H       0.470820     -2.853536     -1.837654
  H      -0.785216     -3.004098     -0.551984
  H      -3.056852     -0.042408     -0.952484
  H      -1.736897      0.336609     -2.110632
  H      -2.105796      1.460193     -0.769134
  H       1.774549      2.122071      0.066822
  H       1.868929      1.928055      1.838949
  H       0.280401      2.243081      1.072092
  Li      2.124445     -1.562610      1.587051
  C       4.030429     -0.003355      3.775049
  O       3.633671     -0.363815      2.424394
  P       4.550817      0.072209      1.171718
  O       4.605368      1.498929      0.784157
  O       5.974916     -0.593277      1.488972
  C       7.197777      0.125287      1.186391
  O       3.788905     -0.928663      0.166990
  C       3.995496     -0.785081     -1.263800
  H       3.236832     -0.388934      4.418155
  H       4.107361      1.085422      3.861024
  H       4.982384     -0.484146      4.017085
  H       7.972676     -0.330254      1.804756
  H       7.091250      1.187364      1.420772
  H       7.448816      0.005141      0.128344
  H       3.260920     -1.436031     -1.737578
  H       5.009157     -1.109362     -1.521287
  H       3.822551      0.250022     -1.568699
35
Coordinates from ORCA-job TMP_m2_shell2_reduced_opt_relaxed E -1531.452412066232
  C       0.286492     -2.946273     -0.757966
  O       0.859382     -1.807476     -0.059027
  P       0.401496     -0.310719     -0.443743
  O       0.819235      0.258638     -1.743450
  O      -1.182872     -0.325503     -0.194853
  C      -2.065531      0.409693     -1.079728
  O       1.071964      0.317302      0.878785
  C       1.254997      1.756681      0.960248
  H       0.797441     -3.820110     -0.348664
  H       0.473125     -2.853397     -1.832764
  H      -0.785500     -3.001043     -0.549129
  H      -3.051633     -0.042125     -0.962055
  H      -1.726646      0.332767     -2.115889
  H      -2.101743      1.461426     -0.780421
  H       1.787220      2.119362      0.077542
  H       1.858404      1.929398      1.851182
  H       0.280194      2.244575      1.063066
  Li      2.124288     -1.564081      1.590733
  C       4.032048     -0.006907      3.774707
  O       3.634330     -0.365677      2.423504
  P       4.548264      0.070887      1.169813
  O       4.602513      1.497801      0.783236
  O       5.973727     -0.593689      1.483416
  C       7.195170      0.127834      1.182710
  O       3.785643     -0.930279      0.166401
  C       3.989260     -0.784874     -1.264640
  H       3.237253     -0.390725      4.417562
  H       4.111913      1.081574      3.860813
  H       4.982588     -0.490732      4.016218
  H       7.970705     -0.327040      1.800804
  H       7.086445      1.189356      1.418575
  H       7.447129      0.009815      0.124634
  H       3.261897     -1.444672     -1.737297
  H       5.006510     -1.096986     -1.523039
  H       3.803528      0.247905     -1.569862
35
Coordinates from ORCA-job TMP_m2_shell2_reduced_opt_relaxed E -1531.452418632107
  C       0.282140     -2.947262     -0.752288
  O       0.857181     -1.808288     -0.054779
  P       0.402042     -0.311553     -0.440609
  O       0.822407      0.256150     -1.740287
  O      -1.182714     -0.321827     -0.194581
  C      -2.062517      0.409853     -1.085341
  O       1.072221      0.316695      0.882053
  C       1.255527      1.756393      0.960879
  H       0.788987     -3.821441     -0.338606
  H       0.472708     -2.857984     -1.826685
  H      -0.790678     -2.997386     -0.546559
  H      -3.049048     -0.041281     -0.968606
  H      -1.720268      0.328455     -2.120030
  H      -2.099207      1.462776     -0.790398
  H       1.798650      2.115546      0.083418
  H       1.848602      1.930734      1.858488
  H       0.280156      2.245677      1.050829
  Li      2.125808     -1.564817      1.591111
  C       4.033636     -0.011290      3.775945
  O       3.636016     -0.368492      2.423893
  P       4.547700      0.070273      1.169475
  O       4.601834      1.498155      0.786470
  O       5.974287     -0.594233      1.478893
  C       7.194851      0.129177      1.179552
  O       3.784743     -0.929537      0.164946
  C       3.987883     -0.779570     -1.265876
  H       3.238260     -0.395355      4.418107
  H       4.114048      1.077017      3.862929
  H       4.983778     -0.496059      4.017066
  H       7.970717     -0.325388      1.797497
  H       7.084586      1.190301      1.416493
  H       7.447486      0.012531      0.121477
  H       3.269584     -1.448575     -1.739583
  H       5.009433     -1.077618     -1.523898
  H       3.788398      0.250929     -1.569973
35
Coordinates from ORCA-job TMP_m2_shell2_reduced_opt_relaxed E -1531.452422444211
  C       0.279570     -2.946898     -0.751377
  O       0.855770     -1.808951     -0.052900
  P       0.402852     -0.311729     -0.438261
  O       0.826029      0.256531     -1.736959
  O      -1.182299     -0.319669     -0.194951
  C      -2.059979      0.411232     -1.088538
  O       1.071437      0.315418      0.885745
  C       1.253831      1.755260      0.965135
  H       0.782217     -3.822150     -0.334863
  H       0.474492     -2.859326     -1.825103
  H      -0.794150     -2.993465     -0.549639
  H      -3.046992     -0.039096     -0.972838
  H      -1.715716      0.328050     -2.122403
  H      -2.096394      1.464598     -0.795202
  H       1.803518      2.114041      0.091661
  H       1.840061      1.929794      1.867218
  H       0.277849      2.244604      1.047791
  Li      2.126108     -1.568365      1.593410
  C       4.034629     -0.011140      3.775690
  O       3.636803     -0.370091      2.424104
  P       4.546618      0.069563      1.168766
  O       4.599274      1.497731      0.786293
  O       5.974240     -0.593758      1.476571
  C       7.193988      0.130537      1.176125
  O       3.784257     -0.931045      0.164408
  C       3.989346     -0.780367     -1.266235
  H       3.239807     -0.395099      4.418603
  H       4.114248      1.077282      3.861636
  H       4.985103     -0.494993      4.017266
  H       7.970486     -0.322617      1.794320
  H       7.082671      1.191802      1.411940
  H       7.446474      0.012944      0.118118
  H       3.278143     -1.456559     -1.740524
  H       5.014050     -1.069305     -1.522060
  H       3.780896      0.247942     -1.571521
35
Coordinates from ORCA-job TMP_m2_shell2_reduced_opt_relaxed E -1531.452427024937
  C       0.274773     -2.947513     -0.750208
  O       0.851926     -1.810823     -0.050335
  P       0.402977     -0.312598     -0.436193
  O       0.830108      0.255476     -1.733940
  O      -1.182578     -0.316563     -0.195502
  C      -2.057633      0.413499     -1.092439
  O       1.069807      0.313282      0.889382
  C       1.251923      1.753119      0.969671
  H       0.770346     -3.824321     -0.328587
  H       0.477271     -2.863257     -1.822741
  H      -0.800477     -2.988645     -0.555663
  H      -3.045399     -0.035419     -0.977779
  H      -1.711338      0.327958     -2.125421
  H      -2.093261      1.467488     -0.801292
  H       1.808156      2.111620      0.100289
  H       1.831108      1.927695      1.876305
  H       0.275625      2.243007      1.045167
  Li      2.126850     -1.572941      1.595384
  C       4.036157     -0.011026      3.775829
  O       3.638582     -0.373213      2.425046
  P       4.545970      0.069128      1.168907
  O       4.596039      1.497918      0.787793
  O       5.974836     -0.593001      1.474083
  C       7.193592      0.132233      1.171757
  O       3.784479     -0.931959      0.163977
  C       3.992499     -0.779906     -1.266335
  H       3.243155     -0.396009      4.420277
  H       4.112831      1.077713      3.860242
  H       4.988182     -0.491549      4.017870
  H       7.971033     -0.318923      1.790219
  H       7.081167      1.193783      1.405761
  H       7.445620      0.013067      0.113817
  H       3.290056     -1.464297     -1.741994
  H       5.020820     -1.058268     -1.519350
  H       3.774036      0.245951     -1.572573
35
Coordinates from ORCA-job TMP_m2_shell2_reduced_opt_relaxed E -1531.452430271158
  C       0.271727     -2.947148     -0.750326
  O       0.848600     -1.812083     -0.047880
  P       0.403632     -0.312632     -0.433953
  O       0.835045      0.255401     -1.730394
  O      -1.182382     -0.313424     -0.196108
  C      -2.054774      0.416037     -1.096107
  O       1.068112      0.311151      0.893699
  C       1.250373      1.750743      0.976338
  H       0.761203     -3.825592     -0.325034
  H       0.481178     -2.864698     -1.821644
  H      -0.804907     -2.984303     -0.562680
  H      -3.043233     -0.031779     -0.983114
  H      -1.706343      0.328872     -2.128239
  H      -2.090062      1.470502     -0.806637
  H       1.811164      2.110080      0.110267
  H       1.824591      1.924409      1.886286
  H       0.273962      2.241130      1.047423
  Li      2.127062     -1.578063      1.598106
  C       4.037298     -0.009746      3.774780
  O       3.639809     -0.376099      2.425280
  P       4.544916      0.068330      1.168242
  O       4.591678      1.497311      0.787181
  O       5.975032     -0.591864      1.471777
  C       7.192545      0.134943      1.168057
  O       3.784290     -0.934105      0.163761
  C       3.994280     -0.782761     -1.266428
  H       3.246290     -0.395422      4.421163
  H       4.110976      1.079400      3.856923
  H       4.991027     -0.486704      4.017249
  H       7.970916     -0.313631      1.787221
  H       7.078391      1.196761      1.400021
  H       7.444639      0.014220      0.110308
  H       3.298272     -1.473475     -1.742386
  H       5.025085     -1.054017     -1.517158
  H       3.768845      0.240960     -1.574573
35
Coordinates from ORCA-job TMP_m2_shell2_reduced_opt_relaxed E -1531.452433458716
  C       0.268932     -2.947013     -0.749744
  O       0.844139     -1.813345     -0.044253
  P       0.403925     -0.312516     -0.431548
  O       0.839987      0.254177     -1.726928
  O      -1.182593     -0.309339     -0.196660
  C      -2.051852      0.418774     -1.100674
  O       1.066160      0.309208      0.898044
  C       1.249583      1.748374      0.983016
  H       0.752372     -3.826818     -0.320363
  H       0.486178     -2.866343     -1.819650
  H      -0.809198     -2.980730     -0.569938
  H      -3.041016     -0.028056     -0.989847
  H      -1.700692      0.329462     -2.131711
  H      -2.087262      1.473884     -0.813547
  H       1.813780      2.108411      0.119455
  H       1.820438      1.920739      1.895319
  H       0.273414      2.239736      1.051239
  Li      2.127458     -1.582476      1.600543
  C       4.038556     -0.009343      3.773922
  O       3.641559     -0.379649      2.425529
  P       4.544264      0.067518      1.167549
  O       4.587518      1.496723      0.787096
  O       5.975696     -0.590678      1.468853
  C       7.191736      0.138422      1.164597
  O       3.784043     -0.935849      0.163557
  C       3.994612     -0.785536     -1.266611
  H       3.249760     -0.396694      4.421942
  H       4.108296      1.080247      3.854151
  H       4.994477     -0.481980      4.016382
  H       7.970975     -0.307297      1.784733
  H       7.075227      1.200378      1.394775
  H       7.444457      0.016578      0.107126
  H       3.303395     -1.481177     -1.742343
  H       5.027154     -1.051495     -1.516069
  H       3.763758      0.236410     -1.576520
35
Coordinates from ORCA-job TMP_m2_shell2_reduced_opt_relaxed E -1531.452436213369
  C       0.268148     -2.946059     -0.749744
  O       0.840389     -1.813919     -0.040097
  P       0.404528     -0.311849     -0.428507
  O       0.845207      0.253280     -1.722765
  O      -1.182610     -0.305141     -0.197289
  C      -2.048375      0.421625     -1.105571
  O       1.064246      0.307664      0.903089
  C       1.248864      1.746391      0.990651
  H       0.747156     -3.826989     -0.317643
  H       0.492409     -2.865525     -1.818237
  H      -0.811272     -2.978061     -0.577145
  H      -3.038182     -0.024524     -0.997592
  H      -1.693873      0.330437     -2.135314
  H      -2.084385      1.477285     -0.820513
  H       1.815162      2.107441      0.128870
  H       1.818063      1.916993      1.904313
  H       0.272959      2.238491      1.057736
  Li      2.127420     -1.586638      1.603899
  C       4.039762     -0.008702      3.772687
  O       3.642922     -0.382728      2.425419
  P       4.543278      0.066318      1.166225
  O       4.583159      1.495480      0.785815
  O       5.976147     -0.589318      1.465678
  C       7.190489      0.142603      1.161397
  O       3.783147     -0.938380      0.163629
  C       3.992991     -0.790534     -1.266721
  H       3.253014     -0.397920      4.422083
  H       4.105619      1.081290      3.851109
  H       4.997767     -0.477374      4.014787
  H       7.970502     -0.299980      1.782818
  H       7.071024      1.204607      1.389846
  H       7.444285      0.019794      0.104298
  H       3.303754     -1.489065     -1.741064
  H       5.026210     -1.054362     -1.515825
  H       3.759310      0.230074     -1.578898
35
Coordinates from ORCA-job TMP_m2_shell2_reduced_opt_relaxed E -1531.452438445010
  C       0.268519     -2.945326     -0.749276
  O       0.837050     -1.814137     -0.035621
  P       0.404659     -0.311234     -0.425642
  O       0.848876      0.251662     -1.719415
  O      -1.183037     -0.301177     -0.197741
  C      -2.045607      0.424088     -1.110117
  O       1.062606      0.306985      0.907195
  C       1.248385      1.745431      0.996287
  H       0.745114     -3.826738     -0.315409
  H       0.498329     -2.864067     -1.816558
  H      -0.811856     -2.977253     -0.582429
  H      -3.035904     -0.021645     -1.004770
  H      -1.687817      0.331043     -2.138560
  H      -2.082398      1.480247     -0.827004
  H       1.815063      2.107033      0.134956
  H       1.818006      1.914546      1.909971
  H       0.272780      2.238041      1.063987
  Li      2.127422     -1.588902      1.606596
  C       4.040829     -0.009157      3.772161
  O       3.644080     -0.385123      2.425380
  P       4.542604      0.065329      1.165051
  O       4.580156      1.494503      0.785077
  O       5.976762     -0.588137      1.462563
  C       7.189619      0.146465      1.158881
  O       3.782224     -0.940225      0.163823
  C       3.990541     -0.794915     -1.266803
  H       3.255821     -0.401018      4.422139
  H       4.102916      1.081093      3.850052
  H       5.000727     -0.474462      4.013336
  H       7.970109     -0.293556      1.781540
  H       7.067314      1.208392      1.386175
  H       7.444678      0.023163      0.102149
  H       3.300196     -1.493547     -1.739394
  H       5.023330     -1.059952     -1.516484
  H       3.757139      0.225256     -1.580673
35
Coordinates from ORCA-job TMP_m2_shell2_reduced_opt_relaxed E -1531.452440012379
  C       0.269574     -2.944402     -0.749348
  O       0.835310     -1.814111     -0.032157
  P       0.404758     -0.310969     -0.423244
  O       0.851059      0.250347     -1.716915
  O      -1.183346     -0.298671     -0.197961
  C      -2.043617      0.425858     -1.113038
  O       1.061624      0.306730      0.910160
  C       1.247692      1.745167      0.999788
  H       0.745657     -3.826144     -0.315512
  H       0.502302     -2.861307     -1.815871
  H      -0.811270     -2.977259     -0.585572
  H      -3.034259     -0.019565     -1.009549
  H      -1.683409      0.331679     -2.140530
  H      -2.080830      1.482273     -0.830943
  H       1.813771      2.107033      0.138156
  H       1.818521      1.913495      1.912868
  H       0.272143      2.237681      1.068705
  Li      2.127272     -1.590213      1.608782
  C       4.041788     -0.009480      3.771649
  O       3.644369     -0.386402      2.425265
  P       4.541771      0.064437      1.164168
  O       4.578006      1.493626      0.784333
  O       5.976964     -0.587221      1.460480
  C       7.188748      0.149351      1.157407
  O       3.781352     -0.941944      0.164197
  C       3.988638     -0.798835     -1.266688
  H       3.258200     -0.403451      4.422148
  H       4.101233      1.080904      3.849430
  H       5.002993     -0.472676      4.011693
  H       7.969492     -0.288976      1.780956
  H       7.064296      1.211169      1.384027
  H       7.444787      0.025823      0.100942
  H       3.295609     -1.495801     -1.737815
  H       5.020474     -1.066996     -1.516924
  H       3.757568      0.221555     -1.581662
35
Coordinates from ORCA-job TMP_m2_shell2_reduced_opt_relaxed E -1531.452441236172
  C       0.270029     -2.944192     -0.748327
  O       0.833559     -1.814131     -0.028771
  P       0.404554     -0.310952     -0.421366
  O       0.852112      0.248609     -1.715456
  O      -1.183822     -0.296278     -0.197908
  C      -2.042329      0.427412     -1.115332
  O       1.061003      0.307041      0.912067
  C       1.246821      1.745650      1.001451
  H       0.746209     -3.825897     -0.314484
  H       0.504641     -2.859770     -1.814333
  H      -0.811077     -2.978073     -0.586480
  H      -3.033270     -0.017600     -1.012900
  H      -1.680294      0.331872     -2.142045
  H      -2.079629      1.484132     -0.834410
  H       1.812016      2.107472      0.139216
  H       1.818849      1.913855      1.913809
  H       0.271179      2.237756      1.071502
  Li      2.127494     -1.590441      1.609795
  C       4.042306     -0.011140      3.771819
  O       3.644414     -0.387097      2.425124
  P       4.541054      0.064118      1.163394
  O       4.576609      1.493509      0.784073
  O       5.977132     -0.586375      1.458274
  C       7.188150      0.151798      1.156117
  O       3.780882     -0.942846      0.164132
  C       3.988324     -0.801362     -1.266910
  H       3.260057     -0.407842      4.422318
  H       4.099300      1.079254      3.850931
  H       5.004728     -0.472555      4.010367
  H       7.968995     -0.285525      1.780257
  H       7.062026      1.213446      1.382580
  H       7.445060      0.028470      0.099843
  H       3.292545     -1.496052     -1.737346
  H       5.019214     -1.073116     -1.517044
  H       3.760394      0.219551     -1.582534
35
Coordinates from ORCA-job TMP_m2_shell2_reduced_opt_relaxed E -1531.452442142203
  C       0.269951     -2.943327     -0.748315
  O       0.832366     -1.814523     -0.025654
  P       0.404958     -0.311311     -0.419086
  O       0.854318      0.247228     -1.713220
  O      -1.183698     -0.294482     -0.197914
  C      -2.040248      0.429101     -1.117296
  O       1.060478      0.306693      0.914686
  C       1.245201      1.745549      1.004007
  H       0.745277     -3.825790     -0.315084
  H       0.506571     -2.857040     -1.813706
  H      -0.811441     -2.977270     -0.588488
  H      -3.031660     -0.015082     -1.015905
  H      -1.676560      0.332438     -2.143304
  H      -2.077072      1.486049     -0.837197
  H       1.810296      2.107589      0.141811
  H       1.817098      1.914040      1.916388
  H       0.269154      2.236821      1.074012
  Li      2.127477     -1.592334      1.611789
  C       4.043437     -0.011545      3.771059
  O       3.644069     -0.387952      2.424918
  P       4.539583      0.063411      1.162649
  O       4.573910      1.492963      0.783308
  O       5.976687     -0.585503      1.456422
  C       7.186791      0.154300      1.154730
  O       3.780068     -0.944659      0.164241
  C       3.988741     -0.804744     -1.266881
  H       3.263100     -0.410141      4.422704
  H       4.098188      1.078924      3.850367
  H       5.007140     -0.471055      4.008058
  H       7.967978     -0.281897      1.779233
  H       7.059034      1.215805      1.380937
  H       7.444267      0.031116      0.098577
  H       3.291436     -1.498042     -1.737088
  H       5.019159     -1.079078     -1.516021
  H       3.763184      0.216453     -1.583310
35
Coordinates from ORCA-job TMP_m2_shell2_reduced_opt_relaxed E -1531.452442765467
  C       0.269142     -2.943752     -0.746831
  O       0.830900     -1.814927     -0.023417
  P       0.404976     -0.311593     -0.418159
  O       0.855267      0.245740     -1.712687
  O      -1.183756     -0.292941     -0.197734
  C      -2.039318      0.430274     -1.118372
  O       1.060325      0.306985      0.915524
  C       1.244021      1.746028      1.004483
  H       0.743819     -3.826288     -0.313073
  H       0.507051     -2.857429     -1.811909
  H      -0.812424     -2.977505     -0.588238
  H      -3.031091     -0.013095     -1.017003
  H      -1.675078      0.332345     -2.144056
  H      -2.075475      1.487533     -0.839368
  H       1.808729      2.108218      0.142109
  H       1.815805      1.915181      1.916810
  H       0.267616      2.236583      1.074551
  Li      2.127860     -1.592915      1.612041
  C       4.043725     -0.013257      3.771161
  O       3.643984     -0.388324      2.424717
  P       4.538825      0.063577      1.162092
  O       4.572591      1.493381      0.783215
  O       5.976426     -0.585036      1.454671
  C       7.186126      0.155755      1.153830
  O       3.779776     -0.944824      0.163630
  C       3.990418     -0.805535     -1.267392
  H       3.264655     -0.413972      4.422983
  H       4.096767      1.077187      3.851995
  H       5.008409     -0.471362      4.006869
  H       7.967480     -0.280324      1.778212
  H       7.057651      1.217052      1.380605
  H       7.443938      0.033403      0.097659
  H       3.292387     -1.497627     -1.738277
  H       5.020622     -1.081892     -1.515133
  H       3.767086      0.216061     -1.584082
35
Coordinates from ORCA-job TMP_m2_shell2_reduced_opt_relaxed E -1531.452443370395
  C       0.268376     -2.944048     -0.746085
  O       0.830208     -1.815462     -0.022321
  P       0.405172     -0.312107     -0.417861
  O       0.856015      0.244497     -1.712613
  O      -1.183545     -0.292653     -0.197527
  C      -2.038714      0.430837     -1.118318
  O       1.060513      0.307025      0.915592
  C       1.243131      1.746185      1.004119
  H       0.742358     -3.826852     -0.312143
  H       0.506912     -2.857744     -1.811013
  H      -0.813287     -2.977298     -0.588086
  H      -3.030820     -0.011684     -1.016578
  H      -1.674754      0.332232     -2.144036
  H      -2.073961      1.488266     -0.839833
  H       1.807176      2.108617      0.141419
  H       1.814919      1.916210      1.916274
  H       0.266368      2.236033      1.074387
  Li      2.128088     -1.593804      1.612260
  C       4.044027     -0.013944      3.770905
  O       3.643909     -0.388608      2.424568
  P       4.538279      0.063685      1.161941
  O       4.571654      1.493630      0.783340
  O       5.976024     -0.585041      1.453920
  C       7.185558      0.156258      1.153733
  O       3.779379     -0.944657      0.163165
  C       3.991821     -0.805424     -1.267677
  H       3.265812     -0.415636      4.423113
  H       4.096178      1.076508      3.852359
  H       5.009277     -0.471235      4.005914
  H       7.967105     -0.280263      1.777562
  H       7.057013      1.217332      1.381517
  H       7.443298      0.035055      0.097407
  H       3.293264     -1.496304     -1.739530
  H       5.021835     -1.083571     -1.514216
  H       3.770651      0.216671     -1.584233
35
Coordinates from ORCA-job TMP_m2_shell2_reduced_opt_relaxed E -1531.452443997091
  C       0.267638     -2.944589     -0.744595
  O       0.829102     -1.816128     -0.020452
  P       0.405450     -0.312719     -0.417434
  O       0.857096      0.242312     -1.712593
  O      -1.183247     -0.292064     -0.197119
  C      -2.037836      0.431532     -1.118319
  O       1.060952      0.307289      0.915511
  C       1.242281      1.746541      1.003357
  H       0.740861     -3.827568     -0.310182
  H       0.507151     -2.858470     -1.809320
  H      -0.814193     -2.977432     -0.587584
  H      -3.030444     -0.009715     -1.015930
  H      -1.674359      0.331570     -2.144092
  H      -2.071797      1.489311     -0.840966
  H       1.805070      2.109297      0.139963
  H       1.814606      1.917704      1.914957
  H       0.265105      2.235537      1.074356
  Li      2.128467     -1.594945      1.612448
  C       4.044311     -0.015221      3.770505
  O       3.643899     -0.389204      2.424212
  P       4.537629      0.063844      1.161600
  O       4.570521      1.493980      0.783687
  O       5.975479     -0.585228      1.452538
  C       7.184790      0.157026      1.153913
  O       3.778514     -0.943970      0.162280
  C       3.993098     -0.804907     -1.268280
  H       3.267047     -0.418345      4.422948
  H       4.095248      1.075229      3.852917
  H       5.010267     -0.471523      4.004627
  H       7.966554     -0.280575      1.776718
  H       7.056136      1.217609      1.383948
  H       7.442513      0.038273      0.097297
  H       3.293066     -1.493419     -1.741368
  H       5.022546     -1.086392     -1.513492
  H       3.775714      0.218062     -1.584629
35
Coordinates from ORCA-job TMP_m2_shell2_reduced_opt_relaxed E -1531.452444493749
  C       0.267742     -2.944929     -0.743538
  O       0.828829     -1.816333     -0.019471
  P       0.405691     -0.312959     -0.417304
  O       0.857529      0.241015     -1.712736
  O      -1.182989     -0.291952     -0.196747
  C      -2.037444      0.431662     -1.118000
  O       1.061473      0.307683      0.915156
  C       1.242029      1.746966      1.002556
  H       0.740960     -3.827803     -0.308886
  H       0.507475     -2.858986     -1.808239
  H      -0.814139     -2.977873     -0.586798
  H      -3.030328     -0.008824     -1.014975
  H      -1.674544      0.330790     -2.143901
  H      -2.070615      1.489672     -0.841402
  H       1.803955      2.109940      0.138675
  H       1.814931      1.918775      1.913673
  H       0.264633      2.235474      1.074148
  Li      2.128674     -1.595582      1.612455
  C       4.044139     -0.015965      3.770188
  O       3.643766     -0.389479      2.423824
  P       4.537329      0.063992      1.161337
  O       4.570254      1.494200      0.783974
  O       5.975054     -0.585594      1.451727
  C       7.184376      0.157116      1.154312
  O       3.777708     -0.943079      0.161564
  C       3.993446     -0.804209     -1.268780
  H       3.266918     -0.419503      4.422448
  H       4.094909      1.074462      3.853055
  H       5.010147     -0.472289      4.004112
  H       7.966212     -0.281749      1.776139
  H       7.055961      1.217276      1.386436
  H       7.441919      0.040469      0.097416
  H       3.292132     -1.490938     -1.742546
  H       5.022404     -1.088081     -1.513372
  H       3.778702      0.219341     -1.585076
35
Coordinates from ORCA-job TMP_m2_shell2_reduced_opt_relaxed E -1531.452445035480
  C       0.267851     -2.945580     -0.741309
  O       0.827842     -1.816788     -0.016896
  P       0.405904     -0.313532     -0.416616
  O       0.858312      0.238062     -1.712699
  O      -1.182829     -0.291146     -0.196150
  C      -2.036523      0.432165     -1.118263
  O       1.062163      0.308316      0.914927
  C       1.241616      1.747701      1.001302
  H       0.740668     -3.828255     -0.305768
  H       0.508901     -2.860015     -1.805755
  H      -0.814245     -2.978572     -0.585948
  H      -3.029984     -0.006807     -1.014307
  H      -1.674129      0.329101     -2.144129
  H      -2.068258      1.490681     -0.843445
  H       1.802399      2.110695      0.136666
  H       1.815463      1.920543      1.911635
  H       0.263913      2.235500      1.073598
  Li      2.129120     -1.596908      1.612726
  C       4.044029     -0.017723      3.769907
  O       3.643646     -0.390467      2.423355
  P       4.536754      0.064233      1.161077
  O       4.569750      1.494749      0.785310
  O       5.974474     -0.586045      1.449852
  C       7.183663      0.157651      1.154387
  O       3.776177     -0.941300      0.160462
  C       3.993792     -0.802859     -1.269519
  H       3.267086     -0.422415      4.421833
  H       4.094024      1.072669      3.853589
  H       5.010329     -0.473741      4.003269
  H       7.965765     -0.283448      1.774297
  H       7.055486      1.216991      1.390352
  H       7.440660      0.044807      0.096953
  H       3.290174     -1.486516     -1.744303
  H       5.021903     -1.090645     -1.513148
  H       3.783343      0.221603     -1.585819
35
Coordinates from ORCA-job TMP_m2_shell2_reduced_opt_relaxed E -1531.452445352253
  C       0.268270     -2.945758     -0.740377
  O       0.827823     -1.816665     -0.016113
  P       0.405927     -0.313527     -0.416385
  O       0.858186      0.237289     -1.712775
  O      -1.182825     -0.290890     -0.195819
  C      -2.036450      0.432048     -1.118285
  O       1.062461      0.308760      0.914751
  C       1.241668      1.748185      1.000822
  H       0.741114     -3.828201     -0.304372
  H       0.509701     -2.860524     -1.804767
  H      -0.813886     -2.978885     -0.585429
  H      -3.030057     -0.006457     -1.013715
  H      -1.674367      0.327970     -2.144161
  H      -2.067720      1.490796     -0.844299
  H       1.802430      2.111077      0.136116
  H       1.815678      1.921221      1.911020
  H       0.263907      2.235867      1.073060
  Li      2.129271     -1.597435      1.612710
  C       4.043571     -0.018367      3.769859
  O       3.643407     -0.390819      2.423088
  P       4.536617      0.064443      1.161012
  O       4.570001      1.495133      0.786131
  O       5.974215     -0.586284      1.449204
  C       7.183518      0.157494      1.154285
  O       3.775545     -0.940228      0.159962
  C       3.993923     -0.802154     -1.269866
  H       3.266230     -0.422913      4.421421
  H       4.093903      1.071992      3.853636
  H       5.009600     -0.474857      4.003415
  H       7.965756     -0.285024      1.773009
  H       7.055826      1.216450      1.392218
  H       7.439858      0.046417      0.096509
  H       3.289782     -1.485091     -1.744913
  H       5.021888     -1.090804     -1.513089
  H       3.784464      0.222444     -1.586440
