35
Coordinates from ORCA-job TMP_m2_shell2_oxidized_opt_relaxed E -1530.890872048338
  C           0.22640370275939     -3.15058965560545     -0.53207009973407
  O           0.74980958603815     -1.90473939820221      0.09551997529754
  P           0.34830761103228     -0.48565029188034     -0.52640071520681
  O           0.87184088246357     -0.13551831240498     -1.87891376940808
  O          -1.21099030447259     -0.41185877011999     -0.36855907595110
  C          -2.10765151856875      0.49904373912935     -1.10442351380533
  O           1.07302055359521      0.34530259327890      0.65791328436832
  C           1.24325995890916      1.80098198554329      0.58110465184884
  H           0.74455649557279     -3.96728258463571     -0.03312630525072
  H           0.45906481893082     -3.13759175453143     -1.59871812411120
  H          -0.84748559876467     -3.20417054439252     -0.34945148854010
  H          -2.91535658346789     -0.12608992643061     -1.48759200010384
  H          -1.56954346982893      0.99714428937082     -1.91237739610429
  H          -2.50071228112615      1.21029331498233     -0.37273695482553
  H           0.85910375461913      2.18614603090769     -0.36596619554542
  H           2.31960814473231      2.00332106261401      0.67129655200657
  H           0.71853207874058      2.22908580175506      1.43940245842662
  Li          2.18411967053965     -1.34126184503545      1.40030808422847
  C           3.97781648050978     -0.26356954502901      3.94649214897118
  O           3.67995912967892     -0.56262738783384      2.51726524964667
  P           4.57453004629894      0.11272457399573      1.37462507305473
  O           4.48575010301029      1.59066760783765      1.19170712703687
  O           6.01895593045378     -0.44987596711226      1.61789290778030
  C           7.26777551684849      0.13107766407213      1.09087945578933
  O           3.84692979113473     -0.70891909639255      0.18543521800090
  C           4.09504968376531     -0.39779491135319     -1.22691059960368
  H           3.16307221893129     -0.71075225139244      4.51272124322054
  H           4.00007423193640      0.81892371787348      4.08703791046712
  H           4.93004229381033     -0.72836774217954      4.20473733113081
  H           7.94008758553848      0.21522342406760      1.94589000035481
  H           7.07683621973931      1.10400781651810      0.63556769313397
  H           7.66745509554656     -0.58881042349375      0.37141893009055
  H           3.12214146997823     -0.15725812061450     -1.67799885041001
  H           4.49559651104106     -1.30485837552231     -1.68746805892320
  H           4.78127719007373      0.44634828221594     -1.32307814733081
