35
Coordinates from ORCA-job TMP_m2_shell2_reduced_opt_relaxed E -1531.452445352253
  C           0.26826964747063     -2.94575818377723     -0.74037728858054
  O           0.82782285116072     -1.81666520747823     -0.01611275519589
  P           0.40592724239556     -0.31352711831269     -0.41638493316762
  O           0.85818647164664      0.23728905970490     -1.71277541490504
  O          -1.18282539419606     -0.29089047223373     -0.19581939573445
  C          -2.03644995331044      0.43204815690991     -1.11828456662197
  O           1.06246125783618      0.30875950960347      0.91475144398188
  C           1.24166822453983      1.74818532458220      1.00082195251005
  H           0.74111437466289     -3.82820129432260     -0.30437214800037
  H           0.50970076405490     -2.86052359362742     -1.80476688201771
  H          -0.81388608001195     -2.97888454152270     -0.58542903979178
  H          -3.03005747790083     -0.00645733521695     -1.01371475734572
  H          -1.67436689805838      0.32796997878227     -2.14416098967147
  H          -2.06772014249010      1.49079612525944     -0.84429907858131
  H           1.80243047822197      2.11107717238326      0.13611626687656
  H           1.81567799881403      1.92122146129340      1.91101994478248
  H           0.26390739920304      2.23586678543245      1.07305967379605
  Li          2.12927081231963     -1.59743509074561      1.61270966300456
  C           4.04357134470344     -0.01836672491600      3.76985933815054
  O           3.64340722530455     -0.39081865896903      2.42308799439346
  P           4.53661668199399      0.06444340438168      1.16101171441749
  O           4.57000076492063      1.49513343177923      0.78613096643422
  O           5.97421490476048     -0.58628425862221      1.44920427844396
  C           7.18351825709035      0.15749350362604      1.15428507201071
  O           3.77554522939045     -0.94022774578869      0.15996173072136
  C           3.99392312542872     -0.80215387450734     -1.26986558243647
  H           3.26623013476816     -0.42291291771015      4.42142133660129
  H           4.09390330555738      1.07199162412651      3.85363572166870
  H           5.00960015471549     -0.47485673744604      4.00341533294160
  H           7.96575557941194     -0.28502359590373      1.77300891392402
  H           7.05582622280434      1.21644977472001      1.39221778664975
  H           7.43985818533061      0.04641702848911      0.09650898596003
  H           3.28978234489877     -1.48509060646537     -1.74491282693070
  H           5.02188762948468     -1.09080361445383     -1.51308853190626
  H           3.78446433307758      0.22244423094569     -1.58643992638144
