17
Coordinates from ORCA-job TMP_cation_cpcm_14_moread E -761.703600389553
  C           2.09692434978978     -1.29002195589984      0.15672774582230
  O           1.34980232785640     -0.04749936769757      0.12829637581858
  P           0.01668224927907      0.19844673915240     -0.72780962590494
  O           0.61873652440717      0.62303495669102     -2.06301760454229
  O          -0.84318428966894     -1.08708859703603     -0.86245037909512
  C          -1.88100394807743     -1.49161304136108      0.10903292505951
  O          -0.82110169063710      1.24845902545586      0.05550317470945
  C          -0.32736772632032      2.60665290310247      0.36037771615021
  H           3.14646290632191     -1.02424832382662      0.02118068323335
  H           1.73247702837309     -1.99187869526443     -0.59554970561871
  H           1.94721846729875     -1.69629177338699      1.16704871155242
  H          -2.17683059026034     -2.48984536735782     -0.20602505755501
  H          -2.71286720751332     -0.78980001037197      0.03953025371149
  H          -1.45135470551529     -1.50352876453168      1.11249753706453
  H           0.43009588380181      2.53145897979915      1.14219204758750
  H          -1.20343747356917      3.14806588766958      0.71030524748546
  H           0.07874788443394      3.05569741486339     -0.54784005547882
