17
 energy: -29.400148049268 gnorm: 0.000775398850 xtb: 6.7.1pre (5071a88)
C            2.23478198187148       -1.15643764509922        0.11918226039794
O            0.88574408994989       -0.91090481417728        0.36782790764245
P            0.00237731437011        0.01562904568727       -0.62825541407373
O            0.68872511893636        0.49963920812835       -1.80385158744882
O           -1.29174385034311       -0.86276205260471       -0.85906366212985
C           -2.12783283162709       -1.39881504302384        0.13443071240338
O           -0.51377700649533        1.14306783903216        0.41276494770839
C           -0.19299434582284        2.49002090203409        0.23727154785171
H            2.84675306822598       -0.67539670501922        0.89707607933526
H            2.53429433127835       -0.80127138860794       -0.87015730244022
H            2.40780807571305       -2.23614904817056        0.23111649097710
H           -2.11630806180466       -2.49303015824308        0.04056105569126
H           -3.15550674943637       -1.08160877490877       -0.08596194045754
H           -1.83608090784359       -1.09407895574612        1.13884272456394
H            0.50591510113710        2.81057289644495        1.02398124006796
H           -1.10986994058247        3.07485991082515        0.39378297774706
H            0.23771460247328        2.67666479344888       -0.74954804783632
