6
Coordinates from ORCA-job AN_cation_opt E -132.271805297749
  C      -0.488248     -0.000081      0.008992
  C       0.962076      0.000127     -0.017695
  N       2.116464      0.000338     -0.038952
  H      -0.878480     -0.616158     -0.805714
  H      -0.846012     -0.403768      0.960098
  H      -0.865799      1.019543     -0.106729
6
Coordinates from ORCA-job AN_cation_opt E -132.280189547705
  C      -0.483987      0.010723      0.022729
  C       0.930996      0.003483     -0.013190
  N       2.129830     -0.003457     -0.043687
  H      -0.873063     -0.621220     -0.812012
  H      -0.841565     -0.425618      0.970643
  H      -0.862209      1.036090     -0.124483
6
Coordinates from ORCA-job AN_cation_opt E -132.281117190016
  C      -0.478311      0.020468      0.035095
  C       0.916145      0.005681     -0.010442
  N       2.125508     -0.008748     -0.050051
  H      -0.859983     -0.617367     -0.806546
  H      -0.840956     -0.440950      0.970798
  H      -0.862402      1.040917     -0.138854
6
Coordinates from ORCA-job AN_cation_opt E -132.281308619014
  C      -0.475404      0.028108      0.044792
  C       0.914725      0.007159     -0.008884
  N       2.125355     -0.013491     -0.055811
  H      -0.851265     -0.613320     -0.800835
  H      -0.845676     -0.450201      0.968731
  H      -0.867733      1.041746     -0.147993
6
Coordinates from ORCA-job AN_cation_opt E -132.281404816662
  C      -0.473116      0.036053      0.054834
  C       0.916750      0.008605     -0.007634
  N       2.125494     -0.018911     -0.062279
  H      -0.841519     -0.609259     -0.795047
  H      -0.852421     -0.457786      0.965825
  H      -0.875187      1.041299     -0.155698
6
Coordinates from ORCA-job AN_cation_opt E -132.281418194323
  C      -0.472806      0.037853      0.057014
  C       0.917961      0.008899     -0.007592
  N       2.124951     -0.020602     -0.064155
  H      -0.837794     -0.608850     -0.794359
  H      -0.854632     -0.458216      0.965223
  H      -0.877679      1.040918     -0.156130
6
Coordinates from ORCA-job AN_cation_opt E -132.281421414256
  C      -0.472866      0.038296      0.057434
  C       0.918191      0.009015     -0.007737
  N       2.124397     -0.021488     -0.064995
  H      -0.835337     -0.609231     -0.794762
  H      -0.855550     -0.457421      0.965302
  H      -0.878834      1.040829     -0.155242
6
Coordinates from ORCA-job AN_cation_opt E -132.281422915776
  C      -0.473007      0.038504      0.057548
  C       0.918020      0.009145     -0.007834
  N       2.124073     -0.022188     -0.065610
  H      -0.833342     -0.609649     -0.795216
  H      -0.856113     -0.456670      0.965488
  H      -0.879630      1.040859     -0.154376
6
Coordinates from ORCA-job AN_cation_opt E -132.281424097848
  C      -0.473189      0.038953      0.057883
  C       0.917689      0.009455     -0.007834
  N       2.123832     -0.023233     -0.066506
  H      -0.830761     -0.610060     -0.795598
  H      -0.856830     -0.456071      0.965665
  H      -0.880740      1.040957     -0.153611
6
Coordinates from ORCA-job AN_cation_opt E -132.281424519664
  C      -0.473286      0.039022      0.057855
  C       0.917588      0.009594     -0.007730
  N       2.123892     -0.023430     -0.066657
  H      -0.830446     -0.610173     -0.795634
  H      -0.856874     -0.456037      0.965674
  H      -0.880872      1.041024     -0.153508
