6
Coordinates from ORCA-job AN_cation_opt E -132.281424519664
  C          -0.47328602770054      0.03902245789389      0.05785486962629
  C           0.91758776605485      0.00959412652247     -0.00773036610430
  N           2.12389159955542     -0.02342958743548     -0.06665698969630
  H          -0.83044579192093     -0.61017301093904     -0.79563406106123
  H          -0.85687426525431     -0.45603669976222      0.96567415697143
  H          -0.88087228073449      1.04102371372039     -0.15350760973590
