18
 energy: -28.146384404881 gnorm: 0.000556557628 xtb: 6.7.1pre (5071a88)
C           -2.46690921667331        0.36788793818358        0.65408732429830
C           -2.25660662205917       -0.63345900081707       -0.48178683496734
O           -1.19273605030094       -1.53199596241304       -0.22264348026514
C            0.08195155213463       -1.09976849119876       -0.66909649019446
O            0.23000444952989       -0.64361194280589       -1.84581638684158
O            0.65738886788488       -0.29678899856280        0.46755853867087
C            1.59835134717400        0.64051348800133        0.08141447066157
C            3.03770387269854        0.16219098733339        0.31487537147583
H           -1.52589171165604        0.87512472220693        0.84774255377100
H           -2.76812432283724       -0.15236068446171        1.56200756119292
H           -3.23113203914467        1.10077082403176        0.38856084445344
H           -2.03338773884403       -0.09881174372185       -1.41704128824282
H           -3.16567315360372       -1.23716150319087       -0.62950436895209
H            1.46019378070300        0.85722404695222       -0.99088513587814
H            1.42671065566761        1.56742025498034        0.65924844140811
H            3.74770477209684        0.93449186452295        0.01781351297916
H            3.21241488318412       -0.73390741762907       -0.27473021582944
H            3.18803668404506       -0.07775837141166        1.36647916226101
