15
SL_neutral_smd_acetonitrile
O            2.05671678021316        1.05739519416214        1.02996939987705
S            1.19826000872002        0.83968999952837       -0.10191546090828
O            1.56085389536527        1.47764507893453       -1.33765243301433
C            0.94692648024145       -0.95432059655860       -0.37401475225531
C           -0.41033543109694       -1.19774133175219        0.24842371467306
C           -1.28598073588756        0.00903373137847       -0.10414548055108
C           -0.53313683754935        1.24428760317962        0.33881875550853
H            0.95421522222569       -1.11466062586597       -1.44766499421974
H            1.75795767342995       -1.49257411863419        0.10239356973551
H           -0.86029100491130       -2.12297511757706       -0.11348897130004
H           -0.30799714019228       -1.26549014650028        1.33313828222179
H           -1.43823881896802        0.04180071533264       -1.18461414788265
H           -2.26102814450747       -0.06431523136343        0.37897029452130
H           -0.81913693242984        2.15045918477867       -0.18224778444907
H           -0.55878500465280        1.39176565095728        1.41403001804325
