37
Coordinates from ORCA-job TEGDME_anion_cpcm_200_moread E -770.235533767740
  C           1.31545759424461      1.93565601550578      0.52317730773374
  O           1.69287407794079      1.47451483264079      1.81996150845128
  C           2.27060731310643      0.14168422749250      1.78795606766122
  C           1.24143566899097     -0.92278463267287      1.67024113072750
  O           3.61892580487748     -2.06866651422933     -1.31380128958001
  C           3.23784768333927     -0.99650886863318     -2.06762709247441
  C           1.89069111499051     -1.13026113053639     -2.78459105344664
  O           0.83648345655252     -1.22278413948793     -1.81824120251640
  C          -0.44808315460282     -1.31494017485265     -2.41315671780883
  C          -1.48528096250564     -1.45648233124526     -1.32831329918661
  O          -1.53965459922652     -0.24752933178229     -0.57253538494511
  C          -2.40530507870312     -0.35029557606131      0.55044299954807
  C          -2.27477561704665      0.93904668933083      1.33710618463521
  O          -3.19121920086624      0.87557779378232      2.42251000871375
  C          -3.11105975566143      2.03789590800929      3.24324169299101
  H           0.54888762064422      1.29652311970230      0.06342298342345
  H           2.18874955545561      1.97875830969877     -0.14594476483396
  H           0.90692545682583      2.94230257741864      0.64999016298756
  H           2.82798805057279      0.04714313810891      2.72486431084857
  H           2.98897926838267      0.09822411005968      0.95161242958772
  H           0.97462986797288     -1.52846999969425      2.52995122887195
  H           0.66993116662548     -1.03223351819950      0.75380887903705
  H           3.16004047110307     -0.03569200969957     -1.48526883031295
  H           3.95113700601698     -0.74549224567554     -2.90143427371147
  H           1.71490910052404     -0.25292991426323     -3.43633238439447
  H           1.88368472868708     -2.03667943467535     -3.41774555267903
  H          -0.65846763665188     -0.41984319282062     -3.02467354072065
  H          -0.51120761183258     -2.19634626807063     -3.07495079492784
  H          -1.22410539245779     -2.30097600712438     -0.66876213034783
  H          -2.46613628818180     -1.66759078322354     -1.78557916916649
  H          -2.11878292037410     -1.20747775342023      1.18250302785639
  H          -3.44999002017998     -0.49580578626107      0.22762711532852
  H          -1.24202954508693      1.04806922324520      1.70943935314983
  H          -2.49898691602962      1.80309775160027      0.68872631563986
  H          -3.83938206474129      1.91782695736757      4.04889917208312
  H          -2.10505401714156      2.14808285585445      3.67560392185327
  H          -3.35066423556311      2.94538612281271      2.66895821992485
