37
 energy: -53.021292242716 gnorm: 0.000950553217 xtb: 6.7.1pre (5071a88)
C            1.38156108100226        1.32044090954726        0.33191815475130
O            0.97443946043753        1.81790550617930        1.58178901175698
C            1.49024434837066        1.05071259109962        2.71098238735593
C            0.92609858895722       -0.29343632266798        2.89970755703123
O            3.96757674922854       -0.99492307106899       -4.13321216525968
C            3.19640186930518       -1.18225176480855       -3.07071097773174
C            1.67678616387831       -1.13946049977298       -3.39063293335271
O            0.91308363122199       -1.40908268991733       -2.22919567083568
C           -0.46228707119272       -1.43469136920378       -2.48505509271508
C           -1.22113354973454       -1.65101882251852       -1.17717062022209
O           -1.58838770635330       -0.40153527846222       -0.64457696553548
C           -2.11046759535376       -0.48185651405090        0.65909465770837
C           -2.21696272461891        0.93156436714093        1.21914031655608
O           -2.86186871896848        0.87831039138186        2.47787306025001
C           -2.64696083393661        2.03902220998478        3.23658566175722
H            0.98821663797963        0.31969985789673        0.13322135009952
H            2.47642106496881        1.28931722403817        0.25927367467211
H            0.98965295370683        2.00648957669918       -0.41816648480078
H            1.25432727212024        1.70047008837057        3.56274288648069
H            2.58391713662748        1.00169019864256        2.59085351755326
H           -0.09331859302002       -0.36943977557414        3.23881919540179
H            1.27645500826820       -1.08789438189516        2.26285273037023
H            3.38583554034281       -2.16883004968685       -2.57363644134044
H            3.37356029011214       -0.41880599914848       -2.27119813679777
H            1.41905974533756       -0.14874678872094       -3.79336156003143
H            1.45599626089257       -1.88729972388495       -4.16886601236830
H           -0.79592266319369       -0.48348972284911       -2.92880164652966
H           -0.69847986239563       -2.24670579616043       -3.19621399547326
H           -0.56463533621759       -2.19001498739144       -0.48001752346892
H           -2.12324245726335       -2.26223074753034       -1.35129658490624
H           -1.44973753466724       -1.07486346908968        1.30686646955655
H           -3.10391826645647       -0.96065969149497        0.65232436839455
H           -1.20909457798110        1.35118398993335        1.32151486869158
H           -2.79001806463272        1.56170515958097        0.52218290448734
H           -3.13029928088071        1.87755763761843        4.19947469302034
H           -1.57638267814713        2.22012171296048        3.38487746658039
H           -3.08651629775068        2.92104606483251        2.75110441888203
