10
Coordinates from ORCA-job DMSO_cation_opt E -552.815585798527
  C      -1.339786      0.209093     -0.282774
  S      -0.149661     -0.513984      0.927008
  C       1.334727     -0.336720     -0.153960
  O       0.006571      0.509714      2.034640
  H      -1.013273      1.223586     -0.529281
  H      -1.394152     -0.419297     -1.177208
  H      -2.312898      0.239965      0.212809
  H       2.192277     -0.677731      0.430689
  H       1.222182     -0.954325     -1.050410
  H       1.454013      0.719698     -0.411513
10
Coordinates from ORCA-job DMSO_cation_opt E -552.822226637625
  C      -1.414601      0.227160     -0.285899
  S      -0.133517     -0.454325      0.845042
  C       1.411213     -0.349155     -0.148945
  O       0.004156      0.496735      2.023258
  H      -1.117867      1.250535     -0.531449
  H      -1.470683     -0.405807     -1.176020
  H      -2.369082      0.221743      0.249249
  H       2.234249     -0.715612      0.472158
  H       1.297621     -0.974131     -1.039162
  H       1.558512      0.702855     -0.408233
10
Coordinates from ORCA-job DMSO_cation_opt E -552.823847440145
  C      -1.437590      0.236714     -0.288533
  S      -0.122940     -0.414854      0.797978
  C       1.436689     -0.349229     -0.149192
  O      -0.001864      0.473466      2.021369
  H      -1.153861      1.264043     -0.539664
  H      -1.490963     -0.407870     -1.171099
  H      -2.373521      0.209796      0.276649
  H       2.231666     -0.727799      0.499281
  H       1.314980     -0.984916     -1.031663
  H       1.597403      0.700648     -0.415126
10
Coordinates from ORCA-job DMSO_cation_opt E -552.824294373725
  C      -1.444406      0.243311     -0.291034
  S      -0.116843     -0.391064      0.777273
  C       1.445888     -0.345837     -0.151218
  O      -0.008672      0.447354      2.029001
  H      -1.173400      1.271407     -0.554509
  H      -1.500663     -0.411336     -1.166200
  H      -2.367125      0.206341      0.294683
  H       2.223060     -0.728480      0.515946
  H       1.321720     -0.991261     -1.026548
  H       1.620442      0.699565     -0.427394
10
Coordinates from ORCA-job DMSO_cation_opt E -552.824474656850
  C      -1.445529      0.248305     -0.293061
  S      -0.113696     -0.377696      0.770707
  C       1.448915     -0.341776     -0.153356
  O      -0.014973      0.420860      2.041539
  H      -1.185102      1.275278     -0.571628
  H      -1.508482     -0.414797     -1.161469
  H      -2.360303      0.210018      0.305280
  H       2.217238     -0.722562      0.525430
  H       1.326545     -0.996206     -1.022262
  H       1.635386      0.698575     -0.441181
10
Coordinates from ORCA-job DMSO_cation_opt E -552.824519481631
  C      -1.443788      0.250307     -0.293755
  S      -0.113490     -0.375724      0.772940
  C       1.447844     -0.339371     -0.154350
  O      -0.017965      0.405485      2.051211
  H      -1.186401      1.275352     -0.581952
  H      -1.512086     -0.417068     -1.158469
  H      -2.357578      0.216751      0.306773
  H       2.216891     -0.715333      0.526726
  H       1.328349     -0.998689     -1.019839
  H       1.638224      0.698288     -0.449285
10
Coordinates from ORCA-job DMSO_cation_opt E -552.824526925020
  C      -1.441971      0.250544     -0.293606
  S      -0.114161     -0.377870      0.775581
  C       1.446037     -0.338526     -0.154455
  O      -0.018762      0.399843      2.055403
  H      -1.182833      1.274128     -0.585378
  H      -1.512445     -0.418427     -1.156932
  H      -2.357271      0.221803      0.305000
  H       2.218422     -0.710603      0.525117
  H       1.327987     -0.999564     -1.018780
  H       1.634997      0.698672     -0.451949
10
Coordinates from ORCA-job DMSO_cation_opt E -552.824529019740
  C      -1.440595      0.250548     -0.293335
  S      -0.114693     -0.379791      0.776872
  C       1.444618     -0.338042     -0.154381
  O      -0.019206      0.396433      2.057590
  H      -1.178947      1.272976     -0.587004
  H      -1.512133     -0.419601     -1.155705
  H      -2.357181      0.225588      0.303471
  H       2.219705     -0.707179      0.523735
  H       1.327218     -1.000158     -1.017978
  H       1.631214      0.699225     -0.453267
10
Coordinates from ORCA-job DMSO_cation_opt E -552.824529657299
  C      -1.439772      0.250582     -0.293145
  S      -0.114962     -0.380832      0.777161
  C       1.443796     -0.337715     -0.154314
  O      -0.019549      0.394132      2.058728
  H      -1.176158      1.272205     -0.587938
  H      -1.511873     -0.420480     -1.154804
  H      -2.357011      0.228019      0.302711
  H       2.220395     -0.705001      0.523046
  H       1.326653     -1.000589     -1.017391
  H       1.628480      0.699678     -0.454055
