10
Coordinates from ORCA-job DMSO_cation_opt E -552.824529657299
  C          -1.43977184418721      0.25058233395260     -0.29314464121086
  S          -0.11496174011357     -0.38083218880321      0.77716130168746
  C           1.44379626963925     -0.33771471596563     -0.15431444779122
  O          -0.01954882215913      0.39413213877113      2.05872782012889
  H          -1.17615785762218      1.27220475404410     -0.58793789390392
  H          -1.51187255757725     -0.42048029284327     -1.15480370876922
  H          -2.35701103301573      0.22801938694775      0.30271066843523
  H           2.22039459982076     -0.70500133061892      0.52304645281769
  H           1.32665297354359     -1.00058914707603     -1.01739065462861
  H           1.62848001167148      0.69967806159147     -0.45405489676544
