18
Coordinates from ORCA-job TMP_m1_dication_opt E -768.849360616140
  C           2.37094553905539     -1.16898989677661      0.65339791276251
  O           1.60141280665017     -0.73063020107741     -0.51478402068684
  P           0.15772146022591     -0.10444265888765     -0.53919972324488
  O          -0.31893446819396      0.23418437090096     -1.90315035524283
  O          -0.70868891450169     -1.15579621909725      0.29102731262884
  C          -2.03808038355451     -1.65260066514226      0.00877803953615
  O           0.26075591535115      1.09149585835637      0.51036922611857
  C          -0.28804083328340      2.42755929284131      0.41308219866947
  H           2.60745303546071     -2.22506253981926      0.47443460795313
  H           1.81608188985156     -1.01684032741026      1.57960260555789
  H           3.30591548673889     -0.59575067194730      0.62571608770598
  H          -1.94522771735407     -2.74750007027675     -0.06123251936369
  H          -2.44942598974414     -1.21168805068281     -0.89949716336861
  H          -2.64389599221721     -1.43921186535637      0.90142424702342
  H           0.56406113912578      3.11505734300598      0.52653572758945
  H          -0.92992950581704      2.56343919261763      1.29567735963350
  H          -0.82122859621653      2.57665687701855     -0.52605499929157
  Li         -0.29850087157702      0.40264323173316     -3.76470454398050
