18
Coordinates from ORCA-job TMP_m2_cation_opt E -769.309714053336
  C       2.419006     -1.184835     -0.241600
  O       1.537623     -0.398894      0.585104
  P       0.130175      0.068741     -0.053511
  O      -0.009582      0.214188     -1.483200
  O      -0.812530     -0.954732      0.737160
  C      -2.028915     -1.417119      0.122057
  O      -0.051376      1.356249      0.905218
  C      -0.155151      2.661062      0.301406
  H       3.440379     -0.944670      0.046791
  H       2.258482     -0.931042     -1.290437
  H       2.229848     -2.246846     -0.087639
  H      -2.131571     -2.475787      0.353351
  H      -1.973746     -1.273579     -0.957484
  H      -2.877019     -0.865933      0.526501
  H       0.766571      3.215856      0.473964
  H      -0.992075      3.182726      0.763494
  H      -0.327110      2.557429     -0.770623
  Li      0.556712      0.017232      2.281833
18
Coordinates from ORCA-job TMP_m2_cation_opt E -769.312666775745
  C       2.446445     -1.205873     -0.242524
  O       1.544405     -0.390222      0.567095
  P       0.130324      0.072057     -0.075614
  O      -0.009682      0.219593     -1.514469
  O      -0.805790     -0.961831      0.719081
  C      -2.051865     -1.433922      0.124195
  O      -0.060233      1.360302      0.889713
  C      -0.161890      2.696408      0.307044
  H       3.462606     -0.964113      0.068637
  H       2.313920     -0.966524     -1.299834
  H       2.244143     -2.266526     -0.071161
  H      -2.144839     -2.492354      0.368755
  H      -2.024570     -1.301674     -0.959670
  H      -2.891612     -0.877868      0.548195
  H       0.764756      3.242604      0.496929
  H      -0.999420      3.203690      0.787390
  H      -0.336768      2.623312     -0.768065
  Li      0.559791      0.022986      2.266687
18
Coordinates from ORCA-job TMP_m2_cation_opt E -769.314299971436
  C       2.467826     -1.225651     -0.240649
  O       1.551123     -0.371890      0.538374
  P       0.129260      0.077055     -0.111595
  O      -0.010445      0.229401     -1.560895
  O      -0.791903     -0.972670      0.688701
  C      -2.068959     -1.448463      0.127843
  O      -0.076216      1.360918      0.864819
  C      -0.169579      2.726747      0.314622
  H       3.473216     -0.985613      0.104652
  H       2.367159     -0.995706     -1.303244
  H       2.235048     -2.276528     -0.048779
  H      -2.148224     -2.502517      0.394195
  H      -2.066266     -1.329825     -0.957930
  H      -2.887069     -0.878127      0.574664
  H       0.765831      3.250269      0.523280
  H      -1.004456      3.212652      0.820207
  H      -0.349709      2.679783     -0.760958
  Li      0.563084      0.030209      2.245077
18
Coordinates from ORCA-job TMP_m2_cation_opt E -769.315109596450
  C       2.473652     -1.235182     -0.236932
  O       1.557261     -0.347682      0.514440
  P       0.128692      0.081701     -0.140916
  O      -0.011034      0.239638     -1.594983
  O      -0.772851     -0.985534      0.661548
  C      -2.070970     -1.455772      0.130977
  O      -0.095492      1.356781      0.845448
  C      -0.176515      2.739413      0.321002
  H       3.471231     -1.008104      0.136960
  H       2.399996     -1.006355     -1.301542
  H       2.204882     -2.274883     -0.036033
  H      -2.146493     -2.503787      0.418835
  H      -2.081045     -1.351738     -0.955842
  H      -2.867848     -0.865980      0.588884
  H       0.768927      3.240078      0.536426
  H      -1.004266      3.214139      0.847025
  H      -0.365047      2.707239     -0.753353
  Li      0.566642      0.036071      2.230439
18
Coordinates from ORCA-job TMP_m2_cation_opt E -769.316031030522
  C       2.469794     -1.239843     -0.230496
  O       1.565877     -0.310439      0.487866
  P       0.128721      0.087357     -0.171622
  O      -0.012176      0.253302     -1.626789
  O      -0.742509     -1.005516      0.629409
  C      -2.061872     -1.459793      0.134167
  O      -0.124560      1.347216      0.826395
  C      -0.185283      2.742602      0.328396
  H       3.460906     -1.038716      0.172538
  H       2.428516     -1.012104     -1.296677
  H       2.154343     -2.264706     -0.025563
  H      -2.143440     -2.499322      0.447323
  H      -2.083766     -1.375301     -0.953719
  H      -2.833617     -0.842873      0.597441
  H       0.773070      3.216787      0.543020
  H      -1.000072      3.213912      0.875744
  H      -0.386798      2.725000     -0.743613
  Li      0.572585      0.042481      2.218565
18
Coordinates from ORCA-job TMP_m2_cation_opt E -769.317000404693
  C       2.458801     -1.238042     -0.222773
  O       1.573797     -0.272613      0.465846
  P       0.129088      0.092083     -0.194164
  O      -0.014347      0.265979     -1.645822
  O      -0.710537     -1.026652      0.601239
  C      -2.045214     -1.458969      0.136272
  O      -0.154466      1.334887      0.813284
  C      -0.193061      2.735208      0.334628
  H       3.447409     -1.065303      0.198273
  H       2.444763     -1.017027     -1.290959
  H       2.105441     -2.249936     -0.016608
  H      -2.141635     -2.491087      0.467788
  H      -2.079085     -1.390829     -0.952248
  H      -2.796710     -0.818549      0.600254
  H       0.775866      3.189886      0.542823
  H      -0.993578      3.213090      0.896381
  H      -0.406624      2.730923     -0.735082
  Li      0.579813      0.046997      2.213253
18
Coordinates from ORCA-job TMP_m2_cation_opt E -769.317930118460
  C       2.445463     -1.230837     -0.213845
  O       1.580879     -0.235596      0.445979
  P       0.129223      0.095849     -0.210151
  O      -0.018580      0.277664     -1.654466
  O      -0.678436     -1.049490      0.574817
  C      -2.024564     -1.455023      0.137249
  O      -0.186031      1.320698      0.804632
  C      -0.200303      2.720247      0.340171
  H       3.435026     -1.086895      0.216029
  H       2.455944     -1.025405     -1.285517
  H       2.064633     -2.232988     -0.006379
  H      -2.144883     -2.480695      0.481089
  H      -2.075105     -1.400899     -0.951652
  H      -2.760282     -0.794802      0.599858
  H       0.777654      3.161398      0.537629
  H      -0.984039      3.214836      0.911368
  H      -0.425653      2.732405     -0.727300
  Li      0.588772      0.049578      2.212871
18
Coordinates from ORCA-job TMP_m2_cation_opt E -769.318657947302
  C       2.431154     -1.220490     -0.203090
  O       1.592921     -0.182217      0.418276
  P       0.128465      0.100178     -0.231297
  O      -0.027491      0.294838     -1.669904
  O      -0.632593     -1.086707      0.537001
  C      -1.999456     -1.451629      0.137119
  O      -0.236760      1.299907      0.795364
  C      -0.210306      2.701774      0.346855
  H       3.416750     -1.114996      0.247340
  H       2.480548     -1.035019     -1.277768
  H       2.007399     -2.206064      0.004465
  H      -2.153965     -2.463960      0.506663
  H      -2.073864     -1.423412     -0.951837
  H      -2.706572     -0.756335      0.594792
  H       0.784705      3.113541      0.525903
  H      -0.963878      3.220141      0.937759
  H      -0.458243      2.738290     -0.715389
  Li      0.600906      0.052203      2.210130
18
Coordinates from ORCA-job TMP_m2_cation_opt E -769.318904737005
  C       2.432444     -1.208809     -0.198004
  O       1.596175     -0.155402      0.402795
  P       0.123318      0.099367     -0.240677
  O      -0.038867      0.303631     -1.677526
  O      -0.612880     -1.112857      0.514745
  C      -1.993837     -1.450018      0.136372
  O      -0.273794      1.285188      0.793469
  C      -0.212543      2.688215      0.349476
  H       3.410808     -1.117566      0.271439
  H       2.509317     -1.030170     -1.272397
  H       1.991543     -2.188375      0.003236
  H      -2.173130     -2.449252      0.530044
  H      -2.081287     -1.445850     -0.952112
  H      -2.679738     -0.726789      0.583905
  H       0.797805      3.071118      0.508004
  H      -0.936335      3.228011      0.958523
  H      -0.483457      2.740669     -0.706523
  Li      0.604179      0.048933      2.207613
18
Coordinates from ORCA-job TMP_m2_cation_opt E -769.319059537904
  C       2.445523     -1.196954     -0.197361
  O       1.591557     -0.153418      0.398800
  P       0.115756      0.094625     -0.240549
  O      -0.048597      0.303941     -1.677608
  O      -0.617700     -1.125832      0.506886
  C      -2.004711     -1.451533      0.135503
  O      -0.294145      1.278321      0.795378
  C      -0.207565      2.681062      0.349454
  H       3.416785     -1.100952      0.286122
  H       2.537671     -1.012879     -1.269643
  H       2.010889     -2.181532     -0.007256
  H      -2.198909     -2.439763      0.549797
  H      -2.094878     -1.469564     -0.952651
  H      -2.681207     -0.710424      0.568508
  H       0.814854      3.040432      0.486160
  H      -0.903842      3.238873      0.974474
  H      -0.500933      2.743438     -0.699930
  Li      0.599173      0.042203      2.206300
18
Coordinates from ORCA-job TMP_m2_cation_opt E -769.319174511100
  C       2.459942     -1.183587     -0.198431
  O       1.584156     -0.159872      0.401543
  P       0.108107      0.087606     -0.236473
  O      -0.054511      0.299013     -1.675137
  O      -0.631441     -1.133817      0.505065
  C      -2.020478     -1.455993      0.133967
  O      -0.308406      1.274770      0.797138
  C      -0.198409      2.676943      0.348632
  H       3.423557     -1.079148      0.298591
  H       2.562103     -0.984371     -1.266956
  H       2.036803     -2.176178     -0.024844
  H      -2.225713     -2.431151      0.573359
  H      -2.105033     -1.502024     -0.953739
  H      -2.692602     -0.698057      0.544415
  H       0.836106      3.011109      0.457061
  H      -0.862366      3.250537      0.994301
  H      -0.520554      2.748422     -0.691572
  Li      0.588460      0.035843      2.205463
18
Coordinates from ORCA-job TMP_m2_cation_opt E -769.319251968865
  C       2.467472     -1.171875     -0.199400
  O       1.577308     -0.165594      0.407788
  P       0.102885      0.081342     -0.232096
  O      -0.055260      0.292008     -1.672158
  O      -0.642354     -1.138168      0.506146
  C      -2.030581     -1.459951      0.132195
  O      -0.317835      1.272348      0.797088
  C      -0.190070      2.673356      0.348072
  H       3.425771     -1.063478      0.306843
  H       2.574232     -0.956345     -1.264202
  H       2.052688     -2.170625     -0.041929
  H      -2.244412     -2.422549      0.594509
  H      -2.105536     -1.532149     -0.954674
  H      -2.701068     -0.688117      0.518670
  H       0.853610      2.986402      0.428773
  H      -0.824282      3.257544      1.013722
  H      -0.539758      2.752717     -0.682500
  Li      0.576909      0.033180      2.205537
18
Coordinates from ORCA-job TMP_m2_cation_opt E -769.319353605545
  C       2.473515     -1.154048     -0.200528
  O       1.566602     -0.172757      0.420725
  P       0.096456      0.072173     -0.225964
  O      -0.051586      0.279097     -1.667919
  O      -0.655857     -1.142543      0.509587
  C      -2.041298     -1.465542      0.129284
  O      -0.330584      1.268196      0.794767
  C      -0.177890      2.666994      0.347718
  H       3.425509     -1.044379      0.316862
  H       2.583907     -0.912160     -1.259172
  H       2.069231     -2.160691     -0.068748
  H      -2.268656     -2.407083      0.626863
  H      -2.098738     -1.579229     -0.954910
  H      -2.710256     -0.673536      0.475179
  H       0.877276      2.948437      0.383027
  H      -0.764174      3.263815      1.045070
  H      -0.571169      2.760528     -0.665653
  Li      0.557433      0.032775      2.206196
18
Coordinates from ORCA-job TMP_m2_cation_opt E -769.319422650213
  C       2.474426     -1.140583     -0.200925
  O       1.558258     -0.175943      0.432429
  P       0.092524      0.065755     -0.223290
  O      -0.045115      0.267957     -1.666390
  O      -0.662553     -1.144696      0.512690
  C      -2.045773     -1.469192      0.127272
  O      -0.340401      1.263586      0.790712
  C      -0.169670      2.660930      0.348239
  H       3.423064     -1.033717      0.322891
  H       2.586225     -0.878964     -1.254666
  H       2.076160     -2.151898     -0.088644
  H      -2.284648     -2.393055      0.651580
  H      -2.089647     -1.615517     -0.953527
  H      -2.713233     -0.662366      0.440007
  H       0.892179      2.918635      0.347407
  H      -0.717406      3.264951      1.070124
  H      -0.596175      2.768582     -0.650106
  Li      0.541507      0.035580      2.206582
18
Coordinates from ORCA-job TMP_m2_cation_opt E -769.319463420040
  C       2.473147     -1.132361     -0.200627
  O       1.553068     -0.175193      0.439680
  P       0.090263      0.062532     -0.224666
  O      -0.039273      0.260945     -1.668196
  O      -0.663444     -1.145983      0.513864
  C      -2.046247     -1.471002      0.126597
  O      -0.348058      1.258927      0.786331
  C      -0.165655      2.655961      0.349448
  H       3.420576     -1.029261      0.326061
  H       2.586237     -0.860657     -1.251656
  H       2.077093     -2.145638     -0.098810
  H      -2.293009     -2.383692      0.666452
  H      -2.083990     -1.637001     -0.951581
  H      -2.711916     -0.655319      0.419593
  H       0.899534      2.898856      0.327124
  H      -0.689176      3.263756      1.085944
  H      -0.610893      2.775681     -0.639296
  Li      0.531464      0.039494      2.206122
18
Coordinates from ORCA-job TMP_m2_cation_opt E -769.319480055173
  C       2.472504     -1.129204     -0.200054
  O       1.551089     -0.173239      0.441429
  P       0.088897      0.061902     -0.227809
  O      -0.036989      0.258731     -1.671367
  O      -0.662434     -1.146830      0.513319
  C      -2.046008     -1.471686      0.126964
  O      -0.352499      1.256066      0.783689
  C      -0.164445      2.653392      0.350467
  H       3.419909     -1.027178      0.327004
  H       2.586621     -0.856428     -1.250691
  H       2.077280     -2.142996     -0.099688
  H      -2.295283     -2.381527      0.670514
  H      -2.084496     -1.642739     -0.950442
  H      -2.710664     -0.653616      0.415846
  H       0.902029      2.890496      0.322914
  H      -0.680213      3.263089      1.090909
  H      -0.613617      2.779864     -0.635702
  Li      0.528040      0.041947      2.205082
18
Coordinates from ORCA-job TMP_m2_cation_opt E -769.319487053827
  C       2.473390     -1.126155     -0.199508
  O       1.549294     -0.172392      0.441781
  P       0.086921      0.061198     -0.230387
  O      -0.036804      0.257246     -1.674061
  O      -0.663334     -1.148041      0.512519
  C      -2.047579     -1.472626      0.127418
  O      -0.356458      1.254191      0.782117
  C      -0.162489      2.651414      0.351016
  H       3.420588     -1.022349      0.327716
  H       2.588031     -0.853672     -1.250166
  H       2.080756     -2.140976     -0.098895
  H      -2.297747     -2.381639      0.672039
  H      -2.087975     -1.645409     -0.949674
  H      -2.711640     -0.653838      0.415891
  H       0.905119      2.883635      0.321777
  H      -0.673585      3.263298      1.092964
  H      -0.612554      2.783102     -0.634105
  Li      0.525787      0.043058      2.203941
18
Coordinates from ORCA-job TMP_m2_cation_opt E -769.319490879139
  C       2.474269     -1.125951     -0.199338
  O       1.548769     -0.173308      0.441075
  P       0.085904      0.061061     -0.231769
  O      -0.037531      0.256585     -1.675550
  O      -0.665041     -1.147743      0.512666
  C      -2.049151     -1.473065      0.127984
  O      -0.356326      1.254389      0.781699
  C      -0.161412      2.651675      0.351170
  H       3.422145     -1.018455      0.326028
  H       2.587153     -0.856134     -1.250889
  H       2.084596     -2.141600     -0.095358
  H      -2.297089     -2.385339      0.668254
  H      -2.091680     -1.640849     -0.949850
  H      -2.714330     -0.657089      0.421897
  H       0.906178      2.884782      0.327430
  H      -0.676642      3.263925      1.090023
  H      -0.606360      2.783607     -0.636278
  Li      0.526271      0.043556      2.203188
18
Coordinates from ORCA-job TMP_m2_cation_opt E -769.319493645511
  C       2.475321     -1.124020     -0.199114
  O       1.547368     -0.174026      0.440742
  P       0.084095      0.060184     -0.232394
  O      -0.038893      0.255217     -1.676371
  O      -0.667431     -1.148465      0.512641
  C      -2.051383     -1.473726      0.128326
  O      -0.358111      1.254203      0.781323
  C      -0.159046      2.650892      0.351054
  H       3.423419     -1.012217      0.324993
  H       2.586382     -0.855595     -1.251231
  H       2.089485     -2.140927     -0.093074
  H      -2.297856     -2.388069      0.665811
  H      -2.095223     -1.638246     -0.949973
  H      -2.717090     -0.659483      0.425844
  H       0.909048      2.882146      0.330831
  H      -0.675558      3.264291      1.088074
  H      -0.600670      2.783807     -0.637770
  Li      0.525865      0.044079      2.202671
18
Coordinates from ORCA-job TMP_m2_cation_opt E -769.319496512624
  C       2.476147     -1.121444     -0.199017
  O       1.545335     -0.175213      0.441231
  P       0.082052      0.058676     -0.232420
  O      -0.039882      0.252572     -1.676735
  O      -0.670574     -1.149053      0.513181
  C      -2.054042     -1.474722      0.128561
  O      -0.360100      1.254066      0.780534
  C      -0.155846      2.650106      0.350889
  H       3.424638     -1.004612      0.323274
  H       2.584168     -0.853729     -1.251649
  H       2.095080     -2.139950     -0.091272
  H      -2.298860     -2.391118      0.663309
  H      -2.098209     -1.636020     -0.950219
  H      -2.720638     -0.662350      0.429093
  H       0.912875      2.878712      0.334197
  H      -0.673312      3.264580      1.086351
  H      -0.594134      2.784088     -0.639281
  Li      0.525022      0.045456      2.202359
18
Coordinates from ORCA-job TMP_m2_cation_opt E -769.319500060414
  C       2.476477     -1.118231     -0.198935
  O       1.542639     -0.176027      0.441985
  P       0.079499      0.056727     -0.232190
  O      -0.041003      0.248940     -1.676928
  O      -0.673952     -1.149828      0.513861
  C      -2.056927     -1.476096      0.128816
  O      -0.363132      1.253790      0.779163
  C      -0.151728      2.649068      0.350705
  H       3.425774     -0.995194      0.320424
  H       2.579956     -0.851885     -1.252394
  H       2.101088     -2.138525     -0.088504
  H      -2.299229     -2.395672      0.659209
  H      -2.101541     -1.632074     -0.950734
  H      -2.724698     -0.666500      0.434024
  H       0.917793      2.874174      0.339948
  H      -0.671458      3.264807      1.083492
  H      -0.584357      2.784195     -0.641801
  Li      0.524517      0.048374      2.202243
18
Coordinates from ORCA-job TMP_m2_cation_opt E -769.319503571492
  C       2.475935     -1.115677     -0.198920
  O       1.540198     -0.175872      0.442674
  P       0.077242      0.055103     -0.231841
  O      -0.041924      0.245585     -1.676954
  O      -0.676251     -1.150447      0.514413
  C      -2.058963     -1.477599      0.129027
  O      -0.366342      1.253501      0.777465
  C      -0.148056      2.648268      0.350611
  H       3.426410     -0.987226      0.316907
  H       2.574502     -0.851524     -1.253415
  H       2.105087     -2.137210     -0.084921
  H      -2.298108     -2.401205      0.653769
  H      -2.104441     -1.626523     -0.951491
  H      -2.728004     -0.671454      0.440358
  H       0.922118      2.870415      0.347787
  H      -0.671825      3.265058      1.079606
  H      -0.573040      2.784164     -0.645101
  Li      0.525183      0.052688      2.202410
18
Coordinates from ORCA-job TMP_m2_cation_opt E -769.319506096565
  C       2.474713     -1.114974     -0.198968
  O       1.539053     -0.174758      0.442945
  P       0.076127      0.054583     -0.231533
  O      -0.042425      0.244105     -1.676801
  O      -0.676581     -1.150645      0.514567
  C      -2.059339     -1.478769      0.129068
  O      -0.368427      1.253390      0.776165
  C      -0.146339      2.648115      0.350651
  H       3.426330     -0.984136      0.314121
  H       2.570017     -0.853109     -1.254332
  H       2.105304     -2.136647     -0.081679
  H      -2.295706     -2.405944      0.648707
  H      -2.105976     -1.621246     -0.952281
  H      -2.729360     -0.675679      0.446064
  H       0.924053      2.869213      0.354955
  H      -0.674627      3.265398      1.075945
  H      -0.564343      2.784120     -0.648017
  Li      0.527245      0.057026      2.202804
18
Coordinates from ORCA-job TMP_m2_cation_opt E -769.319507481618
  C       2.473578     -1.115898     -0.199013
  O       1.539324     -0.173556      0.442833
  P       0.076211      0.055080     -0.231333
  O      -0.042537      0.244718     -1.676541
  O      -0.675578     -1.150502      0.514388
  C      -2.058483     -1.479310      0.128888
  O      -0.368779      1.253536      0.775818
  C      -0.146684      2.648520      0.350750
  H       3.425760     -0.985891      0.313242
  H       2.568323     -0.855217     -1.254705
  H       2.102754     -2.136882     -0.080164
  H      -2.293506     -2.408196      0.646063
  H      -2.105902     -1.618633     -0.952843
  H      -2.728941     -0.677713      0.448740
  H       0.923560      2.870341      0.358239
  H      -0.677652      3.265728      1.074145
  H      -0.561480      2.784176     -0.649319
  Li      0.529753      0.059744      2.203197
18
Coordinates from ORCA-job TMP_m2_cation_opt E -769.319508738520
  C       2.472533     -1.117352     -0.199011
  O       1.540057     -0.172563      0.442715
  P       0.076606      0.055920     -0.231060
  O      -0.042584      0.246178     -1.676127
  O      -0.674420     -1.150260      0.514153
  C      -2.057337     -1.479733      0.128490
  O      -0.368400      1.253871      0.776004
  C      -0.147687      2.649106      0.350854
  H       3.424951     -0.989416      0.313333
  H       2.567902     -0.857097     -1.254726
  H       2.099329     -2.137405     -0.079592
  H      -2.291637     -2.409484      0.644434
  H      -2.105158     -1.617511     -0.953420
  H      -2.728166     -0.679005      0.449769
  H       0.922315      2.872178      0.359316
  H      -0.680049      3.266134      1.073382
  H      -0.561371      2.784310     -0.649749
  Li      0.532836      0.062173      2.203619
18
Coordinates from ORCA-job TMP_m2_cation_opt E -769.319510966138
  C       2.471091     -1.119194     -0.198887
  O       1.540852     -0.171555      0.442935
  P       0.076791      0.057010     -0.230370
  O      -0.042818      0.248373     -1.675233
  O      -0.673472     -1.150012      0.513962
  C      -2.056071     -1.480672      0.127557
  O      -0.367816      1.254478      0.776660
  C      -0.148842      2.649824      0.350992
  H       3.423642     -0.994354      0.314012
  H       2.567690     -0.858777     -1.254422
  H       2.094682     -2.138075     -0.079426
  H      -2.289571     -2.411313      0.642288
  H      -2.103896     -1.617070     -0.954534
  H      -2.727731     -0.681067      0.449977
  H       0.920935      2.874160      0.359124
  H      -0.681689      3.266945      1.073103
  H      -0.562468      2.784617     -0.649706
  Li      0.538411      0.066727      2.204350
18
Coordinates from ORCA-job TMP_m2_cation_opt E -769.319516699741
  C       2.466897     -1.125030     -0.198267
  O       1.543184     -0.169543      0.443365
  P       0.077227      0.059981     -0.228089
  O      -0.043796      0.254701     -1.672413
  O      -0.671529     -1.149105      0.513599
  C      -2.052722     -1.483230      0.124551
  O      -0.364839      1.256785      0.779294
  C      -0.152213      2.652357      0.351353
  H       3.419773     -1.008392      0.316016
  H       2.566781     -0.864476     -1.253380
  H       2.081735     -2.140604     -0.078603
  H      -2.283288     -2.417109      0.634755
  H      -2.100145     -1.614546     -0.958191
  H      -2.727324     -0.687702      0.450966
  H       0.916628      2.881500      0.358622
  H      -0.687392      3.269145      1.072071
  H      -0.565961      2.784554     -0.649669
  Li      0.556705      0.080757      2.206405
18
Coordinates from ORCA-job TMP_m2_cation_opt E -769.319529484751
  C       2.459954     -1.133545     -0.196562
  O       1.545811     -0.167204      0.444770
  P       0.076626      0.063990     -0.223728
  O      -0.045644      0.264177     -1.667247
  O      -0.670490     -1.147979      0.513079
  C      -2.048620     -1.488105      0.118627
  O      -0.360080      1.260623      0.784518
  C      -0.156573      2.655982      0.352082
  H       3.413103     -1.028957      0.319904
  H       2.564851     -0.872372     -1.250939
  H       2.062282     -2.144326     -0.077331
  H      -2.274264     -2.427324      0.621249
  H      -2.094394     -1.611217     -0.965173
  H      -2.728824     -0.699753      0.450872
  H       0.911008      2.891455      0.355133
  H      -0.692907      3.272808      1.071971
  H      -0.573127      2.784058     -0.648333
  Li      0.591005      0.107734      2.209494
18
Coordinates from ORCA-job TMP_m2_cation_opt E -769.319572669687
  C       2.448023     -1.147803     -0.192876
  O       1.550248     -0.163977      0.447929
  P       0.075372      0.070835     -0.215713
  O      -0.047938      0.280692     -1.657875
  O      -0.670392     -1.145850      0.511891
  C      -2.042319     -1.496963      0.107225
  O      -0.349974      1.267582      0.795060
  C      -0.164079      2.662198      0.353814
  H       3.400571     -1.064906      0.328791
  H       2.563230     -0.884132     -1.245401
  H       2.028762     -2.150168     -0.076784
  H      -2.260932     -2.442548      0.601096
  H      -2.083209     -1.611464     -0.977750
  H      -2.732528     -0.719229      0.443999
  H       0.901298      2.907787      0.341566
  H      -0.696474      3.279152      1.076619
  H      -0.593045      2.783461     -0.642200
  Li      0.653107      0.155377      2.212991
18
Coordinates from ORCA-job TMP_m2_cation_opt E -769.319626725677
  C       2.440228     -1.156634     -0.190139
  O       1.552702     -0.162032      0.449929
  P       0.074223      0.074852     -0.210344
  O      -0.049382      0.290331     -1.651730
  O      -0.671121     -1.144445      0.510943
  C      -2.038825     -1.502766      0.099480
  O      -0.343460      1.272020      0.801933
  C      -0.168430      2.666117      0.355324
  H       3.392784     -1.085592      0.333367
  H       2.560276     -0.893043     -1.242058
  H       2.008706     -2.153775     -0.074238
  H      -2.252538     -2.452623      0.587321
  H      -2.076364     -1.611251     -0.986270
  H      -2.735632     -0.732218      0.439208
  H       0.895453      2.917772      0.333774
  H      -0.698507      3.283016      1.079940
  H      -0.604942      2.782987     -0.637914
  Li      0.694548      0.187329      2.213856
18
Coordinates from ORCA-job TMP_m2_cation_opt E -769.319682250308
  C       2.434768     -1.163052     -0.187945
  O       1.554423     -0.160918      0.451136
  P       0.073474      0.077529     -0.206459
  O      -0.050602      0.297079     -1.647251
  O      -0.671698     -1.143468      0.510074
  C      -2.036382     -1.506554      0.093644
  O      -0.338700      1.275072      0.807099
  C      -0.171720      2.668833      0.356658
  H       3.387658     -1.099150      0.335942
  H       2.557188     -0.900720     -1.239864
  H       1.995419     -2.156621     -0.070961
  H      -2.246950     -2.459154      0.577513
  H      -2.071238     -1.611142     -0.992603
  H      -2.737664     -0.740752      0.434875
  H       0.891017      2.924788      0.328186
  H      -0.699988      3.285455      1.082877
  H      -0.614031      2.782402     -0.634377
  Li      0.724745      0.210417      2.213840
18
Coordinates from ORCA-job TMP_m2_cation_opt E -769.319745652431
  C       2.429320     -1.169686     -0.185620
  O       1.556291     -0.159807      0.452098
  P       0.072915      0.080242     -0.202745
  O      -0.051772      0.303933     -1.642899
  O      -0.672097     -1.142459      0.509023
  C      -2.033838     -1.510151      0.087746
  O      -0.333644      1.278063      0.812293
  C      -0.175249      2.671583      0.358152
  H       3.382597     -1.112613      0.338410
  H       2.553902     -0.909241     -1.237721
  H       1.982224     -2.159575     -0.066983
  H      -2.241324     -2.465395      0.567743
  H      -2.066114     -1.610903     -0.998965
  H      -2.739426     -0.748973      0.430435
  H       0.886203      2.932133      0.322650
  H      -0.701809      3.287689      1.086092
  H      -0.623508      2.781737     -0.630575
  Li      0.755052      0.233469      2.213251
18
Coordinates from ORCA-job TMP_m2_cation_opt E -769.319814595120
  C       2.424042     -1.176236     -0.183206
  O       1.558136     -0.158723      0.452823
  P       0.072373      0.082831     -0.199170
  O      -0.053058      0.310702     -1.638674
  O      -0.672467     -1.141597      0.507796
  C      -2.031396     -1.513557      0.081876
  O      -0.328658      1.280878      0.817420
  C      -0.178792      2.674155      0.359749
  H       3.377710     -1.125456      0.340808
  H       2.550573     -0.918132     -1.235625
  H       1.969584     -2.162502     -0.062499
  H      -2.235901     -2.471389      0.558006
  H      -2.061308     -1.610410     -1.005271
  H      -2.741029     -0.756860      0.426139
  H       0.881319      2.939246      0.317417
  H      -0.703741      3.289685      1.089374
  H      -0.632819      2.780946     -0.626692
  Li      0.785152      0.256462      2.212112
18
Coordinates from ORCA-job TMP_m2_cation_opt E -769.319907300910
  C       2.415888     -1.186055     -0.179563
  O       1.561225     -0.156429      0.453739
  P       0.071681      0.087042     -0.194131
  O      -0.054647      0.320875     -1.632683
  O      -0.673031     -1.140166      0.505739
  C      -2.027752     -1.519114      0.073408
  O      -0.320627      1.285226      0.824621
  C      -0.183959      2.678197      0.362194
  H       3.369567     -1.146048      0.345456
  H       2.546607     -0.931018     -1.232158
  H       1.949216     -2.166271     -0.056389
  H      -2.226926     -2.481195      0.543245
  H      -2.054944     -1.609417     -1.014397
  H      -2.743646     -0.769873      0.421038
  H       0.873933      2.950642      0.310247
  H      -0.707153      3.292722      1.093985
  H      -0.645890      2.780122     -0.621070
  Li      0.830178      0.290805      2.209101
18
Coordinates from ORCA-job TMP_m2_cation_opt E -769.320222850092
  C       2.410099     -1.201666     -0.171963
  O       1.563739     -0.164456      0.453627
  P       0.073556      0.087851     -0.186079
  O      -0.060099      0.336092     -1.621848
  O      -0.673285     -1.139122      0.502084
  C      -2.023027     -1.516802      0.056802
  O      -0.307994      1.288484      0.840748
  C      -0.196180      2.681020      0.367747
  H       3.371364     -1.152433      0.338084
  H       2.526510     -0.965522     -1.230950
  H       1.946294     -2.180611     -0.029963
  H      -2.228598     -2.475682      0.530153
  H      -2.036843     -1.613030     -1.030745
  H      -2.741493     -0.764233      0.391172
  H       0.857449      2.962252      0.287984
  H      -0.706798      3.291255      1.111832
  H      -0.685364      2.771350     -0.603081
  Li      0.890392      0.335296      2.206779
18
Coordinates from ORCA-job TMP_m2_cation_opt E -769.320685630890
  C       2.400601     -1.223495     -0.159849
  O       1.565966     -0.178636      0.457191
  P       0.077562      0.086991     -0.176427
  O      -0.057325      0.352277     -1.609598
  O      -0.678302     -1.135016      0.497377
  C      -2.019458     -1.514510      0.030760
  O      -0.281635      1.293745      0.863750
  C      -0.212518      2.686708      0.378421
  H       3.376321     -1.153179      0.318943
  H       2.486189     -1.019394     -1.228968
  H       1.948384     -2.202207      0.016609
  H      -2.233976     -2.467492      0.511613
  H      -2.010361     -1.622714     -1.055610
  H      -2.743160     -0.757176      0.341504
  H       0.832049      2.982903      0.252500
  H      -0.701428      3.287885      1.144068
  H      -0.746301      2.758745     -0.569765
  Li      0.977114      0.404608      2.199865
18
Coordinates from ORCA-job TMP_m2_cation_opt E -769.321270149691
  C       2.383517     -1.253538     -0.141039
  O       1.572847     -0.187491      0.462536
  P       0.082758      0.091684     -0.162023
  O      -0.055295      0.385074     -1.589826
  O      -0.688005     -1.128875      0.484803
  C      -2.015527     -1.520025     -0.006275
  O      -0.238714      1.303999      0.894983
  C      -0.233592      2.694204      0.393851
  H       3.372802     -1.176388      0.307852
  H       2.443963     -1.085008     -1.218508
  H       1.930052     -2.224276      0.072277
  H      -2.234766     -2.467553      0.482891
  H      -1.981259     -1.641572     -1.090682
  H      -2.750369     -0.763453      0.278426
  H       0.793335      3.013791      0.200584
  H      -0.689264      3.287488      1.185711
  H      -0.827441      2.741077     -0.519153
  Li      1.114677      0.510907      2.175977
18
Coordinates from ORCA-job TMP_m2_cation_opt E -769.321804309652
  C       2.374190     -1.297708     -0.115757
  O       1.584515     -0.215289      0.470677
  P       0.104138      0.093836     -0.144849
  O      -0.021117      0.424610     -1.565759
  O      -0.702388     -1.115540      0.466336
  C      -2.015874     -1.502970     -0.059394
  O      -0.153681      1.314651      0.943758
  C      -0.277907      2.691059      0.419242
  H       3.388287     -1.182243      0.264487
  H       2.374678     -1.196132     -1.204092
  H       1.952671     -2.264504      0.170149
  H      -2.267904     -2.426940      0.457888
  H      -1.940437     -1.665404     -1.136132
  H      -2.750126     -0.726621      0.166417
  H       0.700255      3.056033      0.099014
  H      -0.668104      3.276296      1.251116
  H      -0.976734      2.683131     -0.417196
  Li      1.275259      0.633781      2.146480
18
Coordinates from ORCA-job TMP_m2_cation_opt E -769.321844417566
  C       2.343274     -1.344698     -0.088318
  O       1.608180     -0.199353      0.459589
  P       0.113394      0.117145     -0.145086
  O      -0.040586      0.476351     -1.557497
  O      -0.702983     -1.098916      0.438132
  C      -1.999452     -1.527437     -0.091139
  O      -0.094791      1.337055      0.941051
  C      -0.307282      2.713293      0.443516
  H       3.347278     -1.296846      0.331228
  H       2.387241     -1.249923     -1.175959
  H       1.842709     -2.272593      0.196582
  H      -2.223993     -2.456644      0.429475
  H      -1.918135     -1.690242     -1.167475
  H      -2.756709     -0.772899      0.132369
  H       0.637994      3.122583      0.079949
  H      -0.679290      3.272680      1.301244
  H      -1.043756      2.689057     -0.358935
  Li      1.466626      0.761431      2.043657
18
Coordinates from ORCA-job TMP_m2_cation_opt E -769.322627023364
  C       2.356610     -1.395553     -0.094243
  O       1.635179     -0.235891      0.453718
  P       0.155675      0.124499     -0.141315
  O      -0.014824      0.496683     -1.548602
  O      -0.665365     -1.074849      0.450998
  C      -1.968222     -1.465075     -0.091619
  O      -0.046676      1.343260      0.940574
  C      -0.375856      2.694698      0.443902
  H       3.357301     -1.364261      0.334988
  H       2.409645     -1.295366     -1.180512
  H       1.838913     -2.313895      0.189838
  H      -2.240061     -2.370400      0.448351
  H      -1.873837     -1.658065     -1.161773
  H      -2.698826     -0.675555      0.097981
  H       0.517079      3.153578      0.013597
  H      -0.725885      3.249010      1.314181
  H      -1.158444      2.620107     -0.310474
  Li      1.477314      0.747121      2.052792
18
Coordinates from ORCA-job TMP_m2_cation_opt E -769.323269617535
  C       2.354464     -1.433282     -0.082275
  O       1.653329     -0.260789      0.460383
  P       0.188881      0.132420     -0.134200
  O       0.050118      0.500435     -1.546269
  O      -0.658526     -1.056354      0.448088
  C      -1.959017     -1.422543     -0.119601
  O       0.021907      1.357357      0.958961
  C      -0.427509      2.671972      0.462971
  H       3.371277     -1.387469      0.305857
  H       2.368529     -1.367748     -1.172494
  H       1.850963     -2.343652      0.249318
  H      -2.269770     -2.308798      0.430992
  H      -1.844020     -1.639904     -1.182901
  H      -2.673743     -0.610999      0.034322
  H       0.393389      3.164840     -0.061190
  H      -0.728350      3.232913      1.347299
  H      -1.271685      2.536808     -0.213228
  Li      1.559484      0.814836      2.026350
18
Coordinates from ORCA-job TMP_m2_cation_opt E -769.323912981150
  C       2.338453     -1.488935     -0.058177
  O       1.690351     -0.275073      0.462668
  P       0.238080      0.152468     -0.133736
  O       0.110288      0.525486     -1.546023
  O      -0.643387     -1.023843      0.436334
  C      -1.936662     -1.379005     -0.156753
  O       0.117667      1.386528      0.954485
  C      -0.496447      2.644456      0.494035
  H       3.359225     -1.474258      0.321758
  H       2.344971     -1.449812     -1.149479
  H       1.800473     -2.366368      0.305790
  H      -2.280549     -2.244833      0.406677
  H      -1.800738     -1.624983     -1.211308
  H      -2.640420     -0.551415     -0.041991
  H       0.210181      3.183393     -0.139174
  H      -0.733958      3.208304      1.395628
  H      -1.405053      2.429877     -0.069644
  Li      1.707246      0.928056      1.941295
18
Coordinates from ORCA-job TMP_m2_cation_opt E -769.324375785468
  C       2.331909     -1.527498     -0.035695
  O       1.727452     -0.279967      0.465768
  P       0.276894      0.159356     -0.135558
  O       0.159824      0.516531     -1.553044
  O      -0.630551     -1.007728      0.434895
  C      -1.920802     -1.334800     -0.184099
  O       0.176063      1.402904      0.932953
  C      -0.551987      2.614238      0.519313
  H       3.349866     -1.545575      0.351245
  H       2.343026     -1.503546     -1.127178
  H       1.757013     -2.373691      0.344885
  H      -2.292450     -2.197060      0.367395
  H      -1.774019     -1.578720     -1.237824
  H      -2.611645     -0.495313     -0.077185
  H       0.052116      3.172521     -0.198054
  H      -0.724961      3.189365      1.428379
  H      -1.506448      2.344609      0.063660
  Li      1.818420      1.024419      1.852527
18
Coordinates from ORCA-job TMP_m2_cation_opt E -769.324570230200
  C       2.326804     -1.564320     -0.004240
  O       1.758110     -0.286023      0.461655
  P       0.316038      0.169612     -0.142380
  O       0.189620      0.538272     -1.556461
  O      -0.626596     -0.977078      0.425664
  C      -1.910400     -1.282159     -0.218584
  O       0.255224      1.430340      0.909800
  C      -0.603639      2.569661      0.546403
  H       3.346432     -1.596990      0.377200
  H       2.331370     -1.574867     -1.096213
  H       1.731718     -2.382623      0.405038
  H      -2.309512     -2.133651      0.330555
  H      -1.747058     -1.535547     -1.267651
  H      -2.588087     -0.429774     -0.131170
  H      -0.128805      3.138435     -0.254701
  H      -0.713762      3.166721      1.451113
  H      -1.582491      2.214324      0.218974
  Li      1.934754      1.115712      1.757382
18
Coordinates from ORCA-job TMP_m2_cation_opt E -769.324776883389
  C       2.335853     -1.569227     -0.001804
  O       1.764132     -0.294114      0.472577
  P       0.318902      0.160846     -0.137656
  O       0.203892      0.510624     -1.557324
  O      -0.630748     -0.973330      0.437272
  C      -1.911826     -1.267291     -0.219856
  O       0.245984      1.427046      0.900843
  C      -0.613209      2.568026      0.543118
  H       3.356526     -1.601417      0.376703
  H       2.336299     -1.574087     -1.093870
  H       1.743570     -2.391346      0.403681
  H      -2.303333     -2.141056      0.298978
  H      -1.745783     -1.483238     -1.276887
  H      -2.596379     -0.424170     -0.102866
  H      -0.156390      3.119287     -0.280632
  H      -0.692622      3.180729      1.440557
  H      -1.603896      2.212520      0.253433
  Li      1.928748      1.120247      1.756117
18
Coordinates from ORCA-job TMP_m2_cation_opt E -769.325034104622
  C       2.335890     -1.572961      0.007493
  O       1.764426     -0.304605      0.497255
  P       0.325782      0.161650     -0.134527
  O       0.244455      0.493178     -1.560565
  O      -0.650283     -0.945007      0.434879
  C      -1.919485     -1.263462     -0.234023
  O       0.255934      1.436969      0.893058
  C      -0.618581      2.569649      0.546734
  H       3.360734     -1.605955      0.374329
  H       2.325122     -1.570829     -1.084787
  H       1.751131     -2.402766      0.408328
  H      -2.280724     -2.164081      0.260229
  H      -1.744843     -1.443667     -1.296222
  H      -2.630778     -0.447132     -0.092328
  H      -0.216856      3.079750     -0.330445
  H      -0.628662      3.221222      1.419911
  H      -1.628025      2.205144      0.348341
  Li      1.934483      1.132946      1.754724
18
Coordinates from ORCA-job TMP_m2_cation_opt E -769.325321729029
  C       2.344972     -1.581335      0.021555
  O       1.768128     -0.320980      0.517827
  P       0.336192      0.157652     -0.127292
  O       0.282790      0.477330     -1.557446
  O      -0.665074     -0.919639      0.435739
  C      -1.921899     -1.227963     -0.259127
  O       0.276489      1.444686      0.891526
  C      -0.644579      2.542973      0.555305
  H       3.368208     -1.615368      0.392687
  H       2.341400     -1.572434     -1.071100
  H       1.761632     -2.419221      0.408374
  H      -2.282492     -2.144451      0.205528
  H      -1.730950     -1.376119     -1.323429
  H      -2.638191     -0.419167     -0.101587
  H      -0.373405      2.956112     -0.417662
  H      -0.531943      3.281665      1.348056
  H      -1.668032      2.163366      0.548316
  Li      1.956475      1.152938      1.745114
18
Coordinates from ORCA-job TMP_m2_cation_opt E -769.325495941412
  C       2.341048     -1.587287      0.038712
  O       1.767806     -0.326044      0.530965
  P       0.345220      0.162082     -0.128777
  O       0.312613      0.475778     -1.561501
  O      -0.678120     -0.897050      0.424836
  C      -1.922451     -1.214628     -0.286976
  O       0.302704      1.456580      0.884052
  C      -0.660534      2.525543      0.574222
  H       3.356092     -1.634302      0.430459
  H       2.360145     -1.572331     -1.053765
  H       1.743067     -2.422142      0.409613
  H      -2.273453     -2.144041      0.158857
  H      -1.718928     -1.340849     -1.351759
  H      -2.650147     -0.417881     -0.121600
  H      -0.519897      2.848475     -0.458781
  H      -0.448522      3.333013      1.273849
  H      -1.673207      2.151285      0.739143
  Li      1.996285      1.183843      1.710835
18
Coordinates from ORCA-job TMP_m2_cation_opt E -769.325632521426
  C       2.342151     -1.587795      0.043352
  O       1.760288     -0.329753      0.529630
  P       0.342573      0.161295     -0.131161
  O       0.308456      0.476743     -1.564212
  O      -0.681177     -0.895928      0.423561
  C      -1.923021     -1.215711     -0.290964
  O       0.303873      1.457622      0.880291
  C      -0.661496      2.525869      0.576692
  H       3.344731     -1.642211      0.465358
  H       2.393598     -1.563011     -1.047744
  H       1.731184     -2.422533      0.392898
  H      -2.256589     -2.164302      0.126810
  H      -1.723556     -1.304744     -1.360392
  H      -2.661282     -0.435145     -0.097149
  H      -0.562724      2.811682     -0.472328
  H      -0.410198      3.357469      1.233674
  H      -1.669906      2.169283      0.799408
  Li      2.002815      1.181216      1.704659
18
Coordinates from ORCA-job TMP_m2_cation_opt E -769.325787986803
  C       2.339458     -1.586332      0.047555
  O       1.746777     -0.331840      0.527413
  P       0.337640      0.161670     -0.135996
  O       0.301261      0.470203     -1.570880
  O      -0.684888     -0.898102      0.427884
  C      -1.924013     -1.226866     -0.287093
  O       0.301688      1.460418      0.871184
  C      -0.654056      2.536454      0.573573
  H       3.323489     -1.653739      0.509877
  H       2.434079     -1.547434     -1.039877
  H       1.710835     -2.419990      0.367063
  H      -2.214087     -2.212945      0.072143
  H      -1.741708     -1.239738     -1.363493
  H      -2.687894     -0.489274     -0.033013
  H      -0.576523      2.803862     -0.482534
  H      -0.375676      3.380228      1.203785
  H      -1.663016      2.200746      0.824715
  Li      2.006355      1.172723      1.700079
18
Coordinates from ORCA-job TMP_m2_cation_opt E -769.325845659414
  C       2.338038     -1.587672      0.049096
  O       1.741560     -0.335173      0.532311
  P       0.339220      0.164059     -0.136653
  O       0.304342      0.466311     -1.572675
  O      -0.688509     -0.888598      0.434485
  C      -1.924435     -1.227371     -0.282060
  O       0.305199      1.466675      0.864399
  C      -0.651931      2.539710      0.565941
  H       3.312199     -1.666222      0.530190
  H       2.453043     -1.536267     -1.035724
  H       1.699218     -2.421796      0.346447
  H      -2.179469     -2.236818      0.036922
  H      -1.755576     -1.189091     -1.360177
  H      -2.707845     -0.526263      0.012529
  H      -0.587030      2.795926     -0.493902
  H      -0.365267      3.391137      1.182126
  H      -1.657794      2.207557      0.832686
  Li      2.004756      1.163939      1.706442
18
Coordinates from ORCA-job TMP_m2_cation_opt E -769.325896649528
  C       2.336237     -1.587978      0.051570
  O       1.737844     -0.336758      0.540826
  P       0.340256      0.163664     -0.135823
  O       0.310212      0.452327     -1.574240
  O      -0.695947     -0.878284      0.444757
  C      -1.926499     -1.226516     -0.277111
  O       0.311268      1.472937      0.855464
  C      -0.648632      2.543139      0.556767
  H       3.304725     -1.674707      0.542307
  H       2.461393     -1.526399     -1.031607
  H       1.690937     -2.423040      0.331970
  H      -2.143471     -2.258393     -0.004198
  H      -1.771287     -1.132562     -1.353931
  H      -2.729539     -0.568062      0.059463
  H      -0.589406      2.796710     -0.504021
  H      -0.360795      3.396228      1.170180
  H      -1.652285      2.208878      0.828703
  Li      2.004709      1.158859      1.711307
18
Coordinates from ORCA-job TMP_m2_cation_opt E -769.325932325905
  C       2.334465     -1.588858      0.051227
  O       1.737558     -0.337917      0.547326
  P       0.342736      0.164911     -0.134290
  O       0.315038      0.443017     -1.574382
  O      -0.701268     -0.864413      0.454019
  C      -1.927506     -1.223378     -0.270339
  O       0.321052      1.480516      0.848652
  C      -0.646877      2.543479      0.547285
  H       3.300810     -1.681499      0.544690
  H       2.462153     -1.519545     -1.031227
  H       1.684800     -2.423996      0.321106
  H      -2.118855     -2.267201     -0.023995
  H      -1.781940     -1.097694     -1.345202
  H      -2.742587     -0.593516      0.090689
  H      -0.579245      2.805856     -0.510672
  H      -0.374189      3.392844      1.172534
  H      -1.649755      2.196052      0.805177
  Li      2.003331      1.151386      1.719785
18
Coordinates from ORCA-job TMP_m2_cation_opt E -769.325955734946
  C       2.333330     -1.588894      0.050993
  O       1.738960     -0.338141      0.551768
  P       0.343781      0.164041     -0.132309
  O       0.317882      0.430480     -1.574472
  O      -0.706580     -0.854449      0.462302
  C      -1.928114     -1.219830     -0.266833
  O       0.329983      1.485829      0.842671
  C      -0.646437      2.542431      0.542305
  H       3.299757     -1.684272      0.543530
  H       2.459761     -1.515833     -1.031406
  H       1.681830     -2.423737      0.317457
  H      -2.107276     -2.269350     -0.035583
  H      -1.784669     -1.077255     -1.339830
  H      -2.749550     -0.604773      0.104894
  H      -0.573359      2.813275     -0.513037
  H      -0.386199      3.387764      1.177989
  H      -1.648177      2.183631      0.789667
  Li      2.004798      1.149129      1.722278
