18
TMP_m2_dication_sp
C      2.3333300000    -1.5888940000     0.0509930000
O      1.7389600000    -0.3381410000     0.5517680000
P      0.3437810000     0.1640410000    -0.1323090000
O      0.3178820000     0.4304800000    -1.5744720000
O     -0.7065800000    -0.8544490000     0.4623020000
C     -1.9281140000    -1.2198300000    -0.2668330000
O      0.3299830000     1.4858290000     0.8426710000
C     -0.6464370000     2.5424310000     0.5423050000
H      3.2997570000    -1.6842720000     0.5435300000
H      2.4597610000    -1.5158330000    -1.0314060000
H      1.6818300000    -2.4237370000     0.3174570000
H     -2.1072760000    -2.2693500000    -0.0355830000
H     -1.7846690000    -1.0772550000    -1.3398300000
H     -2.7495500000    -0.6047730000     0.1048940000
H     -0.5733590000     2.8132750000    -0.5130370000
H     -0.3861990000     3.3877640000     1.1779890000
H     -1.6481770000     2.1836310000     0.7896670000
Li     2.0047980000     1.1491290000     1.7222780000
