18
Coordinates from ORCA-job TMP_m1_cation_opt E -769.335268346730
  C       2.370857     -1.184118      0.200894
  O       1.474988     -0.101018      0.462523
  P       0.014139     -0.087329     -0.090230
  O      -0.031829     -0.120806     -1.597638
  O      -0.708939     -1.312651      0.554567
  C      -2.099086     -1.569367      0.338231
  O      -0.668127      1.186480      0.501099
  C      -0.207427      2.505637      0.195415
  H       3.336168     -0.874660      0.597952
  H       2.445967     -1.368780     -0.872881
  H       2.030043     -2.084760      0.709946
  H      -2.293805     -2.545589      0.778969
  H      -2.324305     -1.585380     -0.729986
  H      -2.701928     -0.809923      0.834241
  H       0.761495      2.681906      0.660862
  H      -0.950072      3.183700      0.612109
  H      -0.133091      2.645022     -0.885173
  Li     -0.072654     -0.195840     -3.199480
18
Coordinates from ORCA-job TMP_m1_cation_opt E -769.337335288749
  C       2.392189     -1.195053      0.203725
  O       1.475169     -0.106014      0.465404
  P       0.013986     -0.088552     -0.098972
  O      -0.031360     -0.119393     -1.610676
  O      -0.713189     -1.311832      0.555945
  C      -2.119591     -1.581035      0.342365
  O      -0.664355      1.187610      0.503474
  C      -0.208702      2.527213      0.196239
  H       3.352192     -0.887311      0.617033
  H       2.489141     -1.369186     -0.872873
  H       2.047777     -2.105334      0.702046
  H      -2.314228     -2.550919      0.799140
  H      -2.348352     -1.620575     -0.727594
  H      -2.727129     -0.812804      0.828320
  H       0.771030      2.703576      0.648318
  H      -0.944626      3.203200      0.630511
  H      -0.156379      2.679393     -0.886663
  Li     -0.071179     -0.190460     -3.224321
18
Coordinates from ORCA-job TMP_m1_cation_opt E -769.338436578365
  C       2.406703     -1.204432      0.206373
  O       1.474890     -0.112335      0.472523
  P       0.014184     -0.089885     -0.106573
  O      -0.030367     -0.117425     -1.622595
  O      -0.717295     -1.310048      0.561046
  C      -2.134584     -1.587506      0.345741
  O      -0.659124      1.188183      0.510464
  C      -0.209297      2.541436      0.196179
  H       3.356931     -0.899908      0.643387
  H       2.525448     -1.354722     -0.871615
  H       2.050263     -2.121085      0.685354
  H      -2.328211     -2.545804      0.826251
  H      -2.355347     -1.657601     -0.724436
  H      -2.739863     -0.804663      0.812070
  H       0.783347      2.709524      0.623890
  H      -0.933666      3.212030      0.656960
  H      -0.193044      2.699598     -0.886994
  Li     -0.068574     -0.182834     -3.256602
18
Coordinates from ORCA-job TMP_m1_cation_opt E -769.339092434366
  C       2.412351     -1.209970      0.206744
  O       1.475083     -0.118013      0.484601
  P       0.014965     -0.090618     -0.104944
  O      -0.028927     -0.115582     -1.622776
  O      -0.720149     -1.308128      0.571319
  C      -2.140959     -1.588745      0.346109
  O      -0.654130      1.188859      0.522866
  C      -0.210088      2.546480      0.194139
  H       3.353305     -0.912379      0.667348
  H       2.546999     -1.329739     -0.872499
  H       2.041834     -2.132649      0.661363
  H      -2.336504     -2.533770      0.850883
  H      -2.344296     -1.688628     -0.724464
  H      -2.743606     -0.790088      0.786830
  H       0.796171      2.705406      0.590900
  H      -0.919673      3.213134      0.682212
  H      -0.234628      2.702570     -0.888504
  Li     -0.065359     -0.175619     -3.280708
18
Coordinates from ORCA-job TMP_m1_cation_opt E -769.339602077579
  C       2.411468     -1.211813      0.204870
  O       1.476021     -0.122527      0.501285
  P       0.016224     -0.090723     -0.093471
  O      -0.027195     -0.114137     -1.610478
  O      -0.721837     -1.306527      0.586553
  C      -2.140369     -1.586764      0.343738
  O      -0.649932      1.189963      0.540085
  C      -0.211594      2.544680      0.190381
  H       3.344854     -0.927164      0.688048
  H       2.558098     -1.296767     -0.875381
  H       2.027272     -2.142001      0.629769
  H      -2.343343     -2.516735      0.872476
  H      -2.319843     -1.716175     -0.727147
  H      -2.742841     -0.772465      0.752793
  H       0.808824      2.696251      0.549948
  H      -0.901923      3.211202      0.705042
  H      -0.279805      2.693564     -0.890669
  Li     -0.061685     -0.169338     -3.296421
18
Coordinates from ORCA-job TMP_m1_cation_opt E -769.339892619070
  C       2.406181     -1.209279      0.202313
  O       1.477097     -0.123596      0.514593
  P       0.017190     -0.090230     -0.078628
  O      -0.026284     -0.114017     -1.592913
  O      -0.721764     -1.305970      0.599534
  C      -2.134436     -1.583915      0.340436
  O      -0.648551      1.191011      0.553701
  C      -0.213223      2.538617      0.187366
  H       3.336797     -0.939549      0.699147
  H       2.559389     -1.270440     -0.878390
  H       2.014612     -2.146595      0.603272
  H      -2.348470     -2.502592      0.884261
  H      -2.295809     -1.732818     -0.730483
  H      -2.740579     -0.760323      0.723740
  H       0.816889      2.687928      0.518176
  H      -0.886595      3.209762      0.718171
  H      -0.310386      2.681762     -0.891965
  Li     -0.059667     -0.167233     -3.300912
18
Coordinates from ORCA-job TMP_m1_cation_opt E -769.339998578489
  C       2.401677     -1.205297      0.201319
  O       1.477387     -0.121850      0.518956
  P       0.017272     -0.089639     -0.070275
  O      -0.026769     -0.114988     -1.582298
  O      -0.720803     -1.306045      0.604710
  C      -2.128822     -1.582882      0.338725
  O      -0.649491      1.191466      0.558029
  C      -0.214018      2.533938      0.187005
  H       3.332703     -0.945787      0.703047
  H       2.558788     -1.259510     -0.879402
  H       2.009020     -2.147310      0.590706
  H      -2.351478     -2.496108      0.888478
  H      -2.284493     -1.740218     -0.732023
  H      -2.740082     -0.756728      0.708836
  H       0.820265      2.684198      0.504867
  H      -0.877720      3.210326      0.723549
  H      -0.320771      2.677870     -0.891506
  Li     -0.060271     -0.168911     -3.301303
18
Coordinates from ORCA-job TMP_m1_cation_opt E -769.340021363634
  C       2.400454     -1.202978      0.201949
  O       1.476901     -0.119921      0.516605
  P       0.016733     -0.089337     -0.070563
  O      -0.027910     -0.116057     -1.582009
  O      -0.720264     -1.306006      0.603492
  C      -2.126925     -1.583684      0.338960
  O      -0.650718      1.191482      0.555459
  C      -0.213792      2.533056      0.188404
  H       3.331833     -0.946461      0.704772
  H       2.560671     -1.259906     -0.878429
  H       2.008757     -2.146446      0.589673
  H      -2.352162     -2.495517      0.890186
  H      -2.285013     -1.743208     -0.731373
  H      -2.741124     -0.758037      0.706265
  H       0.821049      2.683819      0.505228
  H      -0.874848      3.211438      0.725907
  H      -0.319173      2.681721     -0.889856
  Li     -0.062077     -0.171436     -3.303249
18
Coordinates from ORCA-job TMP_m1_cation_opt E -769.340027038952
  C       2.400572     -1.201940      0.202943
  O       1.476245     -0.118687      0.512912
  P       0.016102     -0.089188     -0.073745
  O      -0.029019     -0.116898     -1.585338
  O      -0.720220     -1.305708      0.600830
  C      -2.126814     -1.584828      0.339741
  O      -0.651480      1.191498      0.551531
  C      -0.213150      2.533697      0.189968
  H       3.331451     -0.945451      0.706810
  H       2.563725     -1.262414     -0.876943
  H       2.009203     -2.145414      0.591465
  H      -2.351681     -2.496180      0.892014
  H      -2.288305     -1.745520     -0.730056
  H      -2.742099     -0.759763      0.707059
  H       0.821422      2.683733      0.508570
  H      -0.873831      3.211990      0.728141
  H      -0.315875      2.687114     -0.888025
  Li     -0.063853     -0.173519     -3.306457
18
Coordinates from ORCA-job TMP_m1_cation_opt E -769.340028700296
  C       2.400834     -1.201463      0.203736
  O       1.475667     -0.117947      0.509835
  P       0.015544     -0.089066     -0.076858
  O      -0.029951     -0.117545     -1.588676
  O      -0.720407     -1.305275      0.598663
  C      -2.127117     -1.585764      0.340402
  O      -0.651921      1.191639      0.548245
  C      -0.212384      2.534546      0.191187
  H       3.330747     -0.944321      0.709073
  H       2.566537     -1.264026     -0.875680
  H       2.008980     -2.144521      0.592905
  H      -2.350757     -2.496609      0.894031
  H      -2.290779     -1.747854     -0.728897
  H      -2.742612     -0.760800      0.707743
  H       0.821960      2.683132      0.511342
  H      -0.873058      3.212004      0.730435
  H      -0.313548      2.691524     -0.886483
  Li     -0.065342     -0.175132     -3.309583
18
Coordinates from ORCA-job TMP_m1_cation_opt E -769.340029250582
  C       2.400979     -1.201325      0.204089
  O       1.475365     -0.117724      0.508401
  P       0.015237     -0.088971     -0.078372
  O      -0.030478     -0.117912     -1.590278
  O      -0.720678     -1.304878      0.597797
  C      -2.127366     -1.586269      0.340673
  O      -0.651997      1.191869      0.546670
  C      -0.211867      2.535114      0.191731
  H       3.329991     -0.943949      0.710953
  H       2.568442     -1.264009     -0.875037
  H       2.008321     -2.144184      0.592877
  H      -2.350141     -2.496564      0.895544
  H      -2.291494     -1.749735     -0.728335
  H      -2.742859     -0.761065      0.707429
  H       0.822593      2.682484      0.512002
  H      -0.872221      3.211873      0.732234
  H      -0.313204      2.693826     -0.885662
  Li     -0.066229     -0.176058     -3.311294
