18
Coordinates from ORCA-job TMP_m1_dication_opt E -768.825188206908
  C       2.400979     -1.201325      0.204089
  O       1.475365     -0.117724      0.508401
  P       0.015237     -0.088971     -0.078372
  O      -0.030478     -0.117912     -1.590278
  O      -0.720678     -1.304878      0.597797
  C      -2.127366     -1.586269      0.340673
  O      -0.651997      1.191869      0.546670
  C      -0.211867      2.535114      0.191731
  H       3.329991     -0.943949      0.710953
  H       2.568442     -1.264009     -0.875037
  H       2.008321     -2.144184      0.592877
  H      -2.350141     -2.496564      0.895544
  H      -2.291494     -1.749735     -0.728335
  H      -2.742859     -0.761065      0.707429
  H       0.822593      2.682484      0.512002
  H      -0.872221      3.211873      0.732234
  H      -0.313204      2.693826     -0.885662
  Li     -0.066229     -0.176058     -3.311294
18
Coordinates from ORCA-job TMP_m1_dication_opt E -768.830964291414
  C       2.404546     -1.237206      0.257617
  O       1.492531     -0.111718      0.430855
  P       0.024586     -0.074710     -0.156892
  O      -0.017354     -0.062212     -1.667579
  O      -0.689985     -1.322018      0.495088
  C      -2.121102     -1.603150      0.366144
  O      -0.636220      1.190481      0.515150
  C      -0.234717      2.553873      0.189422
  H       3.332750     -0.947230      0.749456
  H       2.571170     -1.407679     -0.815524
  H       1.977347     -2.137911      0.723940
  H      -2.282222     -2.547820      0.884162
  H      -2.385237     -1.700277     -0.694756
  H      -2.702848     -0.800640      0.836456
  H       0.817397      2.700758      0.476712
  H      -0.890035      3.202544      0.769934
  H      -0.363970      2.740248     -0.886707
  Li     -0.054241     -0.072808     -3.402056
18
Coordinates from ORCA-job TMP_m1_dication_opt E -768.835583406800
  C       2.398602     -1.264524      0.313210
  O       1.495124     -0.122363      0.351335
  P       0.018824     -0.061476     -0.243400
  O      -0.003918     -0.011079     -1.749137
  O      -0.678639     -1.331015      0.386373
  C      -2.116468     -1.632386      0.396692
  O      -0.613310      1.195925      0.475824
  C      -0.244695      2.579119      0.188473
  H       3.319684     -0.935897      0.792368
  H       2.561947     -1.538045     -0.743054
  H       1.938581     -2.117768      0.839454
  H      -2.203668     -2.609270      0.869391
  H      -2.482840     -1.662384     -0.639337
  H      -2.651004     -0.862000      0.966359
  H       0.819919      2.720488      0.439177
  H      -0.888333      3.194572      0.814638
  H      -0.399379      2.797830     -0.878903
  Li     -0.028032      0.022794     -3.508041
18
Coordinates from ORCA-job TMP_m1_dication_opt E -768.838508267523
  C       2.383714     -1.286181      0.363826
  O       1.499637     -0.138488      0.274138
  P       0.014601     -0.054867     -0.321908
  O       0.011260      0.033790     -1.820841
  O      -0.669155     -1.336843      0.284700
  C      -2.101388     -1.647872      0.420947
  O      -0.588386      1.189499      0.440668
  C      -0.256639      2.590278      0.186604
  H       3.303084     -0.923354      0.819357
  H       2.540667     -1.667718     -0.660973
  H       1.896460     -2.081476      0.951713
  H      -2.134575     -2.652082      0.838486
  H      -2.564723     -1.609783     -0.574256
  H      -2.570486     -0.910974      1.082818
  H       0.813283      2.739868      0.402314
  H      -0.888971      3.168139      0.857448
  H      -0.445102      2.836300     -0.867496
  Li     -0.000887      0.114287     -3.606124
18
Coordinates from ORCA-job TMP_m1_dication_opt E -768.841141161239
  C       2.354065     -1.311652      0.427832
  O       1.519358     -0.164140      0.166168
  P       0.019837     -0.054489     -0.416247
  O       0.036716      0.094757     -1.904882
  O      -0.651508     -1.347679      0.150669
  C      -2.065672     -1.649436      0.444235
  O      -0.548793      1.163264      0.403760
  C      -0.282800      2.585351      0.179630
  H       3.287347     -0.922001      0.828793
  H       2.486613     -1.854826     -0.526266
  H       1.831824     -1.998118      1.113900
  H      -2.065914     -2.687812      0.767275
  H      -2.652924     -1.505400     -0.470069
  H      -2.415681     -0.969706      1.227426
  H       0.788455      2.768882      0.344740
  H      -0.897147      3.111090      0.907374
  H      -0.536472      2.853501     -0.852546
  Li      0.035089      0.250936     -3.720372
18
Coordinates from ORCA-job TMP_m1_dication_opt E -768.842828698288
  C       2.324165     -1.322783      0.481572
  O       1.550897     -0.193203      0.053981
  P       0.030860     -0.064724     -0.491413
  O       0.057202      0.148019     -1.969277
  O      -0.637201     -1.362226      0.034981
  C      -2.029663     -1.640815      0.452497
  O      -0.501622      1.126459      0.382365
  C      -0.307110      2.564138      0.174351
  H       3.287262     -0.932349      0.803999
  H       2.404217     -2.029458     -0.366498
  H       1.779221     -1.863714      1.273370
  H      -2.037703     -2.702891      0.685550
  H      -2.705988     -1.397837     -0.371467
  H      -2.255871     -1.025837      1.327669
  H       0.760543      2.792283      0.289703
  H      -0.898854      3.045878      0.950191
  H      -0.634484      2.837274     -0.833637
  Li      0.056523      0.384309     -3.806517
18
Coordinates from ORCA-job TMP_m1_dication_opt E -768.843814191170
  C       2.302403     -1.313217      0.518433
  O       1.585066     -0.220182     -0.052352
  P       0.041174     -0.084458     -0.542794
  O       0.064404      0.183688     -2.011377
  O      -0.628029     -1.381515     -0.046734
  C      -2.007400     -1.630885      0.447106
  O      -0.454039      1.087600      0.377011
  C      -0.318019      2.533367      0.176936
  H       3.299893     -0.947427      0.755135
  H       2.309745     -2.154343     -0.202110
  H       1.755621     -1.692755      1.400799
  H      -2.043873     -2.704310      0.618646
  H      -2.727269     -1.318350     -0.310906
  H      -2.141883     -1.070693      1.374632
  H       0.743707      2.800126      0.256081
  H      -0.890441      2.986445      0.984694
  H      -0.703574      2.800932     -0.810880
  Li      0.054907      0.488502     -3.860899
18
Coordinates from ORCA-job TMP_m1_dication_opt E -768.844206206766
  C       2.289143     -1.293574      0.534287
  O       1.609637     -0.232370     -0.126673
  P       0.047043     -0.101836     -0.567424
  O       0.053962      0.197947     -2.031314
  O      -0.617328     -1.399420     -0.080148
  C      -1.998050     -1.627726      0.436051
  O      -0.422388      1.061425      0.382784
  C      -0.312515      2.508954      0.186660
  H       3.309779     -0.960458      0.715454
  H       2.237856     -2.208613     -0.088469
  H       1.749401     -1.553430      1.465808
  H      -2.053868     -2.703327      0.589470
  H      -2.723018     -1.293737     -0.306550
  H      -2.100975     -1.087359      1.377839
  H       0.745364      2.794012      0.260988
  H      -0.883156      2.951199      1.002418
  H      -0.714537      2.772342     -0.795494
  Li      0.026044      0.538494     -3.884266
18
Coordinates from ORCA-job TMP_m1_dication_opt E -768.844432049430
  C       2.285806     -1.284378      0.531331
  O       1.620962     -0.223853     -0.147487
  P       0.049572     -0.105407     -0.563530
  O       0.035093      0.196969     -2.028047
  O      -0.602931     -1.405788     -0.064954
  C      -1.996560     -1.630720      0.426157
  O      -0.413957      1.059187      0.395763
  C      -0.302651      2.504558      0.195022
  H       3.314929     -0.969929      0.697826
  H       2.209520     -2.213152     -0.067905
  H       1.751146     -1.510862      1.475688
  H      -2.049883     -2.703353      0.600563
  H      -2.702503     -1.321005     -0.345210
  H      -2.124850     -1.071625      1.353444
  H       0.753925      2.790874      0.292070
  H      -0.890079      2.951297      0.996819
  H      -0.682460      2.764671     -0.796964
  Li     -0.012686      0.535040     -3.879163
18
Coordinates from ORCA-job TMP_m1_dication_opt E -768.844757899700
  C       2.283149     -1.269092      0.521763
  O       1.631872     -0.204868     -0.171243
  P       0.046275     -0.105079     -0.547858
  O      -0.013847      0.191441     -2.013147
  O      -0.578649     -1.407542     -0.013762
  C      -1.999744     -1.647294      0.402724
  O      -0.401661      1.068643      0.422718
  C      -0.273971      2.508472      0.212459
  H       3.323808     -0.980196      0.660339
  H       2.164732     -2.209703     -0.051181
  H       1.764714     -1.455863      1.484705
  H      -2.030348     -2.708004      0.642905
  H      -2.653668     -1.417982     -0.439790
  H      -2.207241     -1.032495      1.278449
  H       0.778085      2.789200      0.372847
  H      -0.903511      2.968205      0.974977
  H      -0.585325      2.764655     -0.804078
  Li     -0.102274      0.510023     -3.861404
18
Coordinates from ORCA-job TMP_m1_dication_opt E -768.845070925824
  C       2.284566     -1.259570      0.511875
  O       1.633217     -0.191979     -0.182924
  P       0.036714     -0.099419     -0.527413
  O      -0.070157      0.187881     -1.990906
  O      -0.563944     -1.397500      0.048007
  C      -2.006379     -1.670824      0.375338
  O      -0.386494      1.087663      0.450026
  C      -0.240531      2.520988      0.226841
  H       3.332721     -0.985138      0.618711
  H       2.130589     -2.205242     -0.042855
  H       1.789424     -1.420467      1.491650
  H      -2.009767     -2.710707      0.694720
  H      -2.594925     -1.538746     -0.533749
  H      -2.306217     -0.999287      1.179595
  H       0.800435      2.797321      0.459371
  H      -0.915047      2.994979      0.941832
  H      -0.472233      2.769828     -0.812134
  Li     -0.199576      0.482744     -3.836562
18
Coordinates from ORCA-job TMP_m1_dication_opt E -768.845511350434
  C       2.280580     -1.236871      0.506236
  O       1.624716     -0.191456     -0.222682
  P       0.010926     -0.093146     -0.506600
  O      -0.175038      0.193419     -1.958997
  O      -0.557092     -1.374887      0.132566
  C      -2.014441     -1.720344      0.324776
  O      -0.345492      1.115036      0.487701
  C      -0.171636      2.537422      0.247668
  H       3.339137     -0.985465      0.541647
  H       2.063839     -2.207396      0.022321
  H       1.834081     -1.318608      1.518665
  H      -1.985844     -2.713117      0.767733
  H      -2.487724     -1.741036     -0.657075
  H      -2.449269     -0.983349      0.999144
  H       0.835623      2.812856      0.603999
  H      -0.915588      3.029924      0.879508
  H      -0.269395      2.773670     -0.813967
  Li     -0.374989      0.465868     -3.801221
18
Coordinates from ORCA-job TMP_m1_dication_opt E -768.845887969385
  C       2.285491     -1.234587      0.502840
  O       1.611721     -0.202005     -0.229899
  P      -0.004955     -0.086878     -0.492748
  O      -0.235557      0.202218     -1.934811
  O      -0.567830     -1.351889      0.181022
  C      -2.019659     -1.746453      0.297752
  O      -0.315721      1.133227      0.505590
  C      -0.133747      2.548650      0.251416
  H       3.343947     -0.980350      0.499364
  H       2.051598     -2.213072      0.047346
  H       1.871554     -1.288706      1.529749
  H      -1.983129     -2.705249      0.809372
  H      -2.424984     -1.847243     -0.708868
  H      -2.527334     -0.985626      0.890454
  H       0.835637      2.836960      0.691872
  H      -0.925439      3.047440      0.820939
  H      -0.146512      2.772385     -0.816349
  Li     -0.472690      0.463703     -3.773620
18
Coordinates from ORCA-job TMP_m1_dication_opt E -768.846297329532
  C       2.298882     -1.235066      0.504495
  O       1.604972     -0.228016     -0.242603
  P      -0.008314     -0.090850     -0.488306
  O      -0.272977      0.213313     -1.918618
  O      -0.583942     -1.339393      0.200562
  C      -2.028105     -1.752615      0.279050
  O      -0.273138      1.132347      0.516344
  C      -0.112078      2.544845      0.250171
  H       3.355557     -0.976067      0.462389
  H       2.058748     -2.228331      0.089385
  H       1.917905     -1.249505      1.544277
  H      -1.997866     -2.694243      0.822151
  H      -2.405565     -1.885085     -0.734270
  H      -2.568380     -0.985620      0.834158
  H       0.813219      2.865319      0.755729
  H      -0.947295      3.033045      0.769585
  H      -0.073481      2.758211     -0.818137
  Li     -0.535747      0.480235     -3.754941
18
Coordinates from ORCA-job TMP_m1_dication_opt E -768.846616677990
  C       2.308954     -1.235910      0.505492
  O       1.605635     -0.255081     -0.266919
  P      -0.001764     -0.097651     -0.484798
  O      -0.300046      0.222322     -1.904576
  O      -0.593177     -1.333334      0.211921
  C      -2.032080     -1.749103      0.263551
  O      -0.223241      1.126117      0.528488
  C      -0.098606      2.536480      0.250755
  H       3.366834     -0.990263      0.424412
  H       2.053543     -2.244721      0.142741
  H       1.962327     -1.193454      1.556136
  H      -2.015096     -2.686006      0.815808
  H      -2.394291     -1.889709     -0.754363
  H      -2.589364     -0.983711      0.804413
  H       0.776756      2.898173      0.812758
  H      -0.977894      3.004208      0.719626
  H      -0.019932      2.740659     -0.816527
  Li     -0.586162      0.493507     -3.737498
18
Coordinates from ORCA-job TMP_m1_dication_opt E -768.846847576977
  C       2.317982     -1.242687      0.504637
  O       1.612170     -0.277563     -0.288642
  P       0.013670     -0.102881     -0.481678
  O      -0.307351      0.225084     -1.896115
  O      -0.596407     -1.330652      0.215544
  C      -2.033217     -1.735384      0.256870
  O      -0.179391      1.121328      0.538263
  C      -0.100737      2.530456      0.252859
  H       3.378015     -1.017352      0.395018
  H       2.045881     -2.259762      0.181108
  H       1.999002     -1.153791      1.560887
  H      -2.029613     -2.681961      0.793292
  H      -2.396839     -1.856901     -0.763497
  H      -2.590488     -0.978597      0.810667
  H       0.732242      2.931821      0.850009
  H      -1.016253      2.970656      0.683594
  H      -0.002659      2.729724     -0.813823
  Li     -0.603612      0.490984     -3.727571
18
Coordinates from ORCA-job TMP_m1_dication_opt E -768.846976955362
  C       2.319723     -1.247471      0.503779
  O       1.616200     -0.295973     -0.314164
  P       0.023475     -0.103695     -0.479236
  O      -0.319719      0.227974     -1.888759
  O      -0.597075     -1.323998      0.225775
  C      -2.031760     -1.731611      0.249258
  O      -0.140330      1.124554      0.548019
  C      -0.098045      2.531600      0.258794
  H       3.381868     -1.052712      0.361248
  H       2.017511     -2.268750      0.225439
  H       2.030553     -1.105997      1.562579
  H      -2.033156     -2.684188      0.775308
  H      -2.383750     -1.844975     -0.776432
  H      -2.597706     -0.982409      0.804987
  H       0.697867      2.960722      0.886393
  H      -1.043066      2.946750      0.654333
  H       0.024391      2.731797     -0.805386
  Li     -0.624586      0.480906     -3.720514
18
Coordinates from ORCA-job TMP_m1_dication_opt E -768.847049693173
  C       2.326642     -1.260083      0.505694
  O       1.626388     -0.308976     -0.322012
  P       0.040022     -0.104641     -0.483168
  O      -0.300753      0.225624     -1.894623
  O      -0.595156     -1.323045      0.216780
  C      -2.032665     -1.714531      0.255159
  O      -0.120746      1.123937      0.548299
  C      -0.119815      2.531361      0.261260
  H       3.389386     -1.080289      0.349803
  H       2.009298     -2.279589      0.239731
  H       2.047836     -1.099402      1.563672
  H      -2.035211     -2.687976      0.741689
  H      -2.407414     -1.782127     -0.766782
  H      -2.577250     -0.980575      0.851521
  H       0.675338      2.979729      0.875003
  H      -1.071809      2.922484      0.666470
  H      -0.022728      2.734556     -0.805728
  Li     -0.588968      0.466067     -3.731348
18
Coordinates from ORCA-job TMP_m1_dication_opt E -768.847112553734
  C       2.327112     -1.265761      0.508920
  O       1.628852     -0.325007     -0.338906
  P       0.045495     -0.103627     -0.486236
  O      -0.307903      0.230461     -1.893161
  O      -0.596195     -1.314252      0.224228
  C      -2.032512     -1.714105      0.250662
  O      -0.092744      1.128360      0.551735
  C      -0.121429      2.533841      0.265528
  H       3.388954     -1.110241      0.324551
  H       1.982905     -2.284511      0.279537
  H       2.071920     -1.062584      1.564779
  H      -2.030209     -2.694517      0.722923
  H      -2.401835     -1.768227     -0.774071
  H      -2.581227     -0.989519      0.854689
  H       0.659851      2.997492      0.885850
  H      -1.085433      2.904220      0.663691
  H      -0.021563      2.742863     -0.800122
  Li     -0.591645      0.457636     -3.733175
18
Coordinates from ORCA-job TMP_m1_dication_opt E -768.847182251293
  C       2.331536     -1.274584      0.516250
  O       1.635603     -0.341873     -0.348488
  P       0.055854     -0.105075     -0.494654
  O      -0.299867      0.234627     -1.898674
  O      -0.596472     -1.309223      0.219787
  C      -2.034397     -1.703774      0.251529
  O      -0.070495      1.126740      0.549614
  C      -0.137022      2.530763      0.266468
  H       3.391786     -1.135693      0.311330
  H       1.969390     -2.291737      0.313027
  H       2.091916     -1.038252      1.567849
  H      -2.028292     -2.701859      0.685096
  H      -2.421194     -1.713527     -0.768087
  H      -2.566772     -0.998487      0.892085
  H       0.652519      3.010174      0.863645
  H      -1.098175      2.879863      0.689997
  H      -0.070809      2.743791     -0.801172
  Li     -0.562715      0.450647     -3.744180
18
Coordinates from ORCA-job TMP_m1_dication_opt E -768.847290368998
  C       2.338766     -1.283702      0.531749
  O       1.646123     -0.373845     -0.368324
  P       0.073104     -0.110272     -0.510282
  O      -0.291592      0.243050     -1.906763
  O      -0.598037     -1.301304      0.212459
  C      -2.038213     -1.684761      0.247555
  O      -0.028623      1.120099      0.544526
  C      -0.160867      2.519177      0.267892
  H       3.394988     -1.181333      0.288350
  H       1.944836     -2.297554      0.388213
  H       2.134524     -0.977357      1.571268
  H      -2.031538     -2.712277      0.606105
  H      -2.454220     -1.610275     -0.757738
  H      -2.541920     -1.022062      0.953932
  H       0.644872      3.027598      0.817708
  H      -1.108286      2.833914      0.746223
  H      -0.163863      2.735196     -0.801208
  Li     -0.517659      0.438230     -3.760242
18
Coordinates from ORCA-job TMP_m1_dication_opt E -768.847403230725
  C       2.343451     -1.285908      0.546318
  O       1.653769     -0.400881     -0.385962
  P       0.086872     -0.115307     -0.521571
  O      -0.289985      0.250679     -1.910197
  O      -0.599772     -1.295069      0.208566
  C      -2.040730     -1.669368      0.237547
  O       0.006135      1.113387      0.540665
  C      -0.178410      2.506267      0.269729
  H       3.394489     -1.226218      0.268067
  H       1.918866     -2.292984      0.465943
  H       2.180285     -0.911351      1.569803
  H      -2.038967     -2.718454      0.528307
  H      -2.476159     -1.521336     -0.751290
  H      -2.524161     -1.050974      0.996994
  H       0.645237      3.039173      0.768356
  H      -1.101847      2.798759      0.805959
  H      -0.251999      2.718592     -0.797460
  Li     -0.484678      0.423516     -3.768352
18
Coordinates from ORCA-job TMP_m1_dication_opt E -768.847533561403
  C       2.344545     -1.282239      0.555443
  O       1.657059     -0.413369     -0.393563
  P       0.093388     -0.118343     -0.523456
  O      -0.295369      0.256197     -1.906142
  O      -0.600739     -1.294341      0.208275
  C      -2.040641     -1.662143      0.224718
  O       0.019862      1.107807      0.541171
  C      -0.187091      2.496816      0.269184
  H       3.391915     -1.255440      0.257439
  H       1.900895     -2.283043      0.519664
  H       2.214533     -0.864559      1.567042
  H      -2.047549     -2.723014      0.471652
  H      -2.483665     -1.466968     -0.752553
  H      -2.516708     -1.077098      1.015405
  H       0.656832      3.041437      0.721259
  H      -1.079740      2.789518      0.854874
  H      -0.317115      2.698687     -0.794319
  Li     -0.468019      0.412619     -3.764673
18
Coordinates from ORCA-job TMP_m1_dication_opt E -768.847638271969
  C       2.346013     -1.276738      0.558936
  O       1.657565     -0.421983     -0.400005
  P       0.097038     -0.120109     -0.521666
  O      -0.300619      0.257141     -1.901655
  O      -0.603235     -1.295092      0.208426
  C      -2.041438     -1.657252      0.213142
  O       0.027637      1.105014      0.542499
  C      -0.192859      2.491644      0.271456
  H       3.389285     -1.280134      0.244364
  H       1.885764     -2.270443      0.563363
  H       2.248471     -0.825643      1.560352
  H      -2.057327     -2.725215      0.429435
  H      -2.486189     -1.430300     -0.756527
  H      -2.516180     -1.097391      1.023313
  H       0.664650      3.041944      0.692797
  H      -1.060863      2.787192      0.891872
  H      -0.361288      2.686572     -0.787628
  Li     -0.454032      0.393318     -3.761052
18
Coordinates from ORCA-job TMP_m1_dication_opt E -768.847725921749
  C       2.347690     -1.272938      0.561441
  O       1.657706     -0.432494     -0.407847
  P       0.100850     -0.120174     -0.521143
  O      -0.303078      0.257148     -1.899901
  O      -0.606189     -1.293356      0.208609
  C      -2.042837     -1.652557      0.202781
  O       0.037135      1.104946      0.542814
  C      -0.200481      2.489178      0.277020
  H       3.384051     -1.311993      0.226198
  H       1.865597     -2.254663      0.610974
  H       2.287878     -0.786278      1.549448
  H      -2.063665     -2.726450      0.389256
  H      -2.488345     -1.396665     -0.759379
  H      -2.516983     -1.117014      1.030095
  H       0.667959      3.044939      0.670188
  H      -1.045823      2.783072      0.928697
  H      -0.403970      2.681008     -0.776346
  Li     -0.435100      0.366814     -3.761484
18
Coordinates from ORCA-job TMP_m1_dication_opt E -768.847839638493
  C       2.350608     -1.268801      0.565881
  O       1.657943     -0.449813     -0.419573
  P       0.106766     -0.119624     -0.522707
  O      -0.303985      0.258172     -1.899862
  O      -0.610694     -1.288870      0.208220
  C      -2.045561     -1.645436      0.188687
  O       0.052106      1.105070      0.542127
  C      -0.213045      2.485599      0.287053
  H       3.372220     -1.365816      0.197764
  H       1.833945     -2.225806      0.686194
  H       2.351443     -0.728585      1.527718
  H      -2.069870     -2.726274      0.332815
  H      -2.492749     -1.349769     -0.761248
  H      -2.517897     -1.144342      1.038876
  H       0.667766      3.050284      0.640678
  H      -1.027212      2.773094      0.979599
  H      -0.464106      2.675111     -0.756356
  Li     -0.405284      0.328329     -3.764445
18
Coordinates from ORCA-job TMP_m1_dication_opt E -768.847979802180
  C       2.355854     -1.263938      0.574675
  O       1.659210     -0.476624     -0.435201
  P       0.117064     -0.119503     -0.527671
  O      -0.302103      0.261926     -1.901516
  O      -0.617054     -1.280697      0.206754
  C      -2.049918     -1.632623      0.169486
  O       0.075547      1.103450      0.539827
  C      -0.232751      2.477195      0.301442
  H       3.348684     -1.449971      0.163136
  H       1.793059     -2.174072      0.797799
  H       2.447882     -0.650246      1.486514
  H      -2.077768     -2.720702      0.249763
  H      -2.502356     -1.278044     -0.757542
  H      -2.516461     -1.184188      1.052390
  H       0.659131      3.058842      0.598448
  H      -1.003438      2.752122      1.046154
  H      -0.549328      2.661464     -0.724917
  Li     -0.362863      0.278132     -3.768120
18
Coordinates from ORCA-job TMP_m1_dication_opt E -768.848145555703
  C       2.364306     -1.253355      0.588159
  O       1.658973     -0.516423     -0.456229
  P       0.130933     -0.119047     -0.535051
  O      -0.298408      0.269084     -1.904096
  O      -0.627541     -1.267685      0.205445
  C      -2.057014     -1.615179      0.140112
  O       0.106024      1.099266      0.537233
  C      -0.259468      2.462951      0.325460
  H       3.292977     -1.589941      0.123605
  H       1.741129     -2.063449      0.971707
  H       2.607114     -0.544354      1.396429
  H      -2.086066     -2.707441      0.133489
  H      -2.514771     -1.184929     -0.751544
  H      -2.518427     -1.242679      1.061105
  H       0.638564      3.068345      0.551979
  H      -0.974346      2.718864      1.128817
  H      -0.653140      2.640359     -0.675259
  Li     -0.308444      0.208137     -3.769939
18
Coordinates from ORCA-job TMP_m1_dication_opt E -768.848227751711
  C       2.374947     -1.238196      0.605521
  O       1.658593     -0.561244     -0.476288
  P       0.148181     -0.119195     -0.543729
  O      -0.291723      0.279647     -1.906247
  O      -0.639079     -1.250155      0.206491
  C      -2.063592     -1.593617      0.107685
  O       0.141041      1.092751      0.534329
  C      -0.287913      2.442420      0.351585
  H       3.202179     -1.756365      0.114481
  H       1.706273     -1.897573      1.159684
  H       2.792415     -0.458195      1.260615
  H      -2.091507     -2.682582      0.003450
  H      -2.528328     -1.083922     -0.737138
  H      -2.520289     -1.312220      1.063546
  H       0.603931      3.078876      0.510685
  H      -0.950587      2.675234      1.203869
  H      -0.752714      2.606748     -0.620655
  Li     -0.259435      0.140111     -3.766461
18
Coordinates from ORCA-job TMP_m1_dication_opt E -768.848323569607
  C       2.372594     -1.235965      0.605445
  O       1.655575     -0.558681     -0.474971
  P       0.145806     -0.108026     -0.537054
  O      -0.292366      0.286168     -1.902460
  O      -0.636557     -1.246354      0.213554
  C      -2.056490     -1.607514      0.098043
  O       0.126096      1.095436      0.543653
  C      -0.293592      2.451705      0.362601
  H       3.126844     -1.847395      0.102827
  H       1.683582     -1.805773      1.230686
  H       2.884156     -0.458177      1.191633
  H      -2.067159     -2.698817      0.006133
  H      -2.510385     -1.115575     -0.762773
  H      -2.529779     -1.320583      1.043568
  H       0.602847      3.077751      0.532121
  H      -0.970692      2.681654      1.201689
  H      -0.734970      2.627739     -0.619063
  Li     -0.263116      0.144930     -3.764208
18
Coordinates from ORCA-job TMP_m1_dication_opt E -768.848529837257
  C       2.374535     -1.227684      0.618355
  O       1.658042     -0.572104     -0.480619
  P       0.153670     -0.108291     -0.540855
  O      -0.290198      0.296028     -1.900422
  O      -0.635642     -1.235919      0.222714
  C      -2.049558     -1.608174      0.089442
  O       0.143763      1.087939      0.544067
  C      -0.295322      2.441050      0.364212
  H       3.043465     -1.943471      0.130922
  H       1.675318     -1.694898      1.313512
  H       2.978674     -0.451712      1.107637
  H      -2.051858     -2.699200     -0.013595
  H      -2.503048     -1.112013     -0.769060
  H      -2.530428     -1.339101      1.036132
  H       0.583619      3.081750      0.558697
  H      -1.004799      2.647688      1.182516
  H      -0.716562      2.614013     -0.626745
  Li     -0.291275      0.186623     -3.765490
18
Coordinates from ORCA-job TMP_m1_dication_opt E -768.848693341292
  C       2.379219     -1.217689      0.625071
  O       1.656994     -0.580852     -0.481732
  P       0.156941     -0.107817     -0.539538
  O      -0.286190      0.296510     -1.898689
  O      -0.639583     -1.229542      0.228543
  C      -2.045407     -1.613360      0.079384
  O       0.152238      1.083242      0.545052
  C      -0.294978      2.436936      0.368725
  H       2.956187     -2.025542      0.161611
  H       1.689412     -1.579359      1.388422
  H       3.074384     -0.462261      1.013927
  H      -2.042269     -2.705918     -0.011157
  H      -2.492845     -1.130760     -0.789953
  H      -2.541702     -1.341647      1.018039
  H       0.566944      3.082439      0.609420
  H      -1.044182      2.620335      1.157379
  H      -0.682460      2.615143     -0.634672
  Li     -0.320309      0.222668     -3.768410
18
Coordinates from ORCA-job TMP_m1_dication_opt E -768.848831886854
  C       2.377800     -1.205982      0.631348
  O       1.652097     -0.588231     -0.482402
  P       0.156685     -0.101405     -0.534180
  O      -0.289873      0.296897     -1.893101
  O      -0.645817     -1.217215      0.241543
  C      -2.035040     -1.630522      0.060639
  O       0.162761      1.087289      0.548218
  C      -0.289255      2.442425      0.377230
  H       2.832750     -2.113007      0.213420
  H       1.714768     -1.428198      1.467316
  H       3.178734     -0.503526      0.893932
  H      -2.013717     -2.725296     -0.001967
  H      -2.468262     -1.177178     -0.831445
  H      -2.565066     -1.350263      0.979481
  H       0.555548      3.087963      0.667123
  H      -1.073932      2.604560      1.136444
  H      -0.642439      2.629598     -0.636863
  Li     -0.365351      0.254615     -3.765313
18
Coordinates from ORCA-job TMP_m1_dication_opt E -768.848915079374
  C       2.374626     -1.194951      0.637182
  O       1.651211     -0.593054     -0.483645
  P       0.155063     -0.099910     -0.533407
  O      -0.287894      0.291544     -1.894668
  O      -0.649474     -1.215282      0.242659
  C      -2.030331     -1.643866      0.048212
  O       0.168053      1.087838      0.548584
  C      -0.284539      2.445087      0.383662
  H       2.755422     -2.154384      0.261226
  H       1.733086     -1.326039      1.508789
  H       3.231174     -0.535977      0.825525
  H      -1.998876     -2.738902     -0.006050
  H      -2.460427     -1.199258     -0.849658
  H      -2.574284     -1.364861      0.960029
  H       0.557898      3.088830      0.681585
  H      -1.072549      2.601619      1.140694
  H      -0.637410      2.633859     -0.630058
  Li     -0.388354      0.280229     -3.769238
18
Coordinates from ORCA-job TMP_m1_dication_opt E -768.848969330573
  C       2.364677     -1.196656      0.639728
  O       1.651106     -0.587323     -0.481280
  P       0.151674     -0.096332     -0.531983
  O      -0.292617      0.287260     -1.894636
  O      -0.648893     -1.212645      0.245743
  C      -2.023838     -1.656506      0.044848
  O       0.171904      1.096469      0.547300
  C      -0.276421      2.454076      0.381556
  H       2.751973     -2.152506      0.260719
  H       1.715524     -1.333600      1.504972
  H       3.220271     -0.540493      0.842156
  H      -1.981203     -2.751188     -0.000479
  H      -2.452985     -1.220721     -0.857898
  H      -2.578264     -1.374450      0.949532
  H       0.572622      3.095830      0.665780
  H      -1.051088      2.619339      1.150602
  H      -0.644258      2.639737     -0.627458
  Li     -0.407791      0.292232     -3.767780
18
Coordinates from ORCA-job TMP_m1_dication_opt E -768.849001055656
  C       2.360200     -1.191447      0.646068
  O       1.649989     -0.592611     -0.481847
  P       0.151424     -0.094810     -0.532738
  O      -0.292599      0.285070     -1.896660
  O      -0.651704     -1.209758      0.245291
  C      -2.023046     -1.661342      0.036223
  O       0.176277      1.098929      0.546080
  C      -0.278793      2.454575      0.386307
  H       2.716991     -2.167039      0.286973
  H       1.720190     -1.285072      1.523537
  H       3.238109     -0.556663      0.819180
  H      -1.969423     -2.754231     -0.036445
  H      -2.459220     -1.205546     -0.853076
  H      -2.577018     -1.405907      0.948732
  H       0.582606      3.099024      0.626396
  H      -1.018456      2.628680      1.186030
  H      -0.684988      2.634006     -0.609142
  Li     -0.398146      0.286665     -3.769486
18
Coordinates from ORCA-job TMP_m1_dication_opt E -768.849024435707
  C       2.357498     -1.188683      0.649674
  O       1.648376     -0.594956     -0.481692
  P       0.149767     -0.096160     -0.533250
  O      -0.294578      0.283061     -1.897388
  O      -0.653920     -1.209020      0.245729
  C      -2.024198     -1.664803      0.034282
  O       0.178991      1.098559      0.544513
  C      -0.276180      2.453796      0.385726
  H       2.714711     -2.165687      0.295121
  H       1.716364     -1.277536      1.526949
  H       3.235051     -0.553277      0.822265
  H      -1.964904     -2.756377     -0.053227
  H      -2.464154     -1.199522     -0.848218
  H      -2.576759     -1.422793      0.950790
  H       0.591608      3.098364      0.603032
  H      -0.998348      2.634792      1.199354
  H      -0.700075      2.630360     -0.602826
  Li     -0.396856      0.292404     -3.769410
18
Coordinates from ORCA-job TMP_m1_dication_opt E -768.849067813375
  C       2.353403     -1.183327      0.656977
  O       1.643347     -0.601928     -0.480972
  P       0.147457     -0.097439     -0.532537
  O      -0.299570      0.279979     -1.896652
  O      -0.660225     -1.203035      0.250760
  C      -2.024924     -1.672113      0.028961
  O       0.186089      1.098978      0.541648
  C      -0.271796      2.452960      0.385000
  H       2.692492     -2.172734      0.319533
  H       1.718291     -1.244526      1.540994
  H       3.241011     -0.557315      0.810282
  H      -1.951054     -2.760489     -0.086870
  H      -2.470031     -1.191856     -0.842945
  H      -2.579001     -1.458787      0.950901
  H       0.604054      3.098932      0.565369
  H      -0.966604      2.643134      1.219314
  H      -0.723275      2.624479     -0.592276
  Li     -0.397271      0.307609     -3.766068
18
Coordinates from ORCA-job TMP_m1_dication_opt E -768.849099875701
  C       2.353046     -1.179594      0.661317
  O       1.639608     -0.609364     -0.480710
  P       0.146852     -0.098697     -0.531454
  O      -0.301196      0.276310     -1.896075
  O      -0.666027     -1.197643      0.255247
  C      -2.026086     -1.675660      0.025195
  O       0.191118      1.098882      0.539404
  C      -0.270390      2.452038      0.384952
  H       2.670058     -2.182235      0.342015
  H       1.727335     -1.211231      1.553687
  H       3.252263     -0.565230      0.790824
  H      -1.942829     -2.761535     -0.109624
  H      -2.474323     -1.186240     -0.839985
  H      -2.581170     -1.482850      0.950760
  H       0.607934      3.099860      0.546629
  H      -0.951889      2.644815      1.229135
  H      -0.736160      2.619686     -0.586335
  Li     -0.395749      0.321212     -3.763560
18
Coordinates from ORCA-job TMP_m1_dication_opt E -768.849139380151
  C       2.354041     -1.176934      0.664598
  O       1.634223     -0.620787     -0.481295
  P       0.146992     -0.099066     -0.529445
  O      -0.303416      0.271529     -1.894586
  O      -0.674244     -1.187888      0.263751
  C      -2.026486     -1.678742      0.020765
  O       0.197944      1.100640      0.536603
  C      -0.270157      2.452451      0.385306
  H       2.637768     -2.197251      0.371249
  H       1.744040     -1.166293      1.568360
  H       3.269932     -0.581617      0.758671
  H      -1.930890     -2.762007     -0.130878
  H      -2.476302     -1.183486     -0.840251
  H      -2.585733     -1.508111      0.948119
  H       0.607617      3.103551      0.536183
  H      -0.944196      2.643430      1.235553
  H      -0.745394      2.616040     -0.582132
  Li     -0.393344      0.337062     -3.759150
18
Coordinates from ORCA-job TMP_m1_dication_opt E -768.849175129580
  C       2.357319     -1.178564      0.664305
  O       1.631456     -0.630375     -0.482338
  P       0.148355     -0.100361     -0.528246
  O      -0.302910      0.264918     -1.894510
  O      -0.679642     -1.181541      0.270248
  C      -2.028343     -1.676301      0.021380
  O       0.201146      1.101787      0.533787
  C      -0.272483      2.452643      0.383800
  H       2.632781     -2.203756      0.381515
  H       1.753227     -1.154514      1.571951
  H       3.275456     -0.585015      0.745667
  H      -1.928741     -2.758412     -0.139741
  H      -2.479242     -1.177287     -0.836852
  H      -2.587721     -1.518432      0.951049
  H       0.603018      3.106533      0.534227
  H      -0.946525      2.640004      1.234787
  H      -0.750054      2.612400     -0.583068
  Li     -0.384703      0.348796     -3.756539
18
Coordinates from ORCA-job TMP_m1_dication_opt E -768.849213744304
  C       2.360425     -1.180416      0.662685
  O       1.626187     -0.645726     -0.486306
  P       0.150173     -0.100282     -0.527786
  O      -0.305163      0.258099     -1.894386
  O      -0.687028     -1.170775      0.280779
  C      -2.028895     -1.672805      0.020883
  O       0.207525      1.104727      0.530302
  C      -0.275977      2.453517      0.384175
  H       2.619482     -2.214211      0.397734
  H       1.767802     -1.129978      1.576680
  H       3.285667     -0.595428      0.720427
  H      -1.921944     -2.754173     -0.146278
  H      -2.479437     -1.172654     -0.836819
  H      -2.592701     -1.528762      0.950447
  H       0.594802      3.111614      0.541217
  H      -0.953586      2.632395      1.234201
  H      -0.752911      2.611350     -0.583229
  Li     -0.372026      0.356030     -3.753303
18
Coordinates from ORCA-job TMP_m1_dication_opt E -768.849243699020
  C       2.364179     -1.183676      0.658965
  O       1.625161     -0.655445     -0.490400
  P       0.152035     -0.102368     -0.529388
  O      -0.304567      0.250255     -1.896917
  O      -0.688514     -1.169694      0.284430
  C      -2.031728     -1.665099      0.025446
  O       0.208797      1.103586      0.527703
  C      -0.279849      2.451681      0.383187
  H       2.640742     -2.211276      0.389867
  H       1.767573     -1.144609      1.571009
  H       3.279302     -0.583358      0.724523
  H      -1.930037     -2.747762     -0.139547
  H      -2.481587     -1.164088     -0.832064
  H      -2.594291     -1.520115      0.955906
  H       0.587510      3.111486      0.549259
  H      -0.963247      2.624565      1.229883
  H      -0.753175      2.609365     -0.585866
  Li     -0.355911      0.359075     -3.754573
18
Coordinates from ORCA-job TMP_m1_dication_opt E -768.849274451482
  C       2.365992     -1.182394      0.656946
  O       1.620110     -0.673674     -0.497817
  P       0.154192     -0.103328     -0.532918
  O      -0.307660      0.243426     -1.900006
  O      -0.693092     -1.163749      0.290469
  C      -2.032918     -1.658832      0.025264
  O       0.218006      1.102264      0.523496
  C      -0.283381      2.447510      0.386879
  H       2.636251     -2.215484      0.404425
  H       1.777517     -1.120386      1.572823
  H       3.284673     -0.585661      0.703915
  H      -1.930118     -2.742241     -0.138575
  H      -2.482008     -1.157101     -0.832224
  H      -2.599751     -1.517984      0.954205
  H       0.579285      3.112312      0.555239
  H      -0.966655      2.610427      1.235509
  H      -0.760820      2.606441     -0.579909
  Li     -0.337229      0.360976     -3.756299
18
Coordinates from ORCA-job TMP_m1_dication_opt E -768.849300991062
  C       2.367779     -1.180350      0.654999
  O       1.616719     -0.689073     -0.504368
  P       0.156414     -0.105238     -0.536936
  O      -0.309617      0.237240     -1.903617
  O      -0.695136     -1.162570      0.291965
  C      -2.034963     -1.652298      0.025777
  O       0.227365      1.098202      0.519275
  C      -0.285944      2.440804      0.391123
  H       2.642081     -2.214508      0.413015
  H       1.782189     -1.107328      1.571913
  H       3.284439     -0.579488      0.693683
  H      -1.936832     -2.737895     -0.128235
  H      -2.480509     -1.154314     -0.835753
  H      -2.605923     -1.503300      0.951304
  H       0.572825      3.110901      0.556386
  H      -0.966965      2.595048      1.242932
  H      -0.770233      2.600939     -0.572140
  Li     -0.321294      0.365751     -3.759900
18
Coordinates from ORCA-job TMP_m1_dication_opt E -768.849327239133
  C       2.367437     -1.176289      0.653980
  O       1.613486     -0.701270     -0.509789
  P       0.156564     -0.107058     -0.540256
  O      -0.313522      0.233577     -1.905854
  O      -0.695948     -1.165672      0.289942
  C      -2.036529     -1.650320      0.024437
  O       0.237291      1.092380      0.515945
  C      -0.284354      2.433588      0.396191
  H       2.650866     -2.209740      0.420253
  H       1.781861     -1.098330      1.570543
  H       3.279795     -0.568031      0.689621
  H      -1.945428     -2.739873     -0.103771
  H      -2.473165     -1.167088     -0.850065
  H      -2.615746     -1.476949      0.941205
  H       0.572520      3.107715      0.552018
  H      -0.959632      2.582327      1.252925
  H      -0.777923      2.594835     -0.562261
  Li     -0.315180      0.378720     -3.763641
18
Coordinates from ORCA-job TMP_m1_dication_opt E -768.849346103907
  C       2.368864     -1.170709      0.654237
  O       1.606703     -0.721342     -0.514595
  P       0.158373     -0.107798     -0.542407
  O      -0.317037      0.230137     -1.906740
  O      -0.702468     -1.160651      0.291134
  C      -2.038412     -1.647935      0.018107
  O       0.253410      1.089152      0.510406
  C      -0.285811      2.425998      0.404752
  H       2.634576     -2.214999      0.450044
  H       1.797107     -1.054860      1.575489
  H       3.290244     -0.574985      0.658606
  H      -1.947516     -2.739859     -0.090809
  H      -2.466311     -1.177963     -0.867887
  H      -2.628469     -1.461163      0.926179
  H       0.567012      3.109466      0.538442
  H      -0.944721      2.566063      1.274808
  H      -0.801013      2.582981     -0.543134
  Li     -0.302138      0.390989     -3.765210
18
Coordinates from ORCA-job TMP_m1_dication_opt E -768.849356140501
  C       2.369756     -1.169410      0.653586
  O       1.603387     -0.727994     -0.515200
  P       0.158208     -0.106383     -0.541076
  O      -0.319070      0.231072     -1.904909
  O      -0.705713     -1.158490      0.291117
  C      -2.038394     -1.649890      0.013539
  O       0.259504      1.089442      0.509187
  C      -0.286122      2.425370      0.409514
  H       2.623709     -2.219186      0.462638
  H       1.806166     -1.036120      1.577487
  H       3.296683     -0.582301      0.642283
  H      -1.947902     -2.743956     -0.071297
  H      -2.456005     -1.197980     -0.886587
  H      -2.638054     -1.444810      0.911865
  H       0.565246      3.112148      0.533260
  H      -0.937800      2.561609      1.285162
  H      -0.809920      2.579404     -0.534214
  Li     -0.301286      0.399997     -3.764934
18
Coordinates from ORCA-job TMP_m1_dication_opt E -768.849359770285
  C       2.370786     -1.168697      0.653641
  O       1.601821     -0.731069     -0.514919
  P       0.158147     -0.105325     -0.539844
  O      -0.319027      0.232685     -1.903624
  O      -0.708218     -1.156301      0.291071
  C      -2.038517     -1.651303      0.009954
  O       0.261887      1.090675      0.509166
  C      -0.287278      2.426147      0.412329
  H       2.612398     -2.223272      0.472808
  H       1.813945     -1.020860      1.579389
  H       3.303452     -0.591360      0.629412
  H      -1.946642     -2.745973     -0.065147
  H      -2.451663     -1.206982     -0.895910
  H      -2.642414     -1.440549      0.904463
  H       0.563714      3.114569      0.528501
  H      -0.932208      2.561104      1.292916
  H      -0.817982      2.576710     -0.528045
  Li     -0.299805      0.402325     -3.764740
18
Coordinates from ORCA-job TMP_m1_dication_opt E -768.849360380544
  C       2.370856     -1.168839      0.653507
  O       1.601421     -0.730902     -0.514721
  P       0.157795     -0.104579     -0.539243
  O      -0.319072      0.233753     -1.903130
  O      -0.708706     -1.155730      0.291180
  C      -2.038117     -1.652436      0.008898
  O       0.261347      1.091442      0.509887
  C      -0.287701      2.427286      0.412995
  H       2.607772     -2.224892      0.474882
  H       1.816103     -1.016691      1.579786
  H       3.305732     -0.595361      0.625795
  H      -1.945279     -2.747266     -0.062396
  H      -2.449714     -1.210955     -0.899005
  H      -2.643663     -1.439761      0.901872
  H       0.563900      3.115199      0.527614
  H      -0.930830      2.562570      1.294797
  H      -0.819807      2.576979     -0.526693
  Li     -0.299645      0.402706     -3.764604
18
Coordinates from ORCA-job TMP_m1_dication_opt E -768.849360616140
  C       2.370946     -1.168990      0.653398
  O       1.601413     -0.730630     -0.514784
  P       0.157721     -0.104443     -0.539200
  O      -0.318934      0.234184     -1.903150
  O      -0.708689     -1.155796      0.291027
  C      -2.038080     -1.652601      0.008778
  O       0.260756      1.091496      0.510369
  C      -0.288041      2.427559      0.413082
  H       2.607453     -2.225063      0.474435
  H       1.816082     -1.016840      1.579603
  H       3.305915     -0.595751      0.625716
  H      -1.945228     -2.747500     -0.061233
  H      -2.449426     -1.211688     -0.899497
  H      -2.643896     -1.439212      0.901424
  H       0.564061      3.115057      0.526536
  H      -0.929930      2.563439      1.295677
  H      -0.821229      2.576657     -0.526055
  Li     -0.298501      0.402643     -3.764705
