18
Coordinates from ORCA-job TMP_m1_reduced_opt E -769.481018034102
  C           2.39006504759233     -1.19064045804892      0.16633365747299
  O           1.46738097993325     -0.19806183046216      0.68919807258295
  P           0.01406192376774     -0.08652686930545      0.06023504576083
  O          -0.02921137712111     -0.12010218670635     -1.43193838085771
  O          -0.79250699113470     -1.25012874088283      0.77833170021050
  C          -2.12398211177774     -1.58428239395536      0.30326739452086
  O          -0.57520165436592      1.23399624492971      0.71519847772175
  C          -0.20308004824932      2.52423301263312      0.16135260784296
  H           3.34297373472056     -0.99693493643034      0.65909044179494
  H           2.49279885507007     -1.07929286813657     -0.91786548192842
  H           2.03720402146022     -2.19650156093129      0.41357649271799
  H          -2.42172813055134     -2.47351019363260      0.85914452561499
  H          -2.10119833248716     -1.79665347204502     -0.77042603651492
  H          -2.81391562536319     -0.76141736088341      0.51364341537389
  H           0.85837955111210      2.71752652039758      0.34379874221144
  H          -0.81284387555892      3.25879174234305      0.68765982326765
  H          -0.41600341395735      2.55197206552146     -0.91206943344208
  Li         -0.07079855308954     -0.18994371440462     -3.24710906435060
