18
Coordinates from ORCA-job TMP_m1_reduced_opt E -769.477380909295
  C       2.400979     -1.201325      0.204089
  O       1.475365     -0.117724      0.508401
  P       0.015237     -0.088971     -0.078372
  O      -0.030478     -0.117912     -1.590278
  O      -0.720678     -1.304878      0.597797
  C      -2.127366     -1.586269      0.340673
  O      -0.651997      1.191869      0.546670
  C      -0.211867      2.535114      0.191731
  H       3.329991     -0.943949      0.710953
  H       2.568442     -1.264009     -0.875037
  H       2.008321     -2.144184      0.592877
  H      -2.350141     -2.496564      0.895544
  H      -2.291494     -1.749735     -0.728335
  H      -2.742859     -0.761065      0.707429
  H       0.822593      2.682484      0.512002
  H      -0.872221      3.211873      0.732234
  H      -0.313204      2.693826     -0.885662
  Li     -0.066229     -0.176058     -3.311294
18
Coordinates from ORCA-job TMP_m1_reduced_opt E -769.478971405083
  C       2.396989     -1.199332      0.190833
  O       1.474585     -0.141355      0.565683
  P       0.016432     -0.087613     -0.032819
  O      -0.029335     -0.116762     -1.537101
  O      -0.739966     -1.288250      0.655504
  C      -2.123858     -1.584936      0.327219
  O      -0.627213      1.204386      0.602208
  C      -0.212140      2.530903      0.179168
  H       3.329632     -0.971878      0.706976
  H       2.552401     -1.193872     -0.892666
  H       2.006753     -2.165472      0.521629
  H      -2.373551     -2.482530      0.892759
  H      -2.221819     -1.773977     -0.746470
  H      -2.763528     -0.753273      0.634360
  H       0.837326      2.691273      0.440158
  H      -0.848052      3.225850      0.727448
  H      -0.366212      2.645195     -0.898386
  Li     -0.066050     -0.175835     -3.265083
18
Coordinates from ORCA-job TMP_m1_reduced_opt E -769.480353240655
  C       2.389351     -1.193614      0.173856
  O       1.471306     -0.173485      0.643592
  P       0.016830     -0.085782      0.024021
  O      -0.028664     -0.115940     -1.468397
  O      -0.766994     -1.264363      0.733939
  C      -2.117021     -1.583848      0.310251
  O      -0.593904      1.221268      0.676387
  C      -0.211511      2.523379      0.163957
  H       3.327733     -1.010015      0.697532
  H       2.529866     -1.099691     -0.908240
  H       2.004596     -2.186810      0.424198
  H      -2.407229     -2.462710      0.886391
  H      -2.128916     -1.807982     -0.761758
  H      -2.786267     -0.747465      0.533180
  H       0.853217      2.698133      0.345282
  H      -0.811526      3.246169      0.717222
  H      -0.431751      2.582715     -0.907170
  Li     -0.066722     -0.177438     -3.212821
18
Coordinates from ORCA-job TMP_m1_reduced_opt E -769.480644593885
  C       2.386909     -1.190464      0.163640
  O       1.468650     -0.195119      0.686821
  P       0.015728     -0.084674      0.057655
  O      -0.029766     -0.116848     -1.431058
  O      -0.787393     -1.248844      0.778165
  C      -2.116163     -1.585879      0.300439
  O      -0.573398      1.233771      0.716223
  C      -0.208799      2.522636      0.156312
  H       3.329243     -1.027996      0.687094
  H       2.518796     -1.050896     -0.914469
  H       2.009809     -2.196601      0.371814
  H      -2.428132     -2.454553      0.880596
  H      -2.081678     -1.830784     -0.766364
  H      -2.801629     -0.750833      0.475435
  H       0.860790      2.705339      0.298965
  H      -0.791566      3.260574      0.707949
  H      -0.459886      2.555316     -0.909048
  Li     -0.069124     -0.181620     -3.188749
18
Coordinates from ORCA-job TMP_m1_reduced_opt E -769.480746721350
  C       2.388076     -1.189854      0.160816
  O       1.468328     -0.201705      0.697821
  P       0.015142     -0.084902      0.067235
  O      -0.030077     -0.118057     -1.422581
  O      -0.794305     -1.245612      0.788946
  C      -2.118523     -1.586704      0.298262
  O      -0.568514      1.237573      0.725553
  C      -0.207119      2.523691      0.154747
  H       3.332379     -1.028290      0.680897
  H       2.515386     -1.042494     -0.916514
  H       2.016743     -2.199328      0.363121
  H      -2.433597     -2.455629      0.876262
  H      -2.075563     -1.832652     -0.767682
  H      -2.808550     -0.754084      0.466812
  H       0.862118      2.710527      0.294770
  H      -0.790267      3.264478      0.702047
  H      -0.459479      2.550020     -0.910180
  Li     -0.069786     -0.184453     -3.188908
18
Coordinates from ORCA-job TMP_m1_reduced_opt E -769.480896996113
  C       2.390715     -1.189443      0.158852
  O       1.468471     -0.207367      0.706075
  P       0.014182     -0.085978      0.075602
  O      -0.030217     -0.120537     -1.417819
  O      -0.801227     -1.244840      0.796227
  C      -2.123689     -1.586736      0.297485
  O      -0.566312      1.240611      0.731355
  C      -0.203947      2.525196      0.154732
  H       3.339318     -1.018366      0.667895
  H       2.506516     -1.045081     -0.919749
  H       2.031267     -2.201477      0.369067
  H      -2.435747     -2.462788      0.866194
  H      -2.079818     -1.822372     -0.770304
  H      -2.818136     -0.759705      0.474480
  H       0.862067      2.719180      0.308178
  H      -0.797679      3.266365      0.689928
  H      -0.443025      2.545444     -0.912957
  Li     -0.070345     -0.189582     -3.203819
18
Coordinates from ORCA-job TMP_m1_reduced_opt E -769.480964537133
  C       2.391323     -1.189554      0.160364
  O       1.468499     -0.205518      0.702570
  P       0.013819     -0.086733      0.073110
  O      -0.029926     -0.121543     -1.421767
  O      -0.800168     -1.247254      0.792030
  C      -2.125616     -1.585491      0.299268
  O      -0.569487      1.239091      0.727249
  C      -0.202530      2.524958      0.156830
  H       3.342849     -1.007026      0.659965
  H       2.498288     -1.057869     -0.920770
  H       2.038129     -2.200223      0.386722
  H      -2.431259     -2.469115      0.859736
  H      -2.089409     -1.808171     -0.771593
  H      -2.819518     -0.761731      0.492453
  H       0.860353      2.721449      0.327264
  H      -0.806843      3.263724      0.683505
  H      -0.425908      2.545109     -0.914273
  Li     -0.070203     -0.191581     -3.221239
18
Coordinates from ORCA-job TMP_m1_reduced_opt E -769.481006280314
  C       2.390798     -1.189853      0.163500
  O       1.468051     -0.200914      0.694744
  P       0.013695     -0.087160      0.066111
  O      -0.029466     -0.121639     -1.428391
  O      -0.795939     -1.250158      0.783729
  C      -2.125739     -1.583946      0.302014
  O      -0.574162      1.235771      0.719663
  C      -0.201974      2.524016      0.159848
  H       3.344700     -0.996157      0.654382
  H       2.490243     -1.073980     -0.920360
  H       2.041177     -2.197460      0.408118
  H      -2.424499     -2.474520      0.855214
  H      -2.099489     -1.793963     -0.771900
  H      -2.817205     -0.762389      0.512354
  H       0.858164      2.720572      0.346257
  H      -0.815300      3.259751      0.680392
  H      -0.410688      2.546544     -0.914370
  Li     -0.069972     -0.191992     -3.239882
18
Coordinates from ORCA-job TMP_m1_reduced_opt E -769.481015799054
  C       2.390236     -1.190193      0.165416
  O       1.467601     -0.198415      0.690344
  P       0.013815     -0.087021      0.061712
  O      -0.029241     -0.121030     -1.431506
  O      -0.793248     -1.250919      0.779307
  C      -2.124914     -1.583608      0.303268
  O      -0.575888      1.234034      0.715813
  C      -0.202329      2.523708      0.161217
  H       3.344410     -0.993742      0.654669
  H       2.488891     -1.080266     -0.919271
  H       2.040093     -2.196199      0.415826
  H      -2.421581     -2.475472      0.855512
  H      -2.102619     -1.791104     -0.771359
  H      -2.814994     -0.762048      0.518136
  H       0.857578      2.718928      0.350362
  H      -0.816677      3.258252      0.682230
  H      -0.408655      2.548761     -0.913535
  Li     -0.070084     -0.191143     -3.246720
18
Coordinates from ORCA-job TMP_m1_reduced_opt E -769.481017574651
  C       2.390066     -1.190459      0.166090
  O       1.467406     -0.197940      0.689234
  P       0.013954     -0.086753      0.060396
  O      -0.029200     -0.120477     -1.432041
  O      -0.792527     -1.250579      0.778297
  C      -2.124324     -1.583907      0.303422
  O      -0.575727      1.233781      0.715052
  C      -0.202764      2.523923      0.161435
  H       3.343645     -0.995118      0.656917
  H       2.490681     -1.080487     -0.918448
  H       2.038458     -2.196206      0.415530
  H      -2.421318     -2.474585      0.857383
  H      -2.102226     -1.793582     -0.770818
  H      -2.814170     -0.761676      0.516510
  H       0.857906      2.718030      0.347508
  H      -0.814936      3.258351      0.685136
  H      -0.412119      2.550592     -0.912721
  Li     -0.070409     -0.190385     -3.247462
18
Coordinates from ORCA-job TMP_m1_reduced_opt E -769.481018034102
  C       2.390065     -1.190640      0.166334
  O       1.467381     -0.198062      0.689198
  P       0.014062     -0.086527      0.060235
  O      -0.029211     -0.120102     -1.431938
  O      -0.792507     -1.250129      0.778332
  C      -2.123982     -1.584282      0.303267
  O      -0.575202      1.233996      0.715198
  C      -0.203080      2.524233      0.161353
  H       3.342974     -0.996935      0.659090
  H       2.492799     -1.079293     -0.917865
  H       2.037204     -2.196502      0.413576
  H      -2.421728     -2.473510      0.859145
  H      -2.101198     -1.796653     -0.770426
  H      -2.813916     -0.761417      0.513643
  H       0.858380      2.717527      0.343799
  H      -0.812844      3.258792      0.687660
  H      -0.416003      2.551972     -0.912069
  Li     -0.070799     -0.189944     -3.247109
