18
Coordinates from ORCA-job TMP_m1_cation_opt E -769.340029250582
  C           2.40097914352538     -1.20132506480389      0.20408858292269
  O           1.47536496944497     -0.11772359037565      0.50840142837124
  P           0.01523653676940     -0.08897137432475     -0.07837180569967
  O          -0.03047806470733     -0.11791231360236     -1.59027848092294
  O          -0.72067817221320     -1.30487834015179      0.59779716419837
  C          -2.12736613242417     -1.58626909219192      0.34067253835369
  O          -0.65199702518651      1.19186876432257      0.54666957185571
  C          -0.21186732428035      2.53511433194893      0.19173088265601
  H           3.32999113960667     -0.94394891029904      0.71095288628289
  H           2.56844172397609     -1.26400915198340     -0.87503679070841
  H           2.00832089439522     -2.14418422434798      0.59287688180901
  H          -2.35014062719535     -2.49656438810126      0.89554363021870
  H          -2.29149393190963     -1.74973477403086     -0.72833509342020
  H          -2.74285906584548     -0.76106459687771      0.70742870401562
  H           0.82259317508033      2.68248443453537      0.51200219403791
  H          -0.87222094233671      3.21187272894611      0.73223445665766
  H          -0.31320429634257      2.69382629417226     -0.88566224114984
  Li         -0.06622946755676     -0.17605813173461     -3.31129417457842
