18
Coordinates from ORCA-job TMP_m2_cation_opt E -769.325955734946
  C           2.33332955231324     -1.58889410632292      0.05099255245624
  O           1.73895980091428     -0.33814081452649      0.55176814608307
  P           0.34378102217440      0.16404070716114     -0.13230945507287
  O           0.31788205156872      0.43048034795406     -1.57447168410518
  O          -0.70657965320220     -0.85444909780712      0.46230157378407
  C          -1.92811377259464     -1.21983031674064     -0.26683263046737
  O           0.32998308700363      1.48582890164087      0.84267084937515
  C          -0.64643719657473      2.54243142080430      0.54230459289369
  H           3.29975717161428     -1.68427244832096      0.54352998281790
  H           2.45976078524192     -1.51583253601555     -1.03140575088714
  H           1.68182982948106     -2.42373745641106      0.31745701702118
  H          -2.10727581123403     -2.26935040620322     -0.03558296350236
  H          -1.78466860503996     -1.07725526222431     -1.33982993839241
  H          -2.74955024238863     -0.60477323375441      0.10489403132143
  H          -0.57335877090421      2.81327522351349     -0.51303718031385
  H          -0.38619913392984      3.38776394385593      1.17798935414942
  H          -1.64817715284020      2.18363067608942      0.78966742889747
  Li          2.00479754749692      1.14912917920747      1.72227760474154
