12
Coordinates from ORCA-job DMC_cation_cpcm_5_default E -343.251951193373
  C          -2.39992172709864     -0.08256322775716      0.11492360841526
  O          -1.05991808809099     -0.71447399231285      0.31087763098847
  C           0.00374184538659     -0.09171901213823     -0.02831267698642
  O          -0.05230878064125      1.08332912801708     -0.54076217876429
  O           1.12385734568478     -0.67818397187118      0.15952407770189
  C           2.40427201385502      0.00376077681887     -0.19866360714886
  H          -3.08557841135125     -0.83681369550741      0.49021650136014
  H          -2.54067384434591      0.09991081055455     -0.95060296813758
  H          -2.43821697013592      0.83139079296732      0.70816177371495
  H           2.49081447989935      0.90686176171137      0.40575039203446
  H           2.39596994100926      0.21173082397186     -1.26881594465642
  H           3.15796220582896     -0.73323020445422      0.06374693147841
