12
 energy: -21.149724279638 gnorm: 0.000463915865 xtb: 6.7.1pre (5071a88)
C           -2.32789663711371       -0.11296912542184        0.16085539115775
O           -1.03987051009917       -0.47510613439887        0.51163425915963
C           -0.00876438328433        0.05324586484825       -0.17871860697888
O           -0.08280117376457        0.80807669374256       -1.09028822508332
O            1.12148601195633       -0.43608505907706        0.36975197360217
C            2.33958310155940       -0.02793682957330       -0.14363241471798
H           -2.96758925286884       -0.99179296762776        0.33819821928485
H           -2.38416895043927        0.29313662543023       -0.85743535312063
H           -2.72094270300597        0.64998264725022        0.86311149871317
H            2.79982447048585        0.73603815490799        0.51493405323961
H            2.24742260483622        0.39153108752234       -1.15359828313054
H            3.02371743173804       -0.88812096760263       -0.06876897212581
