10
 energy: -20.117657953991 gnorm: 0.000394755449 xtb: 6.7.1pre (5071a88)
C           -0.20793658787877       -0.94333428942880       -0.10963128035914
C           -0.87209302222631        0.42410475547363       -0.06889841310415
O            0.17068181782337        1.31088048908024        0.05332840449708
C            1.36593299258159        0.65730801039220        0.20650659952582
O            2.39094863515089        1.14690978842795        0.48030347036088
O            1.13639893939521       -0.67744062284309       -0.00622743138722
H           -0.38246908535391       -1.53036208214218       -1.03819922905603
H           -0.53858095896780       -1.63390164248302        0.69509423894477
H           -1.46247563648976        0.69397987786561       -0.97220166907910
H           -1.60040709403452        0.55185571565748        0.75992531965711
