11
DOL_anion_cpcm_1e6
C            0.53421536670807        0.94875449352019       -0.06194099653860
C            0.94314821086615       -0.49506784973041        0.23395842153077
O           -0.16292362064612       -1.22914463180540       -0.25012713109554
C           -1.28944709227820       -0.39597898542072       -0.15013748093862
O           -0.86519621351441        0.91341763718715        0.13041562326374
H            0.95631269282617        1.68327287856809        0.62283230959923
H            0.77283009290057        1.21879442503574       -1.09975491729033
H            1.06685767138855       -0.65384093637303        1.31395996735606
H            1.83419962245633       -0.82632884334482       -0.29791689458194
H           -1.83420108779247       -0.44410576378684       -1.10633472623284
H           -1.95579564291466       -0.71977242384994        0.66504582492808
