17
 energy: -29.400133245910 gnorm: 0.000612851747 xtb: 6.7.1pre (5071a88)
C            2.27238742231345       -1.16824338606161       -0.00034373977582
O            1.42785052020437       -0.52416749223280       -0.91890312575243
P            0.00951697920538        0.10533678723944       -0.61968489426076
O           -0.70625092063313        0.67395912700612       -1.73810571289670
O           -0.74649189538632       -1.07457482871382        0.18898347684042
C           -2.07227457014915       -1.40869802311125       -0.09491961782472
O            0.32897701987315        1.12775752538705        0.60020664306610
C           -0.12013912293128        2.44601110305203        0.57384108038386
H            3.19959021121760       -0.58639983961023        0.08702797129476
H            2.55758571097857       -2.13603903390030       -0.43443257274500
H            1.80785469211694       -1.30370634623751        0.97594196408594
H           -2.13986310842480       -2.50473954774894       -0.12288635723493
H           -2.40814661686201       -0.96166890677938       -1.03378086038118
H           -2.72312835943467       -1.08719009608211        0.73125894320225
H            0.72440488279661        3.09714591592355        0.84023540143890
H           -0.87050692420740        2.59548977699305        1.36529088551331
H           -0.54136593067765        2.70972727487652       -0.39972949495401
