17
 energy: -29.400143696958 gnorm: 0.000712350434 xtb: 6.7.1pre (5071a88)
C            2.23155560249069       -1.15268212813142        0.12119980000790
O            0.88128283218858       -0.91041522994963        0.36580236028676
P           -0.00140743032760        0.01834519459593       -0.62978863934671
O            0.68311614217508        0.50278227337088       -1.80588394915856
O           -1.29537430141772       -0.85972921696126       -0.86050670144763
C           -2.12815497215606       -1.40426195572533        0.13043148618784
O           -0.51304027033736        1.14497132026615        0.41410004306865
C           -0.18646668102553        2.49116616055889        0.24021558549333
H            2.83854405638045       -0.68076449920056        0.90851883460890
H            2.53595845391092       -0.78626151294706       -0.86251703665784
H            2.40492099410677       -2.23359225872104        0.22101464250981
H           -2.09827544647993       -2.49919390059540        0.04448498811176
H           -3.15989449379976       -1.10629186560591       -0.10105791893542
H           -1.84977197552298       -1.08809077357347        1.13579731464228
H            0.51552397166452        2.80712174079669        1.02582103685332
H           -1.10061872581921        3.07943940355171        0.39987497592902
H            0.24210223396916        2.67745725827033       -0.74750683215387
