18
 energy: -28.146391082298 gnorm: 0.000701041343 xtb: 6.7.1pre (5071a88)
C           -2.46803625701376        0.36835661239487        0.65085995259254
C           -2.26036393774433       -0.64154093328397       -0.47817748622401
O           -1.18785082516002       -1.53051072499870       -0.22128365557272
C            0.08153264292686       -1.08809802994146       -0.67128979822146
O            0.22306588950972       -0.62786434940791       -1.84732821917505
O            0.65477681437473       -0.28307494104231        0.46600709542841
C            1.60364707123060        0.64618934423437        0.08053362564129
C            3.03895951086756        0.15631132800577        0.31632323293162
H           -1.52933735046391        0.88581884063227        0.82969515133025
H           -2.75452905112135       -0.14694732412584        1.56651367350188
H           -3.24205775219305        1.09192294554292        0.38692957414577
H           -2.04928788420914       -0.11290034660748       -1.41972792676304
H           -3.16641372299574       -1.25308569159009       -0.61255352983780
H            1.46847350274431        0.86395837934824       -0.99195999115537
H            1.43844547771163        1.57447657329625        0.65800153561090
H            3.75552404923151        0.92340741457397        0.02149972031461
H            3.20817953357849       -0.74057466835056       -0.27382121456355
H            3.18527229872543       -0.08584441867923        1.36806184001619
