15
 energy: -24.979307493918 gnorm: 0.000363014387 xtb: 6.7.1pre (5071a88)
C           -1.54923231885993        0.74807050488406        0.79632044943520
C           -1.52695826625537       -0.70344657107379        0.31694619424447
O           -0.37450952265530       -1.40444972584678        0.74959762652640
C            0.74816912095703       -1.31440033121507       -0.11698165501829
O            0.60287697831566       -1.46353588543098       -1.37033591840852
O            1.55305913764747       -0.14315857351566        0.36200856147121
C            2.16030889047022        0.59077558644701       -0.64259017407995
H           -0.63626192173525        1.23859093298125        0.47158468060982
H           -2.41167371382395        1.27722003343908        0.38697173704349
H           -1.58810825944097        0.78363508757150        1.88387641888963
H           -2.40175115508149       -1.24509266375864        0.70824235441652
H           -1.55356364049099       -0.73607680196880       -0.78264679891000
H            3.25811928192612        0.53692738069926       -0.55859465461201
H            1.85739932907315        0.18311384293210       -1.61783640433932
H            1.86212603995404        1.65182716385520       -0.58656241726831
