15
Coordinates from ORCA-job EMC_anion_cpcm_40_moread E -382.907023591543
  C          -2.39595882047363      0.49747810676062      0.59954985734572
  C          -1.51447646540755     -0.74112764937892      0.66307257678223
  O          -0.14290114000296     -0.41846001233283      0.89735325290715
  C           0.67107817645517     -0.39711064105764     -0.30687519620796
  O           0.21541450361097      0.15066199218384     -1.35919008233050
  O           1.92390821545647      0.09157041858008      0.24873726825259
  C           2.92780868719325      0.24494345372646     -0.74369105605337
  H          -2.10974687714620      1.13031589685110     -0.24522095382535
  H          -3.44812127456405      0.20902800156144      0.48243395102501
  H          -2.30429197943242      1.08299814503732      1.52101956729606
  H          -1.83441895099398     -1.38098150177064      1.49732958883780
  H          -1.60787740656119     -1.32560795264870     -0.26306590145477
  H           3.10404381116579     -0.69845772074186     -1.28540852170693
  H           2.66745168481711      1.01895372990012     -1.47811546421810
  H           3.84808781588324      0.53579571332957     -0.22792888664957
