13
PC conformer 0/2 rel=+0.00 kJ/mol from g1_reference; GFN2-xTB opt; T6 conformer ensemble
C   1.58362649 -0.33828845  0.05439696
C   0.11979844 -0.42076472  0.46519226
C  -0.58068554  0.95592877  0.52049107
O  -1.53689119  0.90063837 -0.51798541
C  -1.54308077 -0.31768721 -1.08821449
O  -2.26160242 -0.63790004 -1.97470690
O  -0.63159943 -1.12004578 -0.51874339
H   2.15195121  0.18008036  0.82185009
H   1.68103377  0.19420048 -0.88902500
H   1.98458276 -1.34018629 -0.07088437
H   0.02009640 -0.96965935  1.40816661
H   0.10896204  1.78027539  0.32112068
H  -1.09619174  1.13340848  1.46834188
