13
PC conformer 1/2 rel=+0.00 kJ/mol from 2; GFN2-xTB opt; T6 conformer ensemble
C  -1.53911671 -0.40098531  0.30920576
C  -0.38940810  0.27666049 -0.42381143
C   0.82897388 -0.64875591 -0.64329043
O   1.84748506 -0.07551410  0.15033927
C   1.41992985  1.07077490  0.70956630
O   2.08126409  1.76068614  1.41052173
O   0.14936319  1.32894136  0.36622186
H  -2.31384726  0.32883724  0.52694907
H  -1.18978460 -0.82568061  1.24765061
H  -1.95614612 -1.18978214 -0.31093102
H  -0.74406175  0.71704899 -1.36227070
H   0.64307181 -1.66834135 -0.29573437
H   1.16227666 -0.67388969 -1.68441663
