16
Coordinates from ORCA-job SL_m1_reduced_opt E -713.249821751158
  O           2.09843420165384      1.10075953413735      1.05251023488706
  S           1.19368746513102      0.83720150612260     -0.10102680417607
  O           1.61306627492011      1.50226214903598     -1.36624848844681
  C           0.91504765365503     -0.96795934384753     -0.35402765105303
  C          -0.46152521950485     -1.23994581539638      0.24679593099150
  C          -1.34283293989608     -0.02497929489579     -0.09285554662899
  C          -0.56020992908243      1.21784270426504      0.32286320754036
  H           0.94216119015117     -1.11907936522374     -1.43810642510686
  H           1.74810543117429     -1.49068873075017      0.12168156090762
  H          -0.88134118541824     -2.16666082931008     -0.15553551941814
  H          -0.38216894817499     -1.35423128635599      1.33436610667178
  H          -1.54717911331615      0.00121586114957     -1.16972342728120
  H          -2.30413648643180     -0.06669675620341      0.42777132118125
  H          -0.82433388370509      2.13828877292333     -0.20306656681771
  H          -0.57058777911138      1.38342460297009      1.40511935059196
  Li          3.35732526795557      2.34697129137913     -0.28512228384271
