16
Coordinates from ORCA-job SL_m1_reduced_opt E -713.246372121041
  O       2.125998      1.131467      1.025631
  S       1.179924      0.827025     -0.100194
  O       1.656466      1.518858     -1.345011
  C       0.926642     -0.967923     -0.354510
  C      -0.453159     -1.233946      0.247953
  C      -1.334578     -0.019506     -0.094900
  C      -0.555837      1.228965      0.320773
  H       0.952646     -1.114199     -1.440358
  H       1.760958     -1.490261      0.121483
  H      -0.867153     -2.158866     -0.162252
  H      -0.375470     -1.356744      1.334065
  H      -1.548286      0.007354     -1.169270
  H      -2.290726     -0.055207      0.433884
  H      -0.818997      2.149750     -0.206908
  H      -0.561568      1.393670      1.404272
  Li      3.196652      2.237288     -0.269263
16
Coordinates from ORCA-job SL_m1_reduced_opt E -713.247315479751
  O       2.129343      1.131668      1.030854
  S       1.192563      0.835700     -0.101041
  O       1.659406      1.522164     -1.348930
  C       0.922552     -0.962454     -0.353573
  C      -0.458021     -1.236897      0.246982
  C      -1.339077     -0.023630     -0.092366
  C      -0.552510      1.223467      0.318139
  H       0.949501     -1.109185     -1.438446
  H       1.756614     -1.484503      0.120253
  H      -0.873923     -2.162714     -0.161835
  H      -0.379977     -1.357439      1.333585
  H      -1.552733      0.001557     -1.167062
  H      -2.295986     -0.060852      0.436927
  H      -0.815014      2.142670     -0.209992
  H      -0.559510      1.392247      1.400101
  Li      3.210285      2.245927     -0.268202
16
Coordinates from ORCA-job SL_m1_reduced_opt E -713.248242198040
  O       2.127837      1.126623      1.042023
  S       1.209634      0.847566     -0.102330
  O       1.654816      1.522282     -1.358155
  C       0.916183     -0.958034     -0.352191
  C      -0.461302     -1.239647      0.245912
  C      -1.342737     -0.026176     -0.089917
  C      -0.550993      1.216217      0.315830
  H       0.943863     -1.105974     -1.436640
  H       1.751210     -1.480914      0.118814
  H      -0.879508     -2.166204     -0.159392
  H      -0.381386     -1.356331      1.333267
  H      -1.553722     -0.001708     -1.165604
  H      -2.301031     -0.065676      0.437144
  H      -0.813399      2.135598     -0.211900
  H      -0.559605      1.388654      1.396914
  Li      3.233652      2.261448     -0.268381
16
Coordinates from ORCA-job SL_m1_reduced_opt E -713.248575733947
  O       2.122399      1.120813      1.047811
  S       1.212154      0.849438     -0.102652
  O       1.645965      1.518594     -1.363515
  C       0.915271     -0.959867     -0.352313
  C      -0.459946     -1.239181      0.246095
  C      -1.341792     -0.024745     -0.090550
  C      -0.552950      1.215944      0.317014
  H       0.943364     -1.107768     -1.436880
  H       1.750826     -1.482972      0.118074
  H      -0.879255     -2.166009     -0.157191
  H      -0.379901     -1.353948      1.333766
  H      -1.549910     -0.000424     -1.166934
  H      -2.301452     -0.065499      0.433727
  H      -0.815409      2.136509     -0.209102
  H      -0.560744      1.387323      1.398398
  Li      3.244892      2.269516     -0.270355
16
Coordinates from ORCA-job SL_m1_reduced_opt E -713.249041525387
  O       2.110196      1.109440      1.056050
  S       1.209360      0.847768     -0.102708
  O       1.626692      1.509703     -1.371685
  C       0.916472     -0.965636     -0.353267
  C      -0.456475     -1.237049      0.246816
  C      -1.338458     -0.021181     -0.093026
  C      -0.557481      1.218687      0.321045
  H       0.945610     -1.112753     -1.438098
  H       1.752401     -1.488231      0.117862
  H      -0.877787     -2.163911     -0.153833
  H      -0.377791     -1.349498      1.334811
  H      -1.541474      0.002808     -1.170410
  H      -2.300569     -0.064286      0.426153
  H      -0.819802      2.141507     -0.201873
  H      -0.562471      1.385857      1.403323
  Li      3.265088      2.284502     -0.275765
16
Coordinates from ORCA-job SL_m1_reduced_opt E -713.249329441889
  O       2.101285      1.102033      1.059578
  S       1.203099      0.843596     -0.102343
  O       1.613090      1.503100     -1.375326
  C       0.918563     -0.969531     -0.354088
  C      -0.454942     -1.235609      0.247157
  C      -1.336415     -0.019410     -0.094845
  C      -0.559945      1.221518      0.324214
  H       0.948474     -1.116162     -1.438862
  H       1.753986     -1.490917      0.119274
  H      -0.877510     -2.162162     -0.152923
  H      -0.377705     -1.347809      1.335179
  H      -1.537023      0.004792     -1.172587
  H      -2.299736     -0.063951      0.421953
  H      -0.821923      2.145175     -0.197373
  H      -0.563252      1.385227      1.406966
  Li      3.283466      2.297836     -0.280579
16
Coordinates from ORCA-job SL_m1_reduced_opt E -713.249583972421
  O       2.094679      1.097116      1.060240
  S       1.195694      0.838537     -0.101655
  O       1.603777      1.498340     -1.375730
  C       0.920212     -0.971170     -0.354530
  C      -0.455715     -1.235518      0.246907
  C      -1.336442     -0.019695     -0.095516
  C      -0.560559      1.223126      0.326015
  H       0.950406     -1.118410     -1.439036
  H       1.754331     -1.491315      0.122206
  H      -0.878745     -2.161489     -0.154073
  H      -0.379174     -1.349075      1.334687
  H      -1.537148      0.005621     -1.173052
  H      -2.299689     -0.064766      0.421379
  H      -0.822445      2.146262     -0.196318
  H      -0.564367      1.384803      1.408926
  Li      3.308697      2.315358     -0.285055
16
Coordinates from ORCA-job SL_m1_reduced_opt E -713.249740459135
  O       2.093425      1.096669      1.057927
  S       1.191627      0.835711     -0.101018
  O       1.602988      1.497652     -1.372824
  C       0.919794     -0.969899     -0.354246
  C      -0.458438     -1.237140      0.246219
  C      -1.338826     -0.021852     -0.094603
  C      -0.559527      1.222105      0.325474
  H       0.949424     -1.119074     -1.438375
  H       1.752420     -1.489974      0.124878
  H      -0.880599     -2.162746     -0.156437
  H      -0.381142     -1.352611      1.333687
  H      -1.541752      0.005033     -1.171600
  H      -2.300891     -0.066036      0.424510
  H      -0.822037      2.143660     -0.199118
  H      -0.566333      1.384327      1.408167
  Li      3.333380      2.331900     -0.287245
16
Coordinates from ORCA-job SL_m1_reduced_opt E -713.249804182683
  O       2.095601      1.098672      1.054808
  S       1.191451      0.835603     -0.100733
  O       1.607154      1.499533     -1.369123
  C       0.917799     -0.967945     -0.353716
  C      -0.461026     -1.239142      0.245809
  C      -1.341582     -0.024071     -0.093281
  C      -0.558684      1.219740      0.323985
  H       0.946383     -1.119172     -1.437599
  H       1.749619     -1.489120      0.125587
  H      -0.881721     -2.164886     -0.157901
  H      -0.382449     -1.355451      1.333143
  H      -1.546405      0.003707     -1.169924
  H      -2.302618     -0.066776      0.427761
  H      -0.822257      2.139972     -0.202392
  H      -0.568725      1.383697      1.406393
  Li      3.350972      2.343364     -0.287421
16
Coordinates from ORCA-job SL_m1_reduced_opt E -713.249817662144
  O       2.097538      1.100141      1.053194
  S       1.192701      0.836500     -0.100785
  O       1.610562      1.501205     -1.367222
  C       0.916204     -0.967358     -0.353593
  C      -0.461809     -1.239961      0.246022
  C      -1.342691     -0.024880     -0.092775
  C      -0.558960      1.218327      0.323193
  H       0.944037     -1.119223     -1.437470
  H       1.748216     -1.489535      0.124393
  H      -0.881708     -2.166111     -0.157495
  H      -0.382622     -1.355698      1.333423
  H      -1.547721      0.002603     -1.169439
  H      -2.303605     -0.066770      0.428520
  H      -0.823125      2.138325     -0.203388
  H      -0.570083      1.383337      1.405474
  Li      3.356579      2.346823     -0.286654
16
Coordinates from ORCA-job SL_m1_reduced_opt E -713.249820995434
  O       2.098394      1.100714      1.052584
  S       1.193518      0.837084     -0.100919
  O       1.612422      1.502077     -1.366423
  C       0.915329     -0.967578     -0.353791
  C      -0.461746     -1.240068      0.246469
  C      -1.342904     -0.025023     -0.092755
  C      -0.559662      1.217832      0.322915
  H       0.942675     -1.119189     -1.437773
  H       1.747911     -1.490261      0.122760
  H      -0.881440     -2.166596     -0.156386
  H      -0.382387     -1.354899      1.333978
  H      -1.547544      0.001730     -1.169545
  H      -2.304034     -0.066664      0.428174
  H      -0.823942      2.138048     -0.203315
  H      -0.570601      1.383296      1.405170
  Li      3.357524      2.347222     -0.285751
16
Coordinates from ORCA-job SL_m1_reduced_opt E -713.249821751158
  O       2.098434      1.100760      1.052510
  S       1.193687      0.837202     -0.101027
  O       1.613066      1.502262     -1.366248
  C       0.915048     -0.967959     -0.354028
  C      -0.461525     -1.239946      0.246796
  C      -1.342833     -0.024979     -0.092856
  C      -0.560210      1.217843      0.322863
  H       0.942161     -1.119079     -1.438106
  H       1.748105     -1.490689      0.121682
  H      -0.881341     -2.166661     -0.155536
  H      -0.382169     -1.354231      1.334366
  H      -1.547179      0.001216     -1.169723
  H      -2.304136     -0.066697      0.427771
  H      -0.824334      2.138289     -0.203067
  H      -0.570588      1.383425      1.405119
  Li      3.357325      2.346971     -0.285122
