16
Coordinates from ORCA-job SL_m1_dication_opt E -712.584084609145
  O       2.125998      1.131467      1.025631
  S       1.179924      0.827025     -0.100194
  O       1.656466      1.518858     -1.345011
  C       0.926642     -0.967923     -0.354510
  C      -0.453159     -1.233946      0.247953
  C      -1.334578     -0.019506     -0.094900
  C      -0.555837      1.228965      0.320773
  H       0.952646     -1.114199     -1.440358
  H       1.760958     -1.490261      0.121483
  H      -0.867153     -2.158866     -0.162252
  H      -0.375470     -1.356744      1.334065
  H      -1.548286      0.007354     -1.169270
  H      -2.290726     -0.055207      0.433884
  H      -0.818997      2.149750     -0.206908
  H      -0.561568      1.393670      1.404272
  Li      3.196652      2.237288     -0.269263
16
Coordinates from ORCA-job SL_m1_dication_opt E -712.590851522407
  O       2.124176      1.122520      1.025302
  S       1.178638      0.827309     -0.101065
  O       1.641963      1.519691     -1.348411
  C       0.929019     -0.998866     -0.361881
  C      -0.449236     -1.220738      0.263288
  C      -1.321158     -0.019859     -0.112728
  C      -0.582912      1.242701      0.334890
  H       0.957119     -1.123824     -1.455362
  H       1.766335     -1.526092      0.112607
  H      -0.850815     -2.164831     -0.152894
  H      -0.377192     -1.337426      1.350980
  H      -1.524191      0.002634     -1.189780
  H      -2.294088     -0.037013      0.415265
  H      -0.850805      2.171507     -0.184528
  H      -0.559315      1.393421      1.425211
  Li      3.205975      2.246592     -0.275499
16
Coordinates from ORCA-job SL_m1_dication_opt E -712.596643123658
  O       2.125573      1.115568      1.026490
  S       1.187374      0.834944     -0.103538
  O       1.628377      1.523020     -1.355635
  C       0.926952     -1.043540     -0.368251
  C      -0.449216     -1.204365      0.278116
  C      -1.306058     -0.024311     -0.130087
  C      -0.625126      1.255948      0.351820
  H       0.963389     -1.136176     -1.464554
  H       1.760511     -1.573774      0.109278
  H      -0.824693     -2.163709     -0.151160
  H      -0.384998     -1.326702      1.364591
  H      -1.504894     -0.002644     -1.207118
  H      -2.288797     -0.009460      0.398910
  H      -0.900412      2.186644     -0.159768
  H      -0.552757      1.392654      1.441849
  Li      3.238285      2.273629     -0.285549
16
Coordinates from ORCA-job SL_m1_dication_opt E -712.598846250561
  O       2.133899      1.116661      1.028986
  S       1.204043      0.845935     -0.105492
  O       1.631158      1.529071     -1.360638
  C       0.919390     -1.067718     -0.370567
  C      -0.452508     -1.199333      0.284348
  C      -1.303563     -0.029116     -0.136780
  C      -0.650430      1.256178      0.358625
  H       0.958416     -1.136907     -1.467159
  H       1.750758     -1.598123      0.108347
  H      -0.816529     -2.164950     -0.144226
  H      -0.385671     -1.322550      1.369948
  H      -1.502241     -0.003568     -1.213278
  H      -2.289398     -0.000631      0.388824
  H      -0.928632      2.185797     -0.151231
  H      -0.553774      1.385085      1.446409
  Li      3.278593      2.301895     -0.290721
16
Coordinates from ORCA-job SL_m1_dication_opt E -712.600974078617
  O       2.150052      1.122997      1.034030
  S       1.232729      0.863881     -0.107635
  O       1.646372      1.540233     -1.365745
  C       0.903578     -1.092804     -0.373164
  C      -0.457068     -1.199234      0.289686
  C      -1.307015     -0.034722     -0.141204
  C      -0.679502      1.249645      0.362366
  H       0.940217     -1.129854     -1.469946
  H       1.735831     -1.621525      0.103247
  H      -0.819729     -2.170797     -0.123530
  H      -0.379158     -1.315285      1.375086
  H      -1.504742     -0.004183     -1.217520
  H      -2.297384     -0.004004      0.373718
  H      -0.956526      2.178074     -0.147816
  H      -0.561509      1.368704      1.447618
  Li      3.347368      2.346600     -0.293796
16
Coordinates from ORCA-job SL_m1_dication_opt E -712.602573516551
  O       2.168493      1.133738      1.039463
  S       1.262650      0.882577     -0.109201
  O       1.669096      1.552856     -1.369396
  C       0.884363     -1.112566     -0.375497
  C      -0.460649     -1.204676      0.292492
  C      -1.314925     -0.038143     -0.141812
  C      -0.704758      1.239637      0.362522
  H       0.913833     -1.118616     -1.472268
  H       1.722411     -1.636580      0.093820
  H      -0.837560     -2.178786     -0.094069
  H      -0.370111     -1.306851      1.378706
  H      -1.508448     -0.006602     -1.219139
  H      -2.311380     -0.023057      0.356730
  H      -0.973401      2.168914     -0.148793
  H      -0.571936      1.348752      1.446121
  Li      3.425835      2.397128     -0.294283
16
Coordinates from ORCA-job SL_m1_dication_opt E -712.603499094961
  O       2.184059      1.146497      1.042944
  S       1.284700      0.896769     -0.110034
  O       1.690499      1.562853     -1.371769
  C       0.868361     -1.126431     -0.377173
  C      -0.463428     -1.212960      0.293117
  C      -1.324105     -0.039237     -0.140156
  C      -0.723269      1.231034      0.362147
  H       0.889531     -1.109973     -1.473800
  H       1.715595     -1.642458      0.083476
  H      -0.864328     -2.184834     -0.066695
  H      -0.366999     -1.300690      1.380914
  H      -1.509357     -0.011534     -1.219698
  H      -2.326187     -0.050946      0.341638
  H      -0.977134      2.163789     -0.149491
  H      -0.579869      1.331630      1.444944
  Li      3.495441      2.444218     -0.294968
16
Coordinates from ORCA-job SL_m1_dication_opt E -712.603873018990
  O       2.190821      1.155956      1.043598
  S       1.292382      0.902103     -0.110129
  O       1.701460      1.566054     -1.372853
  C       0.861563     -1.133572     -0.377891
  C      -0.465372     -1.219392      0.292459
  C      -1.330461     -0.039009     -0.138489
  C      -0.732081      1.227710      0.363205
  H       0.878066     -1.109053     -1.474523
  H       1.716450     -1.641229      0.077753
  H      -0.885749     -2.186338     -0.054427
  H      -0.371345     -1.299987      1.381609
  H      -1.507980     -0.015678     -1.219902
  H      -2.334654     -0.072372      0.334880
  H      -0.971858      2.164133     -0.148320
  H      -0.583351      1.324263      1.445755
  Li      3.535624      2.474136     -0.297331
