16
Coordinates from ORCA-job SL_m1_cation_opt E -713.122971697778
  O           2.12599826177279      1.13146719274389      1.02563071193301
  S           1.17992375931754      0.82702514792487     -0.10019422863315
  O           1.65646592151137      1.51885831946596     -1.34501102203637
  C           0.92664156942683     -0.96792306008405     -0.35450992716361
  C          -0.45315865611756     -1.23394618776410      0.24795339324583
  C          -1.33457790281504     -0.01950561570169     -0.09489973647611
  C          -0.55583746800785      1.22896538576718      0.32077262740140
  H           0.95264603766682     -1.11419909605943     -1.44035756031019
  H           1.76095806247691     -1.49026140444433      0.12148299442215
  H          -0.86715314921586     -2.15886643574735     -0.16225218326795
  H          -0.37546979664319     -1.35674394883344      1.33406485999082
  H          -1.54828593913121      0.00735394824311     -1.16927020890127
  H          -2.29072577297500     -0.05520694149305      0.43388424614158
  H          -0.81899746381759      2.14975009232188     -0.20690759780064
  H          -0.56156845283910      1.39367035095933      1.40427222392812
  Li          3.19665212009014      2.23728773400123     -0.26926274477362
