16
SL_m1_reduced_sp_smd
O      2.1259980000     1.1314670000     1.0256310000
S      1.1799240000     0.8270250000    -0.1001940000
O      1.6564660000     1.5188580000    -1.3450110000
C      0.9266420000    -0.9679230000    -0.3545100000
C     -0.4531590000    -1.2339460000     0.2479530000
C     -1.3345780000    -0.0195060000    -0.0949000000
C     -0.5558370000     1.2289650000     0.3207730000
H      0.9526460000    -1.1141990000    -1.4403580000
H      1.7609580000    -1.4902610000     0.1214830000
H     -0.8671530000    -2.1588660000    -0.1622520000
H     -0.3754700000    -1.3567440000     1.3340650000
H     -1.5482860000     0.0073540000    -1.1692700000
H     -2.2907260000    -0.0552070000     0.4338840000
H     -0.8189970000     2.1497500000    -0.2069080000
H     -0.5615680000     1.3936700000     1.4042720000
Li     3.1966520000     2.2372880000    -0.2692630000
