16
Coordinates from ORCA-job SL_m1_cation_opt E -713.114366475635
  O       2.101596      1.116059      0.967559
  S       1.154957      0.809345     -0.098233
  O       1.637841      1.504380     -1.285608
  C       0.944303     -0.969261     -0.369308
  C      -0.423809     -1.210403      0.243001
  C      -1.301720      0.001225     -0.096238
  C      -0.548525      1.246606      0.335644
  H       0.960668     -1.133697     -1.444122
  H       1.751740     -1.507120      0.116944
  H      -0.872117     -2.125094     -0.143823
  H      -0.333921     -1.307871      1.326199
  H      -1.485774      0.032705     -1.171427
  H      -2.263526     -0.072234      0.410522
  H      -0.836477      2.148497     -0.194793
  H      -0.574833      1.404076      1.411304
  Li      3.083109      2.160512     -0.262226
16
Coordinates from ORCA-job SL_m1_cation_opt E -713.119745854830
  O       2.127086      1.129927      0.988199
  S       1.173681      0.822225     -0.099619
  O       1.660489      1.522954     -1.307497
  C       0.938412     -0.962000     -0.363595
  C      -0.441440     -1.225809      0.245695
  C      -1.322830     -0.011305     -0.094639
  C      -0.544874      1.238405      0.327481
  H       0.959687     -1.120856     -1.446808
  H       1.760673     -1.494937      0.119878
  H      -0.876638     -2.147033     -0.149670
  H      -0.356438     -1.334251      1.333254
  H      -1.520821      0.017459     -1.172457
  H      -2.283674     -0.068150      0.422913
  H      -0.823343      2.150096     -0.206551
  H      -0.564621      1.404070      1.409719
  Li      3.108161      2.176931     -0.260907
16
Coordinates from ORCA-job SL_m1_cation_opt E -713.121786719071
  O       2.141210      1.138240      1.010792
  S       1.183268      0.829063     -0.100544
  O       1.671784      1.532330     -1.331406
  C       0.930694     -0.960641     -0.356892
  C      -0.451467     -1.234193      0.248012
  C      -1.334419     -0.018471     -0.094599
  C      -0.547263      1.230603      0.320716
  H       0.955499     -1.112492     -1.443112
  H       1.764093     -1.485096      0.121247
  H      -0.869369     -2.159677     -0.156930
  H      -0.369803     -1.353577      1.335049
  H      -1.543631      0.010252     -1.170584
  H      -2.291785     -0.056265      0.431716
  H      -0.813416      2.149399     -0.211548
  H      -0.558966      1.398591      1.404731
  Li      3.127081      2.189660     -0.261253
16
Coordinates from ORCA-job SL_m1_cation_opt E -713.122131059162
  O       2.140726      1.138779      1.019431
  S       1.183324      0.829228     -0.100616
  O       1.670505      1.530958     -1.340408
  C       0.928520     -0.963244     -0.354516
  C      -0.452206     -1.234086      0.248572
  C      -1.334521     -0.019045     -0.095146
  C      -0.550727      1.229451      0.319303
  H       0.954449     -1.111445     -1.440862
  H       1.764801     -1.484506      0.121024
  H      -0.863817     -2.160356     -0.160939
  H      -0.372864     -1.357010      1.334826
  H      -1.547467      0.008932     -1.169868
  H      -2.290494     -0.050905      0.434059
  H      -0.812487      2.150544     -0.210177
  H      -0.558146      1.396142      1.403198
  Li      3.133917      2.194288     -0.262485
16
Coordinates from ORCA-job SL_m1_cation_opt E -713.122382564226
  O       2.136589      1.137713      1.025943
  S       1.182064      0.828434     -0.100518
  O       1.666176      1.526586     -1.347029
  C       0.927746     -0.966894     -0.353007
  C      -0.451606     -1.232496      0.248757
  C      -1.332707     -0.018603     -0.095737
  C      -0.554556      1.229883      0.319043
  H       0.954564     -1.111385     -1.439268
  H       1.765414     -1.486248      0.120520
  H      -0.859885     -2.158688     -0.164415
  H      -0.375048     -1.357583      1.334471
  H      -1.548426      0.007877     -1.169500
  H      -2.287932     -0.048177      0.435140
  H      -0.813681      2.152625     -0.207299
  H      -0.557787      1.394567      1.402720
  Li      3.142585      2.200114     -0.264427
16
Coordinates from ORCA-job SL_m1_cation_opt E -713.122618037153
  O       2.130497      1.135812      1.030094
  S       1.180907      0.827646     -0.100362
  O       1.660672      1.520740     -1.350936
  C       0.927951     -0.970205     -0.352373
  C      -0.450891     -1.230933      0.248596
  C      -1.330873     -0.017968     -0.096059
  C      -0.557627      1.230979      0.319463
  H       0.955369     -1.111539     -1.438572
  H       1.765722     -1.489000      0.120219
  H      -0.859089     -2.156371     -0.166593
  H      -0.376657     -1.356976      1.334092
  H      -1.548500      0.006978     -1.169262
  H      -2.285949     -0.048749      0.435309
  H      -0.815916      2.154611     -0.204461
  H      -0.557640      1.393855      1.402992
  Li      3.155536      2.208843     -0.266752
16
Coordinates from ORCA-job SL_m1_cation_opt E -713.122829950244
  O       2.124226      1.133699      1.031313
  S       1.180600      0.827391     -0.100214
  O       1.655674      1.515133     -1.351561
  C       0.928524     -0.971889     -0.352625
  C      -0.450833     -1.230581      0.248097
  C      -1.330431     -0.017685     -0.095898
  C      -0.558958      1.231756      0.320211
  H       0.956063     -1.111772     -1.438841
  H       1.765143     -1.491546      0.120611
  H      -0.861985     -2.154894     -0.166845
  H      -0.377356     -1.356418      1.333705
  H      -1.548748      0.006660     -1.169047
  H      -2.285822     -0.052364      0.434877
  H      -0.818315      2.155248     -0.203052
  H      -0.557983      1.393761      1.403738
  Li      3.173712      2.221228     -0.269074
16
Coordinates from ORCA-job SL_m1_cation_opt E -713.122927538713
  O       2.122091      1.132614      1.029599
  S       1.181073      0.827701     -0.100164
  O       1.654243      1.513730     -1.349305
  C       0.928461     -0.970851     -0.353393
  C      -0.451654     -1.231869      0.247664
  C      -1.331907     -0.018113     -0.095404
  C      -0.557932      1.231181      0.320687
  H       0.955528     -1.112164     -1.439616
  H       1.763583     -1.491994      0.121513
  H      -0.865925     -2.155661     -0.165208
  H      -0.376768     -1.356651      1.333552
  H      -1.549134      0.007178     -1.168985
  H      -2.287725     -0.055736      0.434310
  H      -0.819277      2.153642     -0.204074
  H      -0.558934      1.393792      1.404312
  Li      3.187788      2.230927     -0.270093
16
Coordinates from ORCA-job SL_m1_cation_opt E -713.122957352208
  O       2.123145      1.132303      1.027596
  S       1.181218      0.827841     -0.100158
  O       1.654987      1.515284     -1.347085
  C       0.927816     -0.969131     -0.353988
  C      -0.452482     -1.233217      0.247548
  C      -1.333495     -0.018715     -0.095042
  C      -0.556514      1.230060      0.320836
  H       0.954342     -1.112769     -1.440108
  H       1.762072     -1.491233      0.122082
  H      -0.867809     -2.157211     -0.163579
  H      -0.375920     -1.357011      1.333611
  H      -1.549059      0.007741     -1.169068
  H      -2.289561     -0.056694      0.433969
  H      -0.819206      2.151547     -0.205621
  H      -0.559997      1.393657      1.404479
  Li      3.193974      2.235275     -0.270076
16
Coordinates from ORCA-job SL_m1_cation_opt E -713.122967879125
  O       2.124818      1.132051      1.026247
  S       1.180827      0.827627     -0.100168
  O       1.655969      1.517325     -1.345671
  C       0.927123     -0.967994     -0.354354
  C      -0.452986     -1.233960      0.247657
  C      -1.334431     -0.019191     -0.094885
  C      -0.555698      1.229202      0.320858
  H       0.953277     -1.113458     -1.440333
  H       1.761120     -1.490485      0.122107
  H      -0.868035     -2.158412     -0.162559
  H      -0.375406     -1.357058      1.333788
  H      -1.548651      0.007880     -1.169196
  H      -2.290600     -0.056258      0.433823
  H      -0.818989      2.150103     -0.206655
  H      -0.560890      1.393549      1.404457
  Li      3.196063      2.236802     -0.269721
16
Coordinates from ORCA-job SL_m1_cation_opt E -713.122971023400
  O       2.125802      1.131687      1.025696
  S       1.180246      0.827256     -0.100184
  O       1.656437      1.518576     -1.345074
  C       0.926723     -0.967727     -0.354519
  C      -0.453145     -1.234078      0.247843
  C      -1.334664     -0.019438     -0.094869
  C      -0.555614      1.228906      0.320820
  H       0.952720     -1.113979     -1.440390
  H       1.760843     -1.490206      0.121752
  H      -0.867531     -2.158888     -0.162193
  H      -0.375311     -1.356859      1.333978
  H      -1.548318      0.007630     -1.169271
  H      -2.290840     -0.055541      0.433827
  H      -0.818943      2.149622     -0.206988
  H      -0.561424      1.393597      1.404346
  Li      3.196531      2.237168     -0.269380
16
Coordinates from ORCA-job SL_m1_cation_opt E -713.122971697778
  O       2.125998      1.131467      1.025631
  S       1.179924      0.827025     -0.100194
  O       1.656466      1.518858     -1.345011
  C       0.926642     -0.967923     -0.354510
  C      -0.453159     -1.233946      0.247953
  C      -1.334578     -0.019506     -0.094900
  C      -0.555837      1.228965      0.320773
  H       0.952646     -1.114199     -1.440358
  H       1.760958     -1.490261      0.121483
  H      -0.867153     -2.158866     -0.162252
  H      -0.375470     -1.356744      1.334065
  H      -1.548286      0.007354     -1.169270
  H      -2.290726     -0.055207      0.433884
  H      -0.818997      2.149750     -0.206908
  H      -0.561568      1.393670      1.404272
  Li      3.196652      2.237288     -0.269263
