13
AN_m1 [Li(M)2]+ GFN2-xTB pre-opt from outputs/week5/c1/AN/AN_m1_G2Li.xyz
C     -0.4717302060    -0.0228423270    -0.0263999358
C      0.9446395474     0.0147234396     0.0028739622
N      2.0901977777     0.0449956067     0.0268392354
H     -0.8074126161    -0.6473828724    -0.8546781289
H     -0.8480958764    -0.4359804429     0.9097678776
H     -0.8638679132     0.9861665306    -0.1562585893
Li     3.9963948298     0.0875759978     0.0414562893
C      6.6779862417     2.2133314546     2.9161405700
C      5.8259692214     1.5407362709     2.0051240111
N      5.1361391831     0.9969437951     1.2686821932
H      6.5069878005     1.8376915203     3.9252628252
H      7.7194621075     2.0434906224     2.6419474859
H      6.4707275077     3.2834314638     2.8920348358
