25
DMC_m2 [Li(M)2]+ GFN2-xTB pre-opt from outputs/week5/c1/DMC/DMC_m2_G2Li.xyz
C     -2.6159298496     0.1301036450    -0.1414956550
O     -1.3810791195    -0.1716046888     0.5275151642
C     -0.2850595254     0.3060230575    -0.0919558858
O     -0.2564982205     0.9222483050    -1.1005743767
O      0.7722455876    -0.0515878613     0.6613440903
C      2.0400491769     0.3756977476     0.1386973099
H     -3.4104943008    -0.2791022713     0.4752900440
H     -2.6260745895    -0.3274192158    -1.1318796981
H     -2.7290749049     1.2101694737    -0.2464614452
H      2.0575293115     1.4622884204     0.0428473962
H      2.2092719834    -0.0713936334    -0.8420634934
H      2.7947134423     0.0428153239     0.8448590725
Li    -0.3429272317    -0.9196952464     1.9339370528
C      0.5482279111    -3.9129415972     2.8532573238
O      0.0530267094    -2.5651527348     2.8067348386
C     -0.3892679796    -2.0972310979     3.9889272157
O     -0.4100148986    -2.6811737570     5.0167296285
O     -0.8018316042    -0.8331538592     3.7748738851
C     -1.3206458068    -0.1757258136     4.9420933851
H      0.8702775763    -4.1595516374     1.8459760365
H     -0.2424209760    -4.5905200284     3.1791509192
H      1.3848281655    -3.9792892450     3.5504637412
H     -0.5523377937    -0.1252428095     5.7150435474
H     -2.1801963250    -0.7253448390     5.3285540940
H     -1.6141944943     0.8222225023     4.6305350718
