21
DMSO_m1 [Li(M)2]+ GFN2-xTB pre-opt from outputs/week5/c1/DMSO/DMSO_m1_G2Li.xyz
C     -1.3103074347     0.5331912816    -0.1480409517
S     -0.3917181162    -0.8237754306     0.6543708561
C      1.2735186142    -0.2408078719     0.1926163260
O     -0.4910557186    -0.5112283522     2.1195482360
H     -0.9589686834     1.4890945307     0.2275243052
H     -1.1670989325     0.4660232006    -1.2207297911
H     -2.3640254942     0.4102134024     0.0833372824
H      2.0021412192    -0.8985899518     0.6572331504
H      1.3762462958    -0.2930355422    -0.8856394910
H      1.4179479959     0.7764474716     0.5434808846
Li    -0.4720487065    -0.1795032328     3.7599848560
C     -1.6604507616     1.7768305016     7.1046651061
S     -0.5067953642     0.3809403138     6.8833342925
C     -1.6387591721    -0.9147467439     7.4882601477
O     -0.4763383259     0.1686261635     5.3971217781
H     -2.5821741139     1.5827445522     6.5652461007
H     -1.8547499804     1.9048920834     8.1636388598
H     -1.1860542509     2.6721187570     6.7143890356
H     -1.1505133899    -1.8765145345     7.3598644406
H     -1.8327203339    -0.7469187919     8.5420339320
H     -2.5626334180    -0.8914340358     6.9182556103
