31
EC_m1 [Li(M)3]+ GFN2-xTB opt (week 23 / R5 n=3 sign test)
C     -0.1318644202    -0.8132016017     0.4012013455
C      0.3566075911     0.1044268432    -0.7365799288
O      1.5985868308     0.6005181890    -0.2487952918
C      1.8514542492     0.0946691281     0.9418253369
O      2.8419149187     0.3526987973     1.5736691605
O      0.9018396972    -0.7106452802     1.3741013489
H     -0.2230815530    -1.8598734436     0.1016415100
H     -1.0692791188    -0.4796513370     0.8527623452
H      0.5399827545    -0.4290463889    -1.6721215340
H     -0.3079017991     0.9515001505    -0.9229355253
Li     4.5540705943    -0.0990067203     1.6060373341
C      7.9816899485    -2.8258029085     1.2219308326
C      7.8243472726    -3.0997016447    -0.2863246525
O      6.5504141606    -2.5452594173    -0.5914818732
C      6.0119292381    -2.0274521539     0.4904489932
O      4.9352295166    -1.4945169342     0.5134591339
O      6.7686982514    -2.1633652652     1.5644560489
H      8.8183237854    -2.1622783292     1.4523439029
H      8.0619896893    -3.7377082227     1.8184660330
H      8.5764815608    -2.5956599776    -0.8978766094
H      7.8073408988    -4.1642000526    -0.5329050296
C      5.6799909975     2.7467886621     5.0819832039
C      6.8643083318     3.3994421481     4.3424425234
O      6.9655235338     2.6373012874     3.1443786273
C      6.0426921601     1.6978041098     3.1265034069
O      5.9088391409     0.9111666162     2.2268695060
O      5.2820965813     1.6980239441     4.2044771817
H      4.8343247191     3.4241292588     5.2213383498
H      5.9601260674     2.3100368517     6.0433919478
H      6.6851740347     4.4433831646     4.0749297823
H      7.8095047494     3.3191903864     4.8847026786
