25
GBL_m1 [Li(M)2]+ GFN2-xTB pre-opt from outputs/week5/c1/GBL/GBL_m1_G2Li.xyz
O      1.7175370992     1.6188967700     0.0941455306
C      0.7313535075     0.9245933127    -0.0831985145
C      0.6526778329    -0.5756271562     0.0003912259
C     -0.7024956443    -0.8787293987    -0.6392863495
C     -1.4463023572     0.4553838950    -0.4983428601
O     -0.4277429667     1.4563339241    -0.3671082367
H      1.4987103317    -1.0456300907    -0.4963812386
H      0.6864391327    -0.8594535726     1.0550738852
H     -0.5784985863    -1.1364379278    -1.6907405257
H     -1.2326479459    -1.6887255617    -0.1461909923
H     -2.0559731523     0.7130393252    -1.3644592481
H     -2.0672706050     0.4950098381     0.4017057898
Li     2.4645379821     3.1710909322     0.0063917267
O      3.4546211795     4.5515748265    -0.6573750847
C      3.8154169072     5.0744385456     0.3706130644
C      4.7228092137     6.2525214962     0.5629906491
C      5.0662519131     6.1773073808     2.0507921364
C      3.8889382453     5.3823090247     2.6263510290
O      3.3829403979     4.6013489762     1.5307419643
H      5.5826565015     6.2021745714    -0.1015519733
H      4.1621940721     7.1561720615     0.3108863192
H      6.0011647676     5.6360055572     2.1969775807
H      5.1580316366     7.1555144948     2.5141165616
H      4.1713505131     4.6988756363     3.4268779369
H      3.0814278244     6.0345536889     2.9742577586
