31
SL_m1 [Li(M)2]+ GFN2-xTB pre-opt from outputs/week5/c1/SL/SL_m1_G2Li.xyz
O      2.0208865304     0.9558217709     1.4864641093
S      1.1826963747     0.7589887033     0.3273214062
O      1.7143810491     1.4674632065    -0.8309830825
C      0.9705643702    -0.9974784676    -0.0934433694
C     -0.4966956852    -1.2385210907     0.2120877907
C     -1.2554120440     0.0522154483    -0.1217702812
C     -0.5541401735     1.1828473212     0.6038236268
H      1.2004537621    -1.0958154917    -1.1501370353
H      1.6520901840    -1.5942626991     0.5021804388
H     -0.8881744940    -2.0733484386    -0.3684542850
H     -0.6248100429    -1.4724838047     1.2701943161
H     -1.2204368543     0.2305680440    -1.1974818133
H     -2.2993737149    -0.0290813110     0.1792540130
H     -0.7405620081     2.1719745206     0.2041389839
H     -0.7260084557     1.1695375545     1.6759212528
Li     2.7320166173     2.5942252330     0.0139270681
O      3.5054126805     3.6659746299     1.1309943724
S      2.3893248780     3.8792758358     2.0454007077
O      1.1297428170     3.5606910543     1.4168924822
C      2.6578419290     3.0094435161     3.6094299965
C      3.2450483748     4.1103419968     4.4696958904
C      2.4501002343     5.3883832833     4.1749389834
C      2.4490622678     5.5869055661     2.6701952501
H      1.6892588261     2.6672459769     3.9605672448
H      3.3139119965     2.1662625606     3.4319410870
H      3.1898625016     3.8609430972     5.5287984155
H      4.2929484712     4.2613459643     4.2064388226
H      1.4270187082     5.2730193781     4.5366722669
H      2.8953200259     6.2422937459     4.6847586855
H      1.5945069431     6.1388279198     2.2949556341
H      3.3750244842     6.0207327335     2.3040572279
