21
SN_m1 [Li(M)2]+ GFN2-xTB pre-opt from outputs/week5/c1/SN/SN_m1_G2Li.xyz
N     -0.6659551279     1.4387409275    -1.3400615625
C     -0.7389356627     0.4640411052    -0.7477912110
C     -0.6596684751    -0.7377947436     0.0336588495
C      0.5635257204    -0.6201399654     0.9875246424
C      1.4900515367     0.3213091124     0.4244715389
N      2.1194572187     1.1250930437    -0.0893767923
H     -1.5783488252    -0.8856921775     0.6055059775
H     -0.5372446627    -1.5828021066    -0.6501157001
H      0.2537334129    -0.2446392480     1.9669787703
H      1.0386751672    -1.5940615251     1.1240402000
Li     1.1130830688     2.5159256026    -1.3063446937
N      0.9954624582     4.2400286319    -0.0634282368
C      1.5409053602     5.1831648006    -0.4092088433
C      2.2750567134     6.2762989173    -0.9823972190
C      2.3555227064     6.0618491647    -2.5208334587
C      2.2072281410     4.6585999927    -2.7860728919
N      2.0234004756     3.5336024317    -2.8682964534
H      1.7914186158     7.2282830758    -0.7527532990
H      3.2757989579     6.2798882465    -0.5407415043
H      1.5444107276     6.5923551447    -3.0280890694
H      3.3071909344     6.4305088678    -2.9098794720
