12
Coordinates from ORCA-job GBL_cation_opt E -306.071999732081
  O       2.347227      1.156394      0.312795
  C       1.241930      0.718910      0.153556
  C       0.676235     -0.619149      0.603688
  C      -0.592307     -0.772620     -0.231975
  C      -0.982351      0.688198     -0.476122
  O       0.265760      1.421172     -0.496529
  H       1.421256     -1.405808      0.471935
  H       0.458910     -0.540799      1.676833
  H      -0.363499     -1.264472     -1.183235
  H      -1.387313     -1.335029      0.264038
  H      -1.483438      0.863209     -1.431065
  H      -1.602412      1.089992      0.336081
12
Coordinates from ORCA-job GBL_cation_opt E -306.077416802046
  O       2.330090      1.144345      0.310471
  C       1.212626      0.711679      0.130724
  C       0.673482     -0.629948      0.614679
  C      -0.588383     -0.769503     -0.247326
  C      -0.990194      0.687113     -0.468890
  O       0.271305      1.412760     -0.509874
  H       1.424914     -1.416467      0.496740
  H       0.462457     -0.519261      1.689477
  H      -0.348057     -1.254946     -1.198214
  H      -1.368864     -1.348098      0.255501
  H      -1.489916      0.883587     -1.424321
  H      -1.589462      1.098737      0.351033
12
Coordinates from ORCA-job GBL_cation_opt E -306.081135360267
  O       2.317481      1.092402      0.291430
  C       1.145484      0.723042      0.118384
  C       0.670756     -0.640847      0.632823
  C      -0.584174     -0.757530     -0.268718
  C      -1.011568      0.681625     -0.467702
  O       0.289107      1.409335     -0.506312
  H       1.429056     -1.421975      0.519164
  H       0.478393     -0.495014      1.707711
  H      -0.326705     -1.236788     -1.215959
  H      -1.331651     -1.367570      0.256463
  H      -1.490713      0.903738     -1.424193
  H      -1.585468      1.109580      0.356908
12
Coordinates from ORCA-job GBL_cation_opt E -306.082041976511
  O       2.333276      1.089766      0.303586
  C       1.170071      0.716279      0.108043
  C       0.674860     -0.635184      0.627170
  C      -0.584334     -0.759523     -0.265165
  C      -1.016495      0.680914     -0.469560
  O       0.280555      1.422483     -0.493731
  H       1.423497     -1.424194      0.518299
  H       0.476722     -0.485526      1.699139
  H      -0.330203     -1.239882     -1.213446
  H      -1.334308     -1.365922      0.257701
  H      -1.494699      0.899200     -1.426485
  H      -1.598944      1.101587      0.354449
12
Coordinates from ORCA-job GBL_cation_opt E -306.082250353079
  O       2.342130      1.074485      0.294793
  C       1.168533      0.725653      0.119516
  C       0.676862     -0.631751      0.626232
  C      -0.583735     -0.759611     -0.263081
  C      -1.020842      0.679147     -0.471843
  O       0.277498      1.431119     -0.483736
  H       1.424768     -1.420093      0.512127
  H       0.474897     -0.488878      1.697993
  H      -0.330668     -1.242095     -1.210761
  H      -1.332082     -1.365389      0.262225
  H      -1.490777      0.896044     -1.432596
  H      -1.606587      1.101367      0.349130
12
Coordinates from ORCA-job GBL_cation_opt E -306.082380544357
  O       2.347565      1.055990      0.295189
  C       1.168030      0.730841      0.113624
  C       0.679562     -0.627396      0.622922
  C      -0.581816     -0.759876     -0.262774
  C      -1.027246      0.675515     -0.472493
  O       0.275106      1.443168     -0.466141
  H       1.421193     -1.420863      0.509883
  H       0.474068     -0.478481      1.692837
  H      -0.331539     -1.243780     -1.210379
  H      -1.325269     -1.367545      0.267879
  H      -1.484612      0.894620     -1.437066
  H      -1.615044      1.097805      0.346519
12
Coordinates from ORCA-job GBL_cation_opt E -306.082394635959
  O       2.346104      1.057424      0.296252
  C       1.168229      0.732230      0.114296
  C       0.679849     -0.627774      0.622360
  C      -0.581134     -0.760233     -0.262310
  C      -1.026646      0.675587     -0.471861
  O       0.274920      1.442577     -0.468084
  H       1.421518     -1.421441      0.509304
  H       0.473542     -0.479500      1.692424
  H      -0.333228     -1.244426     -1.210342
  H      -1.325659     -1.367027      0.268077
  H      -1.483537      0.894171     -1.437173
  H      -1.613961      1.098410      0.347058
12
Coordinates from ORCA-job GBL_cation_opt E -306.082402442254
  O       2.345040      1.057559      0.296864
  C       1.168703      0.733543      0.113574
  C       0.679994     -0.628394      0.622289
  C      -0.579859     -0.760348     -0.262399
  C      -1.026518      0.675646     -0.470938
  O       0.274361      1.442062     -0.469561
  H       1.421454     -1.422483      0.510481
  H       0.472907     -0.478644      1.692110
  H      -0.334615     -1.244328     -1.211197
  H      -1.325328     -1.366975      0.267283
  H      -1.482831      0.894031     -1.436778
  H      -1.613311      1.098329      0.348269
12
Coordinates from ORCA-job GBL_cation_opt E -306.082404351712
  O       2.345415      1.056511      0.295949
  C       1.169011      0.733868      0.112983
  C       0.679644     -0.628641      0.622701
  C      -0.579331     -0.760242     -0.262794
  C      -1.026586      0.675700     -0.470575
  O       0.273999      1.442113     -0.469455
  H       1.421199     -1.422722      0.511898
  H       0.472422     -0.477291      1.692240
  H      -0.334303     -1.243781     -1.211865
  H      -1.324912     -1.367434      0.266239
  H      -1.483130      0.894203     -1.436258
  H      -1.613431      1.097714      0.348936
12
Coordinates from ORCA-job GBL_cation_opt E -306.082405750314
  O       2.345938      1.055355      0.295438
  C       1.169449      0.734137      0.112261
  C       0.678976     -0.629023      0.623116
  C      -0.578984     -0.760124     -0.263358
  C      -1.026493      0.675815     -0.470317
  O       0.273785      1.442016     -0.469677
  H       1.420894     -1.422834      0.513467
  H       0.471977     -0.475431      1.692326
  H      -0.333673     -1.243169     -1.212639
  H      -1.324514     -1.368175      0.264995
  H      -1.484175      0.894398     -1.435391
  H      -1.613183      1.097033      0.349779
