12
Coordinates from ORCA-job GBL_cation_opt E -306.082405750314
  O           2.34593809288444      1.05535539277876      0.29543785618774
  C           1.16944866572945      0.73413744974230      0.11226112983961
  C           0.67897603002172     -0.62902341469770      0.62311602349439
  C          -0.57898367666196     -0.76012428903017     -0.26335790727355
  C          -1.02649297871451      0.67581510683918     -0.47031733061603
  O           0.27378505281987      1.44201639459955     -0.46967650843071
  H           1.42089443738821     -1.42283425796574      0.51346749567527
  H           0.47197651669755     -0.47543148682326      1.69232575080284
  H          -0.33367281229882     -1.24316861272230     -1.21263944811623
  H          -1.32451379542177     -1.36817544349708      0.26499508707653
  H          -1.48417492900329      0.89439806635243     -1.43539140621068
  H          -1.61318260344090      1.09703309442402      0.34977925757083
