13
Coordinates from ORCA-job PC_anion_cpcm_80_default E -381.726667639540
  C           1.63463451988606     -0.33954332630201      0.18522020716089
  C           0.12979529940328     -0.43022892859252      0.34961457869717
  C          -0.56313959867091      0.93688333985763      0.45604521650704
  O          -1.82867702131440      0.73614578138744     -0.15869779543895
  C          -1.56421686469593     -0.14676540389501     -1.29541823627168
  O          -2.56201659084777     -0.70152459322841     -1.82975679190864
  O          -0.49187173314005     -1.03726574136099     -0.79223735601905
  H           2.08142391281015      0.14716914299833      1.06080584543559
  H           1.88579564189823      0.24808107144776     -0.70473452717357
  H           2.07901974425041     -1.33496855945788      0.08580332149263
  H          -0.11026478208454     -1.03992483809728      1.23631267168062
  H           0.01944815205752      1.70273071802755     -0.08439986555839
  H          -0.70993066955203      1.25921134721539      1.49144272139633
