13
 energy: -23.972720394819 gnorm: 0.000567051480 xtb: 6.7.1pre (5071a88)
C            1.65120919852598       -0.32202174283508        0.17288708242927
C            0.12691505444290       -0.43752104868955        0.23365422294278
C           -0.57577655433084        0.94650582836936        0.36897921595065
O           -1.33449252772470        1.09047786700556       -0.78382790693431
C           -1.62056671075301       -0.26485978243478       -1.28377363825174
O           -2.73099405164692       -0.80750504822146       -1.01902253034070
O           -0.37313504243474       -0.97170471566508       -0.95165384076743
H            2.03816785737865        0.08981666318791        1.10472880343670
H            1.93299530708604        0.32491432091525       -0.65479066296274
H            2.08559006772869       -1.30614140347353        0.00772816863418
H           -0.14899948401302       -1.07719936480088        1.09612332645123
H            0.15472360173964        1.76788508271444        0.43157083065985
H           -1.20563670599862        0.96735335392777        1.27739691875217
