10
Coordinates from ORCA-job SN_cation_opt E -263.807582601723
  N      -2.082492      1.083499     -1.346786
  C      -1.463598      0.343389     -0.712875
  C      -0.680383     -0.566553      0.108792
  C       0.615434      0.086449      0.640203
  C       1.562063      0.385487     -0.423267
  N       2.309866      0.598710     -1.276469
  H      -1.293747     -0.883164      0.959548
  H      -0.440463     -1.460114     -0.477344
  H       0.379832      1.010517      1.178812
  H       1.093487     -0.598220      1.349386
10
Coordinates from ORCA-job SN_cation_opt E -263.811940720081
  N      -2.117659      1.076776     -1.353553
  C      -1.480496      0.328384     -0.709537
  C      -0.697224     -0.566146      0.101154
  C       0.633078      0.091854      0.638815
  C       1.577202      0.387453     -0.406217
  N       2.344897      0.604843     -1.268887
  H      -1.300160     -0.869950      0.966831
  H      -0.453616     -1.461544     -0.487441
  H       0.393976      1.019218      1.177616
  H       1.100001     -0.610888      1.341220
10
Coordinates from ORCA-job SN_cation_opt E -263.812968143297
  N      -2.138222      1.071510     -1.345369
  C      -1.490750      0.320998     -0.704498
  C      -0.707168     -0.566291      0.090941
  C       0.644151      0.100336      0.635844
  C       1.586234      0.385263     -0.396254
  N       2.363931      0.598097     -1.258298
  H      -1.291223     -0.860672      0.973573
  H      -0.450431     -1.457201     -0.499049
  H       0.392452      1.027994      1.168532
  H       1.091024     -0.620034      1.334578
10
Coordinates from ORCA-job SN_cation_opt E -263.813503633811
  N      -2.154164      1.071204     -1.331248
  C      -1.499375      0.318699     -0.699586
  C      -0.714641     -0.569590      0.079091
  C       0.652703      0.111780      0.634638
  C       1.594097      0.381219     -0.391185
  N       2.378163      0.584354     -1.250261
  H      -1.273929     -0.856851      0.979968
  H      -0.438800     -1.453020     -0.511303
  H       0.382536      1.038045      1.158172
  H       1.073410     -0.625839      1.331714
10
Coordinates from ORCA-job SN_cation_opt E -263.813743364952
  N      -2.157905      1.076241     -1.319577
  C      -1.502007      0.320802     -0.696869
  C      -0.718267     -0.575690      0.070695
  C       0.656792      0.121613      0.636994
  C       1.596559      0.377744     -0.391707
  N       2.380973      0.571471     -1.249496
  H      -1.259229     -0.860118      0.982937
  H      -0.426418     -1.452210     -0.519503
  H       0.371237      1.046014      1.152457
  H       1.058262     -0.625867      1.334069
10
Coordinates from ORCA-job SN_cation_opt E -263.813809608366
  N      -2.152796      1.082563     -1.313499
  C      -1.499358      0.323804     -0.695644
  C      -0.718313     -0.581140      0.067387
  C       0.656770      0.126908      0.640554
  C       1.593966      0.375594     -0.394284
  N       2.375724      0.563710     -1.253272
  H      -1.253973     -0.867811      0.981497
  H      -0.419530     -1.453661     -0.523647
  H       0.364853      1.050964      1.151212
  H       1.052657     -0.620931      1.339696
10
Coordinates from ORCA-job SN_cation_opt E -263.813828094572
  N      -2.149207      1.087224     -1.308576
  C      -1.496794      0.325698     -0.693930
  C      -0.716928     -0.584432      0.065696
  C       0.655306      0.129948      0.642656
  C       1.591307      0.373454     -0.395677
  N       2.372018      0.557602     -1.255839
  H      -1.252618     -0.875927      0.978175
  H      -0.416106     -1.454296     -0.527630
  H       0.361927      1.055158      1.149701
  H       1.051094     -0.614428      1.345424
10
Coordinates from ORCA-job SN_cation_opt E -263.813838478711
  N      -2.149254      1.091625     -1.300845
  C      -1.495783      0.327183     -0.690791
  C      -0.714803     -0.587080      0.063232
  C       0.653239      0.133463      0.643708
  C       1.589961      0.370077     -0.395969
  N       2.371630      0.548849     -1.256515
  H      -1.250652     -0.885908      0.973408
  H      -0.412623     -1.453508     -0.534152
  H       0.359322      1.061039      1.145771
  H       1.048963     -0.605740      1.352155
10
Coordinates from ORCA-job SN_cation_opt E -263.813842594023
  N      -2.153077      1.093599     -1.293965
  C      -1.497047      0.327715     -0.687929
  C      -0.713153     -0.588011      0.060933
  C       0.651757      0.136056      0.643307
  C       1.590832      0.367171     -0.395235
  N       2.374907      0.541618     -1.254861
  H      -1.248189     -0.892555      0.969889
  H      -0.410566     -1.451821     -0.539934
  H       0.358073      1.065751      1.141463
  H       1.046462     -0.599524      1.356332
10
Coordinates from ORCA-job SN_cation_opt E -263.813843866877
  N      -2.157250      1.094095     -1.289348
  C      -1.498933      0.327762     -0.686047
  C      -0.712184     -0.588042      0.059350
  C       0.650935      0.137569      0.642481
  C       1.592403      0.365304     -0.394373
  N       2.378670      0.537018     -1.252759
  H      -1.245996     -0.895941      0.968022
  H      -0.409531     -1.450248     -0.543780
  H       0.357594      1.068684      1.138181
  H       1.044292     -0.596201      1.358272
10
Coordinates from ORCA-job SN_cation_opt E -263.813844078041
  N      -2.158478      1.093890     -1.288605
  C      -1.499659      0.327642     -0.685761
  C      -0.712052     -0.587807      0.059137
  C       0.650819      0.137674      0.642133
  C       1.593039      0.365039     -0.394103
  N       2.379856      0.536386     -1.252047
  H      -1.245412     -0.896123      0.967937
  H      -0.409484     -1.449777     -0.544391
  H       0.357638      1.069071      1.137422
  H       1.043732     -0.595994      1.358278
