10
Coordinates from ORCA-job SN_cation_opt E -263.813844078041
  N          -2.15847776956731      1.09389046001001     -1.28860459744131
  C          -1.49965915032219      0.32764151634742     -0.68576124825759
  C          -0.71205193386543     -0.58780698056573      0.05913692280132
  C           0.65081928566123      0.13767386349239      0.64213260691793
  C           1.59303914732646      0.36503885098406     -0.39410289190458
  N           2.37985584074688      0.53638580176753     -1.25204731446351
  H          -1.24541188251708     -0.89612310160470      0.96793702571115
  H          -0.40948400754621     -1.44977667417650     -0.54439113634256
  H           0.35763787622097      1.06907076225332      1.13742233625026
  H           1.04373159386268     -0.59599449850779      1.35827829672888
