15
 energy: -24.979303785206 gnorm: 0.000836015021 xtb: 6.7.1pre (5071a88)
C           -1.56148110947448        0.74732204351378        0.79160956029194
C           -1.53184592916087       -0.70774869873050        0.32400927127714
O           -0.37090520258067       -1.39826189489695        0.75435593925148
C            0.74635577934544       -1.30262741084315       -0.11521021454886
O            0.60183910715969       -1.45617316370358       -1.36796251057996
O            1.54183173659711       -0.11993974303327        0.35961735776712
C            2.17522432542012        0.58967217997012       -0.64561635611911
H           -0.65386924634356        1.24195639527750        0.45801366706140
H           -2.43050950558998        1.26668503154410        0.38270523426587
H           -1.59513615233267        0.79127594689401        1.87896576565088
H           -2.39980948665397       -1.25244344433276        0.72623429416761
H           -1.56562321672340       -0.74983537681430       -0.77497053176417
H            3.27137464801860        0.51215296622512       -0.55116858844277
H            1.87269922676822        0.18052801247586       -1.62050038766333
H            1.89985500555059        1.65743713645367       -0.60008250061435
