13
 energy: -23.972713174923 gnorm: 0.000685926633 xtb: 6.7.1pre (5071a88)
C            1.65086228889770       -0.32518217969907        0.18192371131770
C            0.12605362080160       -0.43237968874547        0.22045999811061
C           -0.57255209223686        0.95202552681534        0.36611356613115
O           -1.36902570570039        1.08871209444429       -0.76241268672657
C           -1.63004260603873       -0.26619003303821       -1.28005297197145
O           -2.72429766031340       -0.83800096244556       -1.00903472070698
O           -0.36198539820522       -0.94695499623720       -0.97922856305543
H            2.02690555918256        0.07555417996875        1.12307348037660
H            1.94843185685523        0.32822819701165       -0.63517870242073
H            2.08196486555791       -1.31012933408748        0.01358378706365
H           -0.16628571508728       -1.08256083401420        1.06938462562180
H            0.16041674030524        1.77327231150903        0.39642549806595
H           -1.17044574401844        0.98360572851813        1.29494296819369
