15
Coordinates from ORCA-job EMC_anion_cpcm_200_default E -382.909291310347
  C          -2.40026874498989      0.49596705071054      0.60048466168396
  C          -1.51416494103142     -0.73919034530927      0.66329062319660
  O          -0.14290764032070     -0.41105161299811      0.89563682023082
  C           0.67125213231176     -0.39320344899575     -0.30785923754170
  O           0.21772566652397      0.15559513937578     -1.36095299658760
  O           1.92513689840259      0.09131282408652      0.24762844400955
  C           2.93064693605022      0.24249019008182     -0.74418260485558
  H          -2.11899496429833      1.12956491690646     -0.24542819314240
  H          -3.45142432626235      0.20318013944799      0.48586130309849
  H          -2.30922222004832      1.08264332572699      1.52125401924307
  H          -1.83045491225580     -1.37980823114195      1.49821703811959
  H          -1.60623621609987     -1.32460313321014     -0.26231278414624
  H           3.10482003188131     -0.70124034716853     -1.28577153099669
  H           2.67300709020008      1.01752112458969     -1.47836290715956
  H           3.85108518993676      0.53082238789793     -0.22750265515232
