15
 energy: -24.979297633722 gnorm: 0.000813566663 xtb: 6.7.1pre (5071a88)
C           -1.55476604420736        0.74512154098995        0.79104890713234
C           -1.53472834817086       -0.71130268472264        0.32750407622830
O           -0.37157974567026       -1.40393858055792        0.74767575610241
C            0.74113675135757       -1.30188821983341       -0.12665063186539
O            0.58889464121390       -1.43912834888165       -1.38046532855285
O            1.54476569232543       -0.12789168543456        0.35828359684375
C            2.17486955569291        0.59119675510227       -0.64212868822707
H           -0.64590463003662        1.23280437313331        0.45058910526334
H           -2.42244847352346        1.26843650008015        0.38525026088592
H           -1.58139368672998        0.79279336901479        1.87859746863320
H           -2.39962115820591       -1.25307611765783        0.73964894145465
H           -1.57927245210363       -0.75552577162747       -0.77107280896387
H            3.27128973874433        0.51015817311856       -0.55428296424885
H            1.86626276446434        0.19328495221022       -1.61989538580489
H            1.90249537485010        1.65895572506517       -0.58410230487972
