17
Coordinates from ORCA-job TMP_cation_cpcm_1000_default E -761.709836580492
  C           2.44586654601966     -1.02188450508084     -0.10836920765031
  O           1.48589033524535      0.10014293299216     -0.14514754733177
  P           0.06181914646145     -0.02308417491684     -0.75816203352328
  O          -0.06110149244309     -0.58880645398423     -2.16746054831264
  O          -0.69272814861825     -1.16514026706385      0.07985044050779
  C          -2.12014446501895     -1.20711871202159      0.32010616318543
  O          -0.63049542913888      1.36018260616231     -0.62738430027540
  C          -0.33352931721771      2.33656835214964      0.44195511737303
  H           3.38673586654400     -0.57060586469578      0.19853433144951
  H           2.52328617146431     -1.46108712302318     -1.10452979709293
  H           2.09871224744331     -1.75161820423362      0.62469425491598
  H          -2.45249644723362     -2.21207204186414      0.05272372670711
  H          -2.64081594916078     -0.42071954678193     -0.22879527563763
  H          -2.23399831410920     -1.06198472775890      1.40407368894628
  H          -0.44024118612499      1.85044106779444      1.41351610598285
  H          -1.07509705825237      3.12131845304138      0.30997517271447
  H           0.67833748413977      2.71546821928480      0.29441969804142
