17
 energy: -29.400149741278 gnorm: 0.000501640390 xtb: 6.7.1pre (5071a88)
C            2.26293227156759       -1.06426232218425       -0.21784813587588
O            1.29040310068527       -0.16367189328753        0.21923583984928
P           -0.07651880392094        0.06506423552217       -0.61728582002411
O           -0.16843121302186       -0.61681422943313       -1.88739329331077
O           -1.17144258463432       -0.37323393633032        0.49598538934667
C           -2.08774082589428       -1.39323578385887        0.24607550310731
O           -0.21441861294991        1.64017803366538       -0.63555750273515
C           -0.11926691556921        2.50330932356822        0.46821594044565
H            3.23858639217107       -0.56330826884370       -0.14852842190161
H            2.06383979501806       -1.41092425821458       -1.23484762565949
H            2.31406078439279       -1.91821558881575        0.47351961067491
H           -1.87562491880263       -2.24894501284261        0.90476042140488
H           -2.06623091946501       -1.70760101809668       -0.80049279449365
H           -3.08367202029121       -1.03247774138438        0.53921312309231
H            0.13194343499805        1.98116885294568        1.39101657360591
H           -1.07359627225272        3.03725632914264        0.57126067575945
H            0.63517729796957        3.26571328844760        0.23267050671395
