25
Coordinates from ORCA-job DMC_m1_shell2_reduced_opt_relaxed E -694.614107056681
  C          -1.99426650177476     -0.50457717810851      1.22038300260068
  O          -0.75963484799736     -1.13707810140352      0.80376476518984
  C           0.06011990541143     -0.36802507400729      0.10229099699208
  O          -0.15173216490219      0.79698830179820     -0.20578193879699
  O           1.14434984486007     -1.05952520029775     -0.21303186455564
  C           2.13410268227716     -0.33698247127512     -0.98691021511537
  H          -2.53214194106187     -1.27576630768884      1.77129400019207
  H          -2.56402307331646     -0.17660337948097      0.34535517567705
  H          -1.77872158328277      0.35720851347123      1.85977003007995
  H           2.48321160695328      0.53770434375669     -0.42928422961712
  H           1.70369667048299     -0.01280590651067     -1.93960811903247
  H           2.94217353187120     -1.05108400071339     -1.14400207091403
  Li         -0.44723809394247      2.57143938591886     -0.68377810396845
  C          -1.73438513543859      4.86290627802686     -3.56739232290941
  O          -1.55626641874303      5.90566055282501     -2.57746364839377
  C          -1.11078384909923      5.49617743267627     -1.39939263692539
  O          -0.84497082501482      4.33858229262461     -1.10524450300481
  O          -0.98825672377481      6.53943110343067     -0.59249894763924
  C          -0.50306549659192      6.23701772681649      0.73867646182067
  H          -2.09210812111947      5.38013448292919     -4.45741890973863
  H          -2.46862663989784      4.13090085425207     -3.21608821720715
  H          -0.78191181600492      4.35963912861984     -3.76032985804000
  H           0.48812695096441      5.77644214250352      0.68347130109988
  H          -1.19393685360912      5.55588349721084      1.24551400111518
  H          -0.46023397836038      7.20029095284533      1.24643745134997
