25
Coordinates from ORCA-job DMC_m1_shell2_oxidized_opt_relaxed E -694.021593273568
  C          -2.04083218084581     -0.69316673804370      1.18548593824710
  O          -0.76831402423045     -1.19544396646668      0.73933132538973
  C           0.05469856356392     -0.38415778049252      0.08666787349204
  O          -0.15451718737811      0.78261277116075     -0.21756711164508
  O           1.15526699521548     -1.08337183830449     -0.16197438523732
  C           2.25683978836338     -0.44178557710567     -0.82935726199232
  H          -2.45195928930887     -1.47360270245058      1.82390776633022
  H          -2.68872934499747     -0.53425089674204      0.30868759056887
  H          -1.90899289555654      0.25764049915208      1.71643380533257
  H           2.49082519366563      0.51373729986448     -0.34364432264697
  H           1.97959310732657     -0.25742380724131     -1.87968229420161
  H           3.08143745804252     -1.15065486552757     -0.77344789085384
  Li         -0.47482210477606      2.56660589181950     -0.67749683923806
  C          -1.90360794304925      4.99919977240975     -3.59229786842910
  O          -1.60757354494274      5.94840393804514     -2.55182365805652
  C          -1.08362462440880      5.50981377011013     -1.41107144001264
  O          -0.84105857325415      4.34808565241507     -1.11522924316398
  O          -0.93647563118090      6.57753949204467     -0.63248754545728
  C          -0.40729537651849      6.40412762598870      0.69463225266833
  H          -2.30587544759392      5.58723762699072     -4.41571708459418
  H          -2.63677325105890      4.26590403780410     -3.22449433085322
  H          -0.98224141778063      4.47302471128996     -3.88334122128979
  H           0.58809244279963      5.93939444448242      0.63728234864258
  H          -1.07683650128222      5.75118663514233      1.27456411260008
  H          -0.35954879388168      7.40487373048792      1.12104006690549
