25
Coordinates from ORCA-job DMC_m1_shell2_reduced_opt_relaxed E -694.611944823537
  C      -2.038094     -0.404882      1.141551
  O      -0.794347     -1.039277      0.751120
  C       0.064159     -0.310399      0.074751
  O      -0.108086      0.869019     -0.253525
  O       1.132669     -1.021245     -0.200789
  C       2.190737     -0.365023     -0.945817
  H      -2.586010     -1.175010      1.681505
  H      -2.595442     -0.092142      0.254860
  H      -1.836137      0.447569      1.795176
  H       2.567134      0.494298     -0.385502
  H       1.822741     -0.057711     -1.927829
  H       2.966809     -1.121053     -1.049992
  Li     -0.438938      2.573530     -0.681499
  C      -1.794953      4.809015     -3.543497
  O      -1.588068      5.829357     -2.534233
  C      -1.111156      5.438497     -1.374744
  O      -0.830341      4.271371     -1.078690
  O      -0.976726      6.472255     -0.576586
  C      -0.458518      6.218722      0.754175
  H      -2.184897      5.346203     -4.406189
  H      -2.523341      4.074008     -3.191722
  H      -0.845486      4.327989     -3.791786
  H       0.544456      5.789240      0.691766
  H      -1.132998      5.553385      1.298969
  H      -0.423924      7.197111      1.229930
25
Coordinates from ORCA-job DMC_m1_shell2_reduced_opt_relaxed E -694.613085803055
  C      -2.031433     -0.386512      1.132937
  O      -0.797468     -1.041507      0.754074
  C       0.061909     -0.308279      0.075570
  O      -0.110204      0.864486     -0.250954
  O       1.134619     -1.019691     -0.202030
  C       2.172116     -0.336970     -0.947232
  H      -2.594615     -1.145577      1.676272
  H      -2.575196     -0.065505      0.239336
  H      -1.817235      0.472309      1.776310
  H       2.529557      0.529111     -0.382730
  H       1.786689     -0.022064     -1.921328
  H       2.963462     -1.077466     -1.064312
  Li     -0.441542      2.573254     -0.680873
  C      -1.783467      4.790236     -3.527487
  O      -1.587862      5.828976     -2.538214
  C      -1.114359      5.435819     -1.373549
  O      -0.834740      4.275250     -1.079152
  O      -0.975444      6.473491     -0.574332
  C      -0.455516      6.191319      0.747265
  H      -2.170828      5.309899     -4.404095
  H      -2.506313      4.054990     -3.161205
  H      -0.829651      4.304602     -3.754052
  H       0.540893      5.746255      0.670809
  H      -1.132715      5.516417      1.279097
  H      -0.409414      7.161983      1.241279
25
Coordinates from ORCA-job DMC_m1_shell2_reduced_opt_relaxed E -694.613517828491
  C      -2.027886     -0.382005      1.132261
  O      -0.798513     -1.050193      0.759260
  C       0.061489     -0.310922      0.077557
  O      -0.109588      0.856671     -0.248065
  O       1.137750     -1.027491     -0.200621
  C       2.164407     -0.329700     -0.948044
  H      -2.600632     -1.133211      1.676697
  H      -2.563151     -0.052204      0.235882
  H      -1.807464      0.481915      1.767890
  H       2.511405      0.541825     -0.384070
  H       1.768505     -0.006715     -1.916037
  H       2.963531     -1.060476     -1.074251
  Li     -0.438534      2.573547     -0.682460
  C      -1.779826      4.786441     -3.522517
  O      -1.586778      5.837253     -2.544549
  C      -1.109259      5.439320     -1.376893
  O      -0.832034      4.283554     -1.083429
  O      -0.974721      6.482657     -0.574836
  C      -0.458015      6.182862      0.744767
  H      -2.168395      5.294342     -4.405586
  H      -2.495800      4.048833     -3.145258
  H      -0.825699      4.295188     -3.738351
  H       0.535053      5.729475      0.665062
  H      -1.134361      5.497038      1.265173
  H      -0.410241      7.146823      1.251819
25
Coordinates from ORCA-job DMC_m1_shell2_reduced_opt_relaxed E -694.613636952355
  C      -2.026292     -0.393057      1.138040
  O      -0.795673     -1.059697      0.763227
  C       0.062196     -0.316338      0.079966
  O      -0.110432      0.850179     -0.245231
  O       1.139535     -1.034841     -0.198654
  C       2.165300     -0.336337     -0.948231
  H      -2.597784     -1.145225      1.681773
  H      -2.562261     -0.060557      0.243051
  H      -1.807383      0.471757      1.773017
  H       2.512726      0.536401     -0.386314
  H       1.767858     -0.010677     -1.914751
  H       2.964051     -1.066664     -1.076442
  Li     -0.440093      2.573335     -0.682422
  C      -1.778378      4.795749     -3.527468
  O      -1.587906      5.846131     -2.547258
  C      -1.115011      5.444132     -1.377071
  O      -0.836991      4.289363     -1.084359
  O      -0.977669      6.490910     -0.576846
  C      -0.459558      6.191506      0.743192
  H      -2.162218      5.304580     -4.411630
  H      -2.495455      4.057397     -3.153832
  H      -0.824909      4.301026     -3.738681
  H       0.531921      5.734395      0.663889
  H      -1.134795      5.505844      1.265228
  H      -0.409537      7.155516      1.249209
25
Coordinates from ORCA-job DMC_m1_shell2_reduced_opt_relaxed E -694.613815106997
  C      -2.021714     -0.414156      1.150820
  O      -0.789759     -1.077819      0.771622
  C       0.064858     -0.330831      0.084886
  O      -0.108712      0.834752     -0.240572
  O       1.141990     -1.053566     -0.193597
  C       2.168827     -0.359392     -0.947485
  H      -2.590110     -1.168232      1.693967
  H      -2.560552     -0.078430      0.258892
  H      -1.804757      0.451200      1.785530
  H       2.520954      0.514236     -0.390001
  H       1.770884     -0.030720     -1.912724
  H       2.964003     -1.092517     -1.077147
  Li     -0.434654      2.573630     -0.686341
  C      -1.779808      4.819289     -3.537818
  O      -1.587690      5.866534     -2.553147
  C      -1.112682      5.459374     -1.383477
  O      -0.835210      4.304950     -1.091627
  O      -0.982661      6.508653     -0.582005
  C      -0.469555      6.211727      0.741516
  H      -2.163600      5.331517     -4.419304
  H      -2.495484      4.078213     -3.167080
  H      -0.828210      4.322051     -3.750964
  H       0.523399      5.756957      0.669035
  H      -1.142229      5.521821      1.261199
  H      -0.426287      7.175585      1.247226
25
Coordinates from ORCA-job DMC_m1_shell2_reduced_opt_relaxed E -694.613894137144
  C      -2.020055     -0.420958      1.153583
  O      -0.787891     -1.083033      0.773487
  C       0.065980     -0.336201      0.086846
  O      -0.108853      0.829518     -0.238531
  O       1.142817     -1.057634     -0.192921
  C       2.169044     -0.363946     -0.947427
  H      -2.587507     -1.176092      1.696512
  H      -2.559881     -0.085766      0.262086
  H      -1.803567      0.443673      1.789388
  H       2.522671      0.508830     -0.389590
  H       1.770528     -0.035388     -1.912460
  H       2.963731     -1.097623     -1.078066
  Li     -0.434536      2.573612     -0.686952
  C      -1.777158      4.825818     -3.540768
  O      -1.587884      5.871589     -2.554441
  C      -1.117518      5.464310     -1.383679
  O      -0.838630      4.309763     -1.092543
  O      -0.983940      6.513047     -0.583220
  C      -0.468872      6.217154      0.739396
  H      -2.157457      5.339446     -4.423130
  H      -2.495305      4.085420     -3.173644
  H      -0.825010      4.328564     -3.751583
  H       0.523660      5.761584      0.665673
  H      -1.141938      5.529475      1.261337
  H      -0.423393      7.181742      1.243783
25
Coordinates from ORCA-job DMC_m1_shell2_reduced_opt_relaxed E -694.613941023237
  C      -2.018826     -0.421290      1.154782
  O      -0.787759     -1.083819      0.774304
  C       0.066046     -0.339028      0.087172
  O      -0.108855      0.827145     -0.238116
  O       1.142580     -1.058538     -0.193087
  C       2.167874     -0.364485     -0.947327
  H      -2.586172     -1.175971      1.698777
  H      -2.559413     -0.087810      0.263157
  H      -1.800968      0.442838      1.790742
  H       2.521229      0.507788     -0.388603
  H       1.768983     -0.037639     -1.912724
  H       2.963216     -1.097725     -1.077793
  Li     -0.432915      2.573744     -0.687823
  C      -1.778925      4.826579     -3.539635
  O      -1.587934      5.872527     -2.554773
  C      -1.113526      5.467585     -1.385987
  O      -0.835714      4.312399     -1.094486
  O      -0.984754      6.513685     -0.583041
  C      -0.472958      6.216712      0.739916
  H      -2.162805      5.339472     -4.421077
  H      -2.495869      4.086258     -3.169995
  H      -0.826355      4.331790     -3.753804
  H       0.521198      5.764686      0.667477
  H      -1.146861      5.527485      1.258793
  H      -0.431006      7.180677      1.246173
25
Coordinates from ORCA-job DMC_m1_shell2_reduced_opt_relaxed E -694.613965592205
  C      -2.018013     -0.425616      1.156560
  O      -0.786564     -1.086576      0.775227
  C       0.066475     -0.341337      0.088414
  O      -0.110052      0.825048     -0.236450
  O       1.143153     -1.059043     -0.193655
  C       2.167179     -0.364076     -0.948468
  H      -2.584402     -1.181176      1.700457
  H      -2.559514     -0.092920      0.265241
  H      -1.800597      0.437929      1.793387
  H       2.520663      0.507812     -0.389300
  H       1.767244     -0.037940     -1.913635
  H       2.963042     -1.096672     -1.079850
  Li     -0.435116      2.573597     -0.686841
  C      -1.775374      4.828841     -3.541507
  O      -1.586967      5.874228     -2.555802
  C      -1.117517      5.469488     -1.385455
  O      -0.839233      4.314092     -1.093960
  O      -0.984488      6.515422     -0.583768
  C      -0.471063      6.218979      0.738501
  H      -2.155544      5.342302     -4.424301
  H      -2.494941      4.089733     -3.174755
  H      -0.822340      4.333693     -3.752739
  H       0.522044      5.764885      0.664717
  H      -1.146293      5.532809      1.259549
  H      -0.425635      7.183552      1.243426
25
Coordinates from ORCA-job DMC_m1_shell2_reduced_opt_relaxed E -694.613982681481
  C      -2.017166     -0.427276      1.158468
  O      -0.786105     -1.088257      0.776261
  C       0.066457     -0.343550      0.088628
  O      -0.110278      0.823035     -0.236038
  O       1.143165     -1.060664     -0.193617
  C       2.166941     -0.365676     -0.948619
  H      -2.583062     -1.182676      1.703148
  H      -2.559584     -0.095312      0.267475
  H      -1.799142      0.436221      1.795107
  H       2.520354      0.506242     -0.389497
  H       1.766906     -0.040363     -1.913989
  H       2.963059     -1.098076     -1.079786
  Li     -0.434001      2.573672     -0.687514
  C      -1.776892      4.830642     -3.541656
  O      -1.586917      5.876036     -2.556398
  C      -1.114463      5.472018     -1.387247
  O      -0.837100      4.316263     -1.095513
  O      -0.985327      6.516897     -0.583902
  C      -0.474572      6.220024      0.739217
  H      -2.159459      5.343867     -4.423583
  H      -2.495397      4.091251     -3.173412
  H      -0.823910      4.336556     -3.755297
  H       0.519627      5.768172      0.667180
  H      -1.150048      5.532411      1.258037
  H      -0.432042      7.184162      1.245276
25
Coordinates from ORCA-job DMC_m1_shell2_reduced_opt_relaxed E -694.613996318379
  C      -2.016380     -0.431220      1.160204
  O      -0.784944     -1.090955      0.777192
  C       0.066770     -0.345305      0.089702
  O      -0.111358      0.821268     -0.234534
  O       1.143634     -1.061388     -0.194061
  C       2.166189     -0.365435     -0.949752
  H      -2.581463     -1.187371      1.704724
  H      -2.559476     -0.099453      0.269569
  H      -1.798792      0.431978      1.797357
  H       2.519615      0.506384     -0.390516
  H       1.765040     -0.040290     -1.914706
  H       2.962726     -1.097222     -1.081926
  Li     -0.435741      2.573562     -0.686702
  C      -1.773987      4.832731     -3.543259
  O      -1.586017      5.877839     -2.557371
  C      -1.117432      5.473499     -1.386898
  O      -0.839815      4.317736     -1.095174
  O      -0.985230      6.518675     -0.584634
  C      -0.473423      6.222038      0.738091
  H      -2.153510      5.346355     -4.426293
  H      -2.494389      4.094148     -3.177228
  H      -0.820766      4.337963     -3.754294
  H       0.519853      5.768269      0.665246
  H      -1.149808      5.536505      1.258385
  H      -0.428284      7.186577      1.243196
25
Coordinates from ORCA-job DMC_m1_shell2_reduced_opt_relaxed E -694.614007830351
  C      -2.015532     -0.433017      1.162151
  O      -0.784380     -1.092678      0.778218
  C       0.066682     -0.347098      0.089883
  O      -0.111776      0.819527     -0.234083
  O       1.143681     -1.062787     -0.194107
  C       2.165812     -0.366579     -0.950106
  H      -2.580072     -1.189108      1.707330
  H      -2.559470     -0.101639      0.271906
  H      -1.797482      0.430258      1.799022
  H       2.519067      0.505411     -0.391039
  H       1.764352     -0.041893     -1.915072
  H       2.962628     -1.098073     -1.082308
  Li     -0.435032      2.573593     -0.687193
  C      -1.774815      4.834421     -3.543592
  O      -1.585780      5.879576     -2.558001
  C      -1.115124      5.475505     -1.388300
  O      -0.838299      4.319552     -1.096411
  O      -0.985938      6.520089     -0.584824
  C      -0.476316      6.223011      0.738619
  H      -2.155885      5.347881     -4.426061
  H      -2.494446      4.095579     -3.176549
  H      -0.821684      4.340198     -3.756116
  H       0.517691      5.770689      0.667244
  H      -1.152891      5.536285      1.257112
  H      -0.433349      7.187188      1.244617
25
Coordinates from ORCA-job DMC_m1_shell2_reduced_opt_relaxed E -694.614017662791
  C      -2.014793     -0.436408      1.163827
  O      -0.783347     -1.095050      0.779117
  C       0.066912     -0.348541      0.090800
  O      -0.112741      0.818012     -0.232766
  O       1.144044     -1.063489     -0.194523
  C       2.165055     -0.366429     -0.951218
  H      -2.578621     -1.193128      1.708882
  H      -2.559321     -0.105045      0.273945
  H      -1.797074      0.426673      1.801051
  H       2.518339      0.505538     -0.392149
  H       1.762532     -0.041735     -1.915738
  H       2.962197     -1.097398     -1.084396
  Li     -0.436351      2.573510     -0.686562
  C      -1.772468      4.836241     -3.544940
  O      -1.584948      5.881212     -2.558883
  C      -1.117204      5.476777     -1.388156
  O      -0.840288      4.320856     -1.096258
  O      -0.985959      6.521663     -0.585437
  C      -0.475803      6.224680      0.737809
  H      -2.151210      5.349990     -4.428251
  H      -2.493476      4.097962     -3.179550
  H      -0.819190      4.341392     -3.755413
  H       0.517524      5.770902      0.666030
  H      -1.153060      5.539350      1.257200
  H      -0.431055      7.189111      1.243178
25
Coordinates from ORCA-job DMC_m1_shell2_reduced_opt_relaxed E -694.614026179611
  C      -2.013989     -0.438247      1.165700
  O      -0.782741     -1.096695      0.780082
  C       0.066807     -0.350052      0.090993
  O      -0.113285      0.816504     -0.232272
  O       1.144110     -1.064614     -0.194653
  C       2.164600     -0.367189     -0.951701
  H      -2.577247     -1.195002      1.711296
  H      -2.559301     -0.107135      0.276218
  H      -1.795929      0.424922      1.802677
  H       2.517711      0.504957     -0.392802
  H       1.761656     -0.042781     -1.916134
  H       2.962019     -1.097828     -1.085065
  Li     -0.435973      2.573509     -0.686893
  C      -1.772755      4.837780     -3.545392
  O      -1.584580      5.882773     -2.559506
  C      -1.115574      5.478419     -1.389238
  O      -0.839306      4.322377     -1.097220
  O      -0.986523      6.522929     -0.585646
  C      -0.478098      6.225571      0.738168
  H      -2.152397      5.351443     -4.428368
  H      -2.493302      4.099334     -3.179407
  H      -0.819555      4.343201     -3.756725
  H       0.515716      5.772725      0.667562
  H      -1.155557      5.539376      1.256175
  H      -0.434907      7.189727      1.244199
25
Coordinates from ORCA-job DMC_m1_shell2_reduced_opt_relaxed E -694.614033454473
  C      -2.013451     -0.441364      1.166978
  O      -0.781868     -1.098839      0.780789
  C       0.066988     -0.351271      0.091812
  O      -0.114187      0.815205     -0.231070
  O       1.144456     -1.065164     -0.194965
  C       2.163989     -0.366902     -0.952512
  H      -2.576119     -1.198729      1.712341
  H      -2.559172     -0.110194      0.277774
  H      -1.795808      0.421628      1.804322
  H       2.517070      0.505205     -0.393538
  H       1.760154     -0.042355     -1.916529
  H       2.961707     -1.097054     -1.086767
  Li     -0.437078      2.573439     -0.686339
  C      -1.771002      4.839300     -3.546455
  O      -1.583905      5.884186     -2.560260
  C      -1.117234      5.479513     -1.389155
  O      -0.840932      4.323510     -1.097114
  O      -0.986438      6.524327     -0.586223
  C      -0.477524      6.227062      0.737415
  H      -2.148676      5.353191     -4.430146
  H      -2.492749      4.101409     -3.181760
  H      -0.817769      4.344033     -3.756066
  H       0.515673      5.772902      0.666443
  H      -1.155545      5.542064      1.256239
  H      -0.432755      7.191444      1.242884
25
Coordinates from ORCA-job DMC_m1_shell2_reduced_opt_relaxed E -694.614039775682
  C      -2.012714     -0.442847      1.168704
  O      -0.781349     -1.100221      0.781674
  C       0.066838     -0.352590      0.091888
  O      -0.114699      0.813887     -0.230709
  O       1.144491     -1.066160     -0.195058
  C       2.163597     -0.367612     -0.952898
  H      -2.574861     -1.200182      1.714645
  H      -2.559175     -0.111926      0.279870
  H      -1.794699      0.420283      1.805727
  H       2.516481      0.504702     -0.394119
  H       1.759443     -0.043352     -1.916875
  H       2.961571     -1.097473     -1.087233
  Li     -0.436611      2.573432     -0.686735
  C      -1.771417      4.840669     -3.546816
  O      -1.583630      5.885564     -2.560778
  C      -1.115455      5.480965     -1.390220
  O      -0.839806      4.324847     -1.098078
  O      -0.987011      6.525381     -0.586349
  C      -0.479772      6.227717      0.737832
  H      -2.150282      5.354453     -4.430061
  H      -2.492470      4.102455     -3.181390
  H      -0.818223      4.345817     -3.757516
  H       0.514020      5.774707      0.668011
  H      -1.157818      5.541615      1.255176
  H      -0.436807      7.191779      1.244071
25
Coordinates from ORCA-job DMC_m1_shell2_reduced_opt_relaxed E -694.614045295199
  C      -2.012176     -0.445915      1.170025
  O      -0.780454     -1.102239      0.782366
  C       0.067021     -0.353600      0.092753
  O      -0.115651      0.812783     -0.229466
  O       1.144800     -1.066497     -0.195489
  C       2.162838     -0.367079     -0.953945
  H      -2.573701     -1.203928      1.715667
  H      -2.559059     -0.114863      0.281503
  H      -1.794610      0.416999      1.807479
  H       2.515774      0.505174     -0.395106
  H       1.757650     -0.042613     -1.917422
  H       2.961086     -1.096449     -1.089330
  Li     -0.437857      2.573353     -0.686082
  C      -1.769282      4.842031     -3.547948
  O      -1.582801      5.886802     -2.561538
  C      -1.117423      5.481829     -1.389975
  O      -0.841663      4.325769     -1.097817
  O      -0.986860      6.526627     -0.586915
  C      -0.479052      6.229094      0.737069
  H      -2.145800      5.356085     -4.432042
  H      -2.491742      4.104450     -3.184061
  H      -0.816046      4.346362     -3.756579
  H       0.513995      5.774499      0.666832
  H      -1.157767      5.544411      1.255389
  H      -0.434209      7.193433      1.242620
25
Coordinates from ORCA-job DMC_m1_shell2_reduced_opt_relaxed E -694.614050202180
  C      -2.011414     -0.447223      1.171854
  O      -0.779950     -1.103450      0.783253
  C       0.066802     -0.354772      0.092742
  O      -0.116210      0.811618     -0.229185
  O       1.144778     -1.067330     -0.195658
  C       2.162362     -0.367613     -0.954436
  H      -2.572368     -1.205199      1.718130
  H      -2.559113     -0.116425      0.283750
  H      -1.793422      0.415841      1.808957
  H       2.515099      0.504858     -0.395810
  H       1.756824     -0.043431     -1.917858
  H       2.960870     -1.096683     -1.089923
  Li     -0.437360      2.573338     -0.686508
  C      -1.769651      4.843238     -3.548274
  O      -1.582420      5.888026     -2.562039
  C      -1.115512      5.483127     -1.391029
  O      -0.840429      4.326945     -1.098766
  O      -0.987412      6.527515     -0.586993
  C      -0.481464      6.229562      0.737597
  H      -2.147298      5.357195     -4.431940
  H      -2.491476      4.105385     -3.183657
  H      -0.816490      4.347908     -3.757950
  H       0.512161      5.776073      0.668634
  H      -1.160291      5.543793      1.254358
  H      -0.438448      7.193578      1.243921
25
Coordinates from ORCA-job DMC_m1_shell2_reduced_opt_relaxed E -694.614054597332
  C      -2.010335     -0.449603      1.174302
  O      -0.778888     -1.105081      0.784391
  C       0.066934     -0.355637      0.093524
  O      -0.117148      0.810659     -0.228062
  O       1.144809     -1.067712     -0.196525
  C       2.161051     -0.367396     -0.956534
  H      -2.570468     -1.208067      1.720741
  H      -2.558954     -0.118689      0.286814
  H      -1.792212      0.413291      1.811575
  H       2.514174      0.505106     -0.398203
  H       1.754072     -0.043174     -1.919338
  H       2.959695     -1.096083     -1.093273
  Li     -0.438433      2.573258     -0.685974
  C      -1.766658      4.844637     -3.549706
  O      -1.581025      5.889217     -2.562955
  C      -1.117067      5.483882     -1.390905
  O      -0.841957      4.327738     -1.098622
  O      -0.987692      6.528498     -0.587344
  C      -0.482309      6.230458      0.737435
  H      -2.142083      5.358885     -4.434150
  H      -2.489703      4.107184     -3.186728
  H      -0.813336      4.348755     -3.757368
  H       0.510822      5.775817      0.668875
  H      -1.162022      5.545653      1.254284
  H      -0.438311      7.194600      1.243429
25
Coordinates from ORCA-job DMC_m1_shell2_reduced_opt_relaxed E -694.614058291683
  C      -2.009827     -0.450896      1.175554
  O      -0.778478     -1.106195      0.785056
  C       0.066756     -0.356630      0.093563
  O      -0.117701      0.809667     -0.227737
  O       1.144843     -1.068365     -0.196603
  C       2.160763     -0.367716     -0.956723
  H      -2.569531     -1.209385      1.722396
  H      -2.558983     -0.120201      0.288321
  H      -1.791528      0.412122      1.812593
  H       2.513673      0.504911     -0.398447
  H       1.753573     -0.043628     -1.919483
  H       2.959637     -1.096136     -1.093556
  Li     -0.438058      2.573242     -0.686295
  C      -1.767132      4.845636     -3.549918
  O      -1.580838      5.890243     -2.563334
  C      -1.115511      5.484986     -1.391777
  O      -0.840974      4.328741     -1.099408
  O      -0.988115      6.529276     -0.587437
  C      -0.483909      6.230946      0.737716
  H      -2.143593      5.359781     -4.433981
  H      -2.489581      4.107927     -3.186270
  H      -0.813859      4.350073     -3.758522
  H       0.509749      5.777347      0.669956
  H      -1.163484      5.545151      1.253443
  H      -0.441422      7.194827      1.244342
25
Coordinates from ORCA-job DMC_m1_shell2_reduced_opt_relaxed E -694.614061504805
  C      -2.009446     -0.453540      1.176568
  O      -0.777725     -1.107851      0.785596
  C       0.066868     -0.357364      0.094285
  O      -0.118625      0.808850     -0.226658
  O       1.145104     -1.068457     -0.196986
  C       2.160098     -0.366996     -0.957580
  H      -2.568609     -1.212662      1.723088
  H      -2.558916     -0.122734      0.289573
  H      -1.791631      0.409290      1.814016
  H       2.513022      0.505561     -0.399204
  H       1.752027     -0.042684     -1.919897
  H       2.959223     -1.094967     -1.095343
  Li     -0.439155      2.573164     -0.685722
  C      -1.765310      4.846664     -3.550841
  O      -1.580148      5.891164     -2.563935
  C      -1.117179      5.485593     -1.391537
  O      -0.842558      4.329398     -1.099152
  O      -0.987936      6.530214     -0.587901
  C      -0.483069      6.232026      0.737027
  H      -2.139717      5.361046     -4.435640
  H      -2.488981      4.109506     -3.188541
  H      -0.812004      4.350381     -3.757633
  H       0.509933      5.777045      0.668778
  H      -1.163149      5.547470      1.253709
  H      -0.438883      7.196159      1.243031
25
Coordinates from ORCA-job DMC_m1_shell2_reduced_opt_relaxed E -694.614064494408
  C      -2.008692     -0.454738      1.178501
  O      -0.777193     -1.108841      0.786497
  C       0.066591     -0.358258      0.094265
  O      -0.119301      0.807964     -0.226365
  O       1.145011     -1.068965     -0.197319
  C       2.159396     -0.367154     -0.958387
  H      -2.567202     -1.213906      1.725620
  H      -2.559030     -0.124161      0.291967
  H      -1.790493      0.408217      1.815641
  H       2.512202      0.505603     -0.400245
  H       1.750785     -0.043088     -1.920557
  H       2.958769     -1.094797     -1.096434
  Li     -0.438776      2.573141     -0.686058
  C      -1.765181      4.847622     -3.551240
  O      -1.579654      5.892101     -2.564392
  C      -1.115398      5.486601     -1.392457
  O      -0.841429      4.330293     -1.099950
  O      -0.988538      6.530833     -0.587903
  C      -0.485345      6.232282      0.737574
  H      -2.140375      5.361942     -4.435739
  H      -2.488348      4.110173     -3.188523
  H      -0.811854      4.351689     -3.758723
  H       0.508169      5.778268      0.670465
  H      -1.165524      5.546775      1.252872
  H      -0.442777      7.196135      1.244246
25
Coordinates from ORCA-job DMC_m1_shell2_reduced_opt_relaxed E -694.614067038736
  C      -2.008316     -0.457117      1.179442
  O      -0.776486     -1.110324      0.786991
  C       0.066721     -0.358862      0.094981
  O      -0.120182      0.807275     -0.225313
  O       1.145232     -1.068999     -0.197731
  C       2.158746     -0.366461     -0.959276
  H      -2.566347     -1.216869      1.726239
  H      -2.558930     -0.126399      0.293134
  H      -1.790537      0.405639      1.816985
  H       2.511635      0.506200     -0.401037
  H       1.749289     -0.042144     -1.921007
  H       2.958310     -1.093724     -1.098243
  Li     -0.439819      2.573068     -0.685492
  C      -1.763433      4.848533     -3.552107
  O      -1.578920      5.892913     -2.564970
  C      -1.117011      5.487098     -1.392204
  O      -0.842948      4.330836     -1.099681
  O      -0.988332      6.531649     -0.588334
  C      -0.484615      6.233212      0.736964
  H      -2.136687      5.363083     -4.437295
  H      -2.487781      4.111646     -3.190628
  H      -0.810112      4.351869     -3.757898
  H       0.508283      5.777893      0.669481
  H      -1.165324      5.548866      1.253086
  H      -0.440489      7.197294      1.243071
25
Coordinates from ORCA-job DMC_m1_shell2_reduced_opt_relaxed E -694.614069427063
  C      -2.007542     -0.458221      1.181411
  O      -0.775952     -1.111217      0.787872
  C       0.066418     -0.359654      0.094918
  O      -0.120899      0.806492     -0.225052
  O       1.145116     -1.069389     -0.198122
  C       2.158008     -0.366489     -0.960151
  H      -2.564898     -1.218023      1.728825
  H      -2.559061     -0.127727      0.295588
  H      -1.789353      0.404656      1.818644
  H       2.510779      0.506372     -0.402146
  H       1.747997     -0.042415     -1.921727
  H       2.957822     -1.093419     -1.099415
  Li     -0.439510      2.573035     -0.685806
  C      -1.763165      4.849388     -3.552515
  O      -1.578331      5.893747     -2.565424
  C      -1.115359      5.487978     -1.393040
  O      -0.841916      4.331608     -1.100405
  O      -0.988875      6.532170     -0.588326
  C      -0.486851      6.233378      0.737526
  H      -2.137038      5.363898     -4.437463
  H      -2.487129      4.112283     -3.190702
  H      -0.809840      4.352981     -3.758857
  H       0.506496      5.778884      0.671198
  H      -1.167748      5.548203      1.252312
  H      -0.444205      7.197204      1.244245
25
Coordinates from ORCA-job DMC_m1_shell2_reduced_opt_relaxed E -694.614071452983
  C      -2.007210     -0.460410      1.182263
  O      -0.775304     -1.112557      0.788313
  C       0.066542     -0.360154      0.095610
  O      -0.121738      0.805913     -0.224043
  O       1.145301     -1.069361     -0.198539
  C       2.157369     -0.365781     -0.961024
  H      -2.564129     -1.220769      1.729347
  H      -2.558971     -0.129764      0.296649
  H      -1.789423      0.402266      1.819897
  H       2.510241      0.506977     -0.402920
  H       1.746548     -0.041448     -1.922172
  H       2.957346     -1.092364     -1.101181
  Li     -0.440451      2.572974     -0.685267
  C      -1.761557      4.850161     -3.553291
  O      -1.577620      5.894443     -2.565957
  C      -1.116797      5.488397     -1.392811
  O      -0.843277      4.332069     -1.100150
  O      -0.988668      6.532883     -0.588723
  C      -0.486208      6.234200      0.736983
  H      -2.133694      5.364868     -4.438859
  H      -2.486583      4.113570     -3.192573
  H      -0.808247      4.353088     -3.758118
  H       0.506593      5.778550      0.670351
  H      -1.167590      5.550055      1.252486
  H      -0.442194      7.198231      1.243198
25
Coordinates from ORCA-job DMC_m1_shell2_reduced_opt_relaxed E -694.614073186407
  C      -2.006703     -0.461140      1.183526
  O      -0.775002     -1.113248      0.788885
  C       0.066265     -0.360861      0.095422
  O      -0.122277      0.805223     -0.223964
  O       1.145256     -1.069755     -0.198648
  C       2.157101     -0.365923     -0.961191
  H      -2.563171     -1.221419      1.731178
  H      -2.559103     -0.130772      0.298214
  H      -1.788574      0.401714      1.820802
  H       2.509663      0.507038     -0.403200
  H       1.746199     -0.041850     -1.922389
  H       2.957335     -1.092246     -1.101234
  Li     -0.439992      2.572939     -0.685696
  C      -1.762120      4.850881     -3.553402
  O      -1.577356      5.895174     -2.566242
  C      -1.115106      5.489181     -1.393620
  O      -0.842146      4.332741     -1.100905
  O      -0.988980      6.533307     -0.588714
  C      -0.487966      6.234258      0.737449
  H      -2.135483      5.365498     -4.438505
  H      -2.486473      4.114012     -3.191871
  H      -0.808896      4.354145     -3.759372
  H       0.505381      5.779679      0.671810
  H      -1.169315      5.549066      1.251625
  H      -0.445606      7.197992      1.244369
25
Coordinates from ORCA-job DMC_m1_shell2_reduced_opt_relaxed E -694.614074917237
  C      -2.006064     -0.463212      1.185117
  O      -0.774203     -1.114476      0.789592
  C       0.066370     -0.361264      0.096149
  O      -0.123160      0.804734     -0.222936
  O       1.145296     -1.069660     -0.199374
  C       2.156015     -0.365174     -0.962796
  H      -2.561884     -1.224053      1.732644
  H      -2.559051     -0.132680      0.300235
  H      -1.788091      0.399430      1.822724
  H       2.508843      0.507740     -0.404900
  H       1.743933     -0.040930     -1.923436
  H       2.956387     -1.091126     -1.103971
  Li     -0.440990      2.572872     -0.685135
  C      -1.759720      4.851690     -3.554448
  O      -1.576212      5.895845     -2.566912
  C      -1.116631      5.489498     -1.393354
  O      -0.843580      4.333099     -1.100619
  O      -0.988930      6.533899     -0.589042
  C      -0.488020      6.234871      0.737159
  H      -2.131053      5.366556     -4.440261
  H      -2.485242      4.115300     -3.194310
  H      -0.806432      4.354322     -3.758612
  H       0.504781      5.779083      0.671595
  H      -1.170101      5.550726      1.251745
  H      -0.444440      7.198782      1.243637
25
Coordinates from ORCA-job DMC_m1_shell2_reduced_opt_relaxed E -694.614076417025
  C      -2.005568     -0.464001      1.186403
  O      -0.773870     -1.115136      0.790179
  C       0.066079     -0.361882      0.095996
  O      -0.123762      0.804132     -0.222807
  O       1.145233     -1.069926     -0.199557
  C       2.155634     -0.365142     -0.963118
  H      -2.560904     -1.224830      1.734436
  H      -2.559189     -0.133731      0.301826
  H      -1.787323      0.398793      1.823708
  H       2.508215      0.507948     -0.405334
  H       1.743349     -0.041112     -1.923742
  H       2.956252     -1.090821     -1.104317
  Li     -0.440612      2.572837     -0.685495
  C      -1.760015      4.852310     -3.554597
  O      -1.575904      5.896473     -2.567191
  C      -1.115058      5.490189     -1.394093
  O      -0.842548      4.333685     -1.101290
  O      -0.989274      6.534259     -0.589020
  C      -0.489648      6.234926      0.737590
  H      -2.132282      5.367101     -4.440060
  H      -2.485004      4.115677     -3.193864
  H      -0.806768      4.355236     -3.759614
  H       0.503628      5.780066      0.672892
  H      -1.171697      5.549881      1.251037
  H      -0.447501      7.198589      1.244664
25
Coordinates from ORCA-job DMC_m1_shell2_reduced_opt_relaxed E -694.614077887336
  C      -2.004824     -0.465727      1.188193
  O      -0.773081     -1.116167      0.790975
  C       0.066120     -0.362239      0.096599
  O      -0.124624      0.803699     -0.221911
  O       1.145191     -1.069849     -0.200333
  C       2.154493     -0.364524     -0.964843
  H      -2.559490     -1.227005      1.736282
  H      -2.559141     -0.135360      0.304089
  H      -1.786566      0.396917      1.825687
  H       2.507376      0.508559     -0.407241
  H       1.741037     -0.040405     -1.924938
  H       2.955217     -1.089878     -1.107103
  Li     -0.441441      2.572773     -0.685052
  C      -1.757627      4.853079     -3.555627
  O      -1.574746      5.897086     -2.567829
  C      -1.116189      5.490480     -1.393938
  O      -0.843666      4.334000     -1.101110
  O      -0.989407      6.534722     -0.589236
  C      -0.490154      6.235343      0.737499
  H      -2.128178      5.368095     -4.441681
  H      -2.483549      4.116757     -3.196160
  H      -0.804264      4.355578     -3.759090
  H       0.502752      5.779627      0.673066
  H      -1.172839      5.551019      1.251043
  H      -0.447260      7.199107      1.244317
25
Coordinates from ORCA-job DMC_m1_shell2_reduced_opt_relaxed E -694.614079095367
  C      -2.004526     -0.466623      1.189038
  O      -0.772807     -1.116830      0.791382
  C       0.065886     -0.362749      0.096538
  O      -0.125219      0.803196     -0.221698
  O       1.145192     -1.069991     -0.200444
  C       2.154249     -0.364313     -0.964946
  H      -2.558817     -1.227970      1.737409
  H      -2.559256     -0.136452      0.305125
  H      -1.786209      0.396121      1.826372
  H       2.506874      0.508868     -0.407328
  H       1.740667     -0.040284     -1.925019
  H       2.955203     -1.089405     -1.107257
  Li     -0.441199      2.572742     -0.685297
  C      -1.758001      4.853575     -3.555710
  O      -1.574547      5.897606     -2.568050
  C      -1.114995      5.491050     -1.394518
  O      -0.842912      4.334486     -1.101633
  O      -0.989576      6.535056     -0.589273
  C      -0.491133      6.235470      0.737715
  H      -2.129271      5.368531     -4.441496
  H      -2.483547      4.117129     -3.195732
  H      -0.804710      4.356228     -3.759852
  H       0.502116      5.780436      0.673820
  H      -1.173737      5.550490      1.250502
  H      -0.449242      7.199057      1.244954
25
Coordinates from ORCA-job DMC_m1_shell2_reduced_opt_relaxed E -694.614080279120
  C      -2.004080     -0.468407      1.190252
  O      -0.772170     -1.117845      0.791925
  C       0.065890     -0.363064      0.097054
  O      -0.126067      0.802816     -0.220883
  O       1.145241     -1.069796     -0.200991
  C       2.153403     -0.363485     -0.966080
  H      -2.557801     -1.230241      1.738522
  H      -2.559282     -0.138170      0.306662
  H      -1.785975      0.394197      1.827840
  H       2.506124      0.509667     -0.408477
  H       1.738934     -0.039322     -1.925729
  H       2.954537     -1.088210     -1.109254
  Li     -0.441961      2.572679     -0.684900
  C      -1.756277      4.854178     -3.556475
  O      -1.573692      5.898107     -2.568550
  C      -1.115992      5.491298     -1.394376
  O      -0.843910      4.334751     -1.101466
  O      -0.989501      6.535484     -0.589526
  C      -0.491063      6.235912      0.737463
  H      -2.126050      5.369323     -4.442778
  H      -2.482699      4.118107     -3.197510
  H      -0.802959      4.356335     -3.759298
  H       0.501788      5.780004      0.673559
  H      -1.174163      5.551689      1.250590
  H      -0.448257      7.199628      1.244382
25
Coordinates from ORCA-job DMC_m1_shell2_reduced_opt_relaxed E -694.614081299718
  C      -2.003754     -0.469183      1.191153
  O      -0.771900     -1.118423      0.792339
  C       0.065660     -0.363508      0.096991
  O      -0.126643      0.802379     -0.220684
  O       1.145216     -1.069901     -0.201136
  C       2.153106     -0.363281     -0.966296
  H      -2.557102     -1.231073      1.739719
  H      -2.559392     -0.139119      0.307777
  H      -1.785535      0.393509      1.828579
  H       2.505610      0.509984     -0.408727
  H       1.738468     -0.039238     -1.925912
  H       2.954450     -1.087762     -1.109534
  Li     -0.441706      2.572651     -0.685141
  C      -1.756541      4.854630     -3.556580
  O      -1.573459      5.898569     -2.568764
  C      -1.114808      5.491805     -1.394934
  O      -0.843152      4.335177     -1.101967
  O      -0.989687      6.535753     -0.589539
  C      -0.492135      6.235962      0.737729
  H      -2.127003      5.369724     -4.442625
  H      -2.482590      4.118412     -3.197153
  H      -0.803274      4.356965     -3.760045
  H       0.501044      5.780695      0.674419
  H      -1.175210      5.551112      1.250063
  H      -0.450323      7.199501      1.245065
25
Coordinates from ORCA-job DMC_m1_shell2_reduced_opt_relaxed E -694.614082327008
  C      -2.003279     -0.470851      1.192416
  O      -0.771272     -1.119356      0.792887
  C       0.065650     -0.363771      0.097478
  O      -0.127483      0.802053     -0.219904
  O       1.145241     -1.069670     -0.201708
  C       2.152229     -0.362451     -0.967494
  H      -2.556053     -1.233207      1.740913
  H      -2.559420     -0.140717      0.309385
  H      -1.785221      0.391703      1.830077
  H       2.504844      0.510803     -0.409976
  H       1.736689     -0.038303     -1.926689
  H       2.953743     -1.086575     -1.111583
  Li     -0.442449      2.572588     -0.684758
  C      -1.754755      4.855187     -3.557349
  O      -1.572580      5.899018     -2.569252
  C      -1.115782      5.491999     -1.394781
  O      -0.844124      4.335387     -1.101793
  O      -0.989628      6.536119     -0.589765
  C      -0.492149      6.236331      0.737527
  H      -2.123717      5.370473     -4.443908
  H      -2.481667      4.119325     -3.198954
  H      -0.801447      4.357051     -3.759488
  H       0.500629      5.780180      0.674256
  H      -1.175755      5.552245      1.250162
  H      -0.449438      7.199997      1.244549
25
Coordinates from ORCA-job DMC_m1_shell2_reduced_opt_relaxed E -694.614083213315
  C      -2.003000     -0.471585      1.193225
  O      -0.771032     -1.119885      0.793251
  C       0.065420     -0.364160      0.097412
  O      -0.128047      0.801672     -0.219715
  O       1.145215     -1.069723     -0.201842
  C       2.151956     -0.362193     -0.967665
  H      -2.555420     -1.234004      1.741988
  H      -2.559543     -0.141616      0.310389
  H      -1.784855      0.391051      1.830742
  H       2.504348      0.511161     -0.410159
  H       1.736272     -0.038149     -1.926833
  H       2.953676     -1.086080     -1.111809
  Li     -0.442187      2.572563     -0.684993
  C      -1.755071      4.855570     -3.557416
  O      -1.572368      5.899419     -2.569441
  C      -1.114612      5.492452     -1.395315
  O      -0.843367      4.335761     -1.102270
  O      -0.989777      6.536344     -0.589777
  C      -0.493135      6.236350      0.737779
  H      -2.124725      5.370802     -4.443718
  H      -2.481619      4.119579     -3.198538
  H      -0.801825      4.357593     -3.760203
  H       0.499960      5.780822      0.675072
  H      -1.176709      5.551659      1.249659
  H      -0.451381      7.199848      1.245199
25
Coordinates from ORCA-job DMC_m1_shell2_reduced_opt_relaxed E -694.614084109197
  C      -2.002571     -0.473183      1.194393
  O      -0.770441     -1.120760      0.793749
  C       0.065399     -0.364381      0.097866
  O      -0.128874      0.801390     -0.218974
  O       1.145242     -1.069451     -0.202383
  C       2.151124     -0.361327     -0.968776
  H      -2.554436     -1.236058      1.743081
  H      -2.559588     -0.143155      0.311881
  H      -1.784601      0.389322      1.832140
  H       2.503597      0.512017     -0.411303
  H       1.734594     -0.037180     -1.927547
  H       2.953021     -1.084858     -1.113724
  Li     -0.442905      2.572500     -0.684629
  C      -1.753388      4.856067     -3.558132
  O      -1.571532      5.899814     -2.569894
  C      -1.115555      5.492602     -1.395156
  O      -0.844303      4.335927     -1.102093
  O      -0.989686      6.536663     -0.589994
  C      -0.493080      6.236676      0.737573
  H      -2.121597      5.371485     -4.444927
  H      -2.480777      4.120434     -3.200237
  H      -0.800115      4.357617     -3.759648
  H       0.499620      5.780278      0.674880
  H      -1.177164      5.552735      1.249767
  H      -0.450429      7.200299      1.244682
25
Coordinates from ORCA-job DMC_m1_shell2_reduced_opt_relaxed E -694.614084952792
  C      -2.002051     -0.473904      1.195764
  O      -0.770056     -1.121250      0.794335
  C       0.065146     -0.364719      0.097839
  O      -0.129523      0.801055     -0.218725
  O       1.145116     -1.069451     -0.202765
  C       2.150483     -0.361027     -0.969555
  H      -2.553409     -1.236874      1.744828
  H      -2.559701     -0.144011      0.313604
  H      -1.783841      0.388658      1.833346
  H       2.502910      0.512439     -0.412239
  H       1.733475     -0.037020     -1.928167
  H       2.952548     -1.084311     -1.114811
  Li     -0.442736      2.572473     -0.684803
  C      -1.752962      4.856475     -3.558432
  O      -1.571041      5.900190     -2.570177
  C      -1.114470      5.493001     -1.395654
  O      -0.843635      4.336251     -1.102513
  O      -0.990033      6.536826     -0.589950
  C      -0.494507      6.236620      0.737968
  H      -2.121454      5.371884     -4.445115
  H      -2.480144      4.120687     -3.200436
  H      -0.799647      4.358206     -3.760179
  H       0.498464      5.780714      0.676004
  H      -1.178719      5.552184      1.249330
  H      -0.452765      7.200091      1.245444
25
Coordinates from ORCA-job DMC_m1_shell2_reduced_opt_relaxed E -694.614085723145
  C      -2.001898     -0.475424      1.196285
  O      -0.769627     -1.122072      0.794580
  C       0.065137     -0.364901      0.098247
  O      -0.130278      0.800819     -0.218043
  O       1.145228     -1.069150     -0.203076
  C       2.150005     -0.360147     -0.970100
  H      -2.552892     -1.238829      1.745109
  H      -2.559732     -0.145475      0.314264
  H      -1.784048      0.387014      1.834151
  H       2.502401      0.513257     -0.412666
  H       1.732459     -0.035963     -1.928422
  H       2.952244     -1.083119     -1.115956
  Li     -0.443367      2.572420     -0.684468
  C      -1.751926      4.856827     -3.558895
  O      -1.570544      5.900490     -2.570486
  C      -1.115322      5.493123     -1.395498
  O      -0.844473      4.336389     -1.102339
  O      -0.989804      6.537127     -0.590189
  C      -0.493901      6.236997      0.737605
  H      -2.119244      5.372377     -4.445982
  H      -2.479838      4.121416     -3.201621
  H      -0.798647      4.358074     -3.759635
  H       0.498688      5.780290      0.675361
  H      -1.178419      5.553277      1.249505
  H      -0.451177      7.200609      1.244730
25
Coordinates from ORCA-job DMC_m1_shell2_reduced_opt_relaxed E -694.614086498883
  C      -2.001507     -0.476278      1.197443
  O      -0.769287     -1.122595      0.795051
  C       0.064866     -0.365210      0.098202
  O      -0.130958      0.800516     -0.217801
  O       1.145149     -1.069049     -0.203388
  C       2.149455     -0.359639     -0.970646
  H      -2.551988     -1.239832      1.746572
  H      -2.559917     -0.146483      0.315733
  H      -1.783540      0.386217      1.835187
  H       2.501680      0.513878     -0.413274
  H       1.731527     -0.035565     -1.928839
  H       2.951928     -1.082301     -1.116755
  Li     -0.443241      2.572387     -0.684627
  C      -1.751723      4.857164     -3.559109
  O      -1.570103      5.900820     -2.570740
  C      -1.114310      5.493475     -1.395957
  O      -0.843862      4.336668     -1.102723
  O      -0.989979      6.537279     -0.590193
  C      -0.495008      6.236953      0.737901
  H      -2.119296      5.372710     -4.446093
  H      -2.479513      4.121713     -3.201663
  H      -0.798480      4.358456     -3.760100
  H       0.497785      5.780612      0.676286
  H      -1.179675      5.552852      1.249100
  H      -0.453009      7.200438      1.245326
25
Coordinates from ORCA-job DMC_m1_shell2_reduced_opt_relaxed E -694.614087216745
  C      -2.001150     -0.477566      1.198379
  O      -0.768805     -1.123304      0.795442
  C       0.064849     -0.365357      0.098595
  O      -0.131689      0.800316     -0.217146
  O       1.145158     -1.068790     -0.203859
  C       2.148772     -0.358901     -0.971576
  H      -2.551201     -1.241493      1.747418
  H      -2.559925     -0.147691      0.316933
  H      -1.783312      0.384801      1.836335
  H       2.501093      0.514585     -0.414214
  H       1.730155     -0.034708     -1.929433
  H       2.951364     -1.081293     -1.118367
  Li     -0.443790      2.572341     -0.684330
  C      -1.750409      4.857530     -3.559665
  O      -1.569395      5.901116     -2.571113
  C      -1.114987      5.493584     -1.395855
  O      -0.844559      4.336786     -1.102593
  O      -0.989888      6.537517     -0.590372
  C      -0.495029      6.237190      0.737761
  H      -2.116864      5.373216     -4.447030
  H      -2.478870      4.122390     -3.202949
  H      -0.797173      4.358414     -3.759682
  H       0.497456      5.780170      0.676223
  H      -1.180132      5.553671      1.249153
  H      -0.452365      7.200769      1.244953
25
Coordinates from ORCA-job DMC_m1_shell2_reduced_opt_relaxed E -694.614087913327
  C      -2.000680     -0.478257      1.199632
  O      -0.768447     -1.123744      0.795953
  C       0.064592     -0.365629      0.098539
  O      -0.132346      0.800047     -0.216927
  O       1.145048     -1.068704     -0.204224
  C       2.148188     -0.358487     -0.972256
  H      -2.550230     -1.242284      1.749032
  H      -2.560065     -0.148529      0.318521
  H      -1.782636      0.384174      1.837429
  H       2.500405      0.515119     -0.415012
  H       1.729159     -0.034428     -1.929978
  H       2.950971     -1.080617     -1.119304
  Li     -0.443695      2.572304     -0.684482
  C      -1.749984      4.857871     -3.559943
  O      -1.568894      5.901425     -2.571374
  C      -1.114107      5.493883     -1.396258
  O      -0.844040      4.337019     -1.102938
  O      -0.990123      6.537625     -0.590343
  C      -0.496216      6.237096      0.738095
  H      -2.116629      5.373565     -4.447225
  H      -2.478320      4.122641     -3.203153
  H      -0.796736      4.358855     -3.760130
  H       0.496479      5.780450      0.677204
  H      -1.181473      5.553187      1.248765
  H      -0.454296      7.200545      1.245596
25
Coordinates from ORCA-job DMC_m1_shell2_reduced_opt_relaxed E -694.614088574839
  C      -2.000387     -0.479514      1.200447
  O      -0.768003     -1.124415      0.796297
  C       0.064575     -0.365744      0.098926
  O      -0.133048      0.799882     -0.216287
  O       1.145057     -1.068422     -0.204665
  C       2.147547     -0.357725     -0.973098
  H      -2.549536     -1.243916      1.749726
  H      -2.560087     -0.149712      0.319566
  H      -1.782518      0.382792      1.838466
  H       2.499845      0.515836     -0.415831
  H       1.727874     -0.033526     -1.930495
  H       2.950447     -1.079591     -1.120805
  Li     -0.444199      2.572265     -0.684195
  C      -1.748795      4.858178     -3.560440
  O      -1.568246      5.901676     -2.571714
  C      -1.114728      5.493970     -1.396163
  O      -0.844680      4.337113     -1.102812
  O      -0.990019      6.537837     -0.590516
  C      -0.496157      6.237321      0.737940
  H      -2.114418      5.373996     -4.448073
  H      -2.477746      4.123240     -3.204310
  H      -0.795557      4.358784     -3.759735
  H       0.496262      5.780070      0.677076
  H      -1.181779      5.553939      1.248820
  H      -0.453621      7.200859      1.245220
25
Coordinates from ORCA-job DMC_m1_shell2_reduced_opt_relaxed E -694.614089227799
  C      -1.999974     -0.480213      1.201590
  O      -0.767670     -1.124839      0.796758
  C       0.064310     -0.365992      0.098851
  O      -0.133706      0.799638     -0.216087
  O       1.144964     -1.068295     -0.204995
  C       2.147015     -0.357245     -0.973672
  H      -2.548629     -1.244724      1.751210
  H      -2.560250     -0.150579      0.321016
  H      -1.781947      0.382166      1.839453
  H       2.499162      0.516434     -0.416490
  H       1.726984     -0.033174     -1.930956
  H       2.950125     -1.078834     -1.121597
  Li     -0.444120      2.572226     -0.684348
  C      -1.748448      4.858481     -3.560682
  O      -1.567784      5.901952     -2.571951
  C      -1.113898      5.494235     -1.396538
  O      -0.844194      4.337314     -1.103134
  O      -0.990201      6.537924     -0.590495
  C      -0.497185      6.237222      0.738230
  H      -2.114256      5.374307     -4.448232
  H      -2.477290      4.123477     -3.204462
  H      -0.795212      4.359159     -3.760152
  H       0.495427      5.780318      0.677935
  H      -1.182933      5.553477      1.248461
  H      -0.455324      7.200640      1.245795
25
Coordinates from ORCA-job DMC_m1_shell2_reduced_opt_relaxed E -694.614089848653
  C      -1.999726     -0.481420      1.202312
  O      -0.767260     -1.125472      0.797062
  C       0.064296     -0.366078      0.099234
  O      -0.134381      0.799503     -0.215464
  O       1.144974     -1.067999     -0.205408
  C       2.146411     -0.356482     -0.974449
  H      -2.548008     -1.246299      1.751791
  H      -2.560279     -0.151713      0.321942
  H      -1.781893      0.380834      1.840403
  H       2.498630      0.517148     -0.417233
  H       1.725776     -0.032266     -1.931423
  H       2.949634     -1.077817     -1.123003
  Li     -0.444579      2.572193     -0.684073
  C      -1.747374      4.858743     -3.561128
  O      -1.567182      5.902168     -2.572264
  C      -1.114454      5.494304     -1.396454
  O      -0.844774      4.337391     -1.103016
  O      -0.990083      6.538111     -0.590663
  C      -0.497097      6.237426      0.738076
  H      -2.112254      5.374679     -4.448998
  H      -2.476782      4.124015     -3.205498
  H      -0.794157      4.359063     -3.759792
  H       0.495260      5.779966      0.677800
  H      -1.183177      5.554167      1.248509
  H      -0.454667      7.200928      1.245434
25
Coordinates from ORCA-job DMC_m1_shell2_reduced_opt_relaxed E -694.614090467829
  C      -1.999352     -0.482113      1.203367
  O      -0.766947     -1.125879      0.797482
  C       0.064029     -0.366304      0.099145
  O      -0.135037      0.799282     -0.215278
  O       1.144895     -1.067839     -0.205710
  C       2.145922     -0.355960     -0.974950
  H      -2.547153     -1.247106      1.753167
  H      -2.560451     -0.152581      0.323284
  H      -1.781394      0.380217      1.841309
  H       2.497958      0.517789     -0.417800
  H       1.724966     -0.031873     -1.931827
  H       2.949366     -1.077012     -1.123690
  Li     -0.444520      2.572152     -0.684220
  C      -1.747066      4.859014     -3.561347
  O      -1.566749      5.902414     -2.572481
  C      -1.113692      5.494537     -1.396797
  O      -0.844335      4.337561     -1.103313
  O      -0.990219      6.538181     -0.590649
  C      -0.497993      6.237323      0.738330
  H      -2.112107      5.374963     -4.449142
  H      -2.476386      4.124240     -3.205631
  H      -0.793859      4.359384     -3.760170
  H       0.494531      5.780163      0.678562
  H      -1.184193      5.553749      1.248183
  H      -0.456154      7.200718      1.245942
25
Coordinates from ORCA-job DMC_m1_shell2_reduced_opt_relaxed E -694.614091057718
  C      -1.999144     -0.483267      1.204007
  O      -0.766571     -1.126474      0.797748
  C       0.064015     -0.366366      0.099519
  O      -0.135683      0.799172     -0.214674
  O       1.144905     -1.067535     -0.206094
  C       2.145355     -0.355205     -0.975666
  H      -2.546599     -1.248618      1.753650
  H      -2.560485     -0.153658      0.324108
  H      -1.781390      0.378940      1.842181
  H       2.497453      0.518492     -0.418472
  H       1.723833     -0.030974     -1.932248
  H       2.948906     -1.076015     -1.125001
  Li     -0.444930      2.572125     -0.683963
  C      -1.746104      4.859236     -3.561746
  O      -1.566197      5.902599     -2.572768
  C      -1.114178      5.494593     -1.396726
  O      -0.844850      4.337624     -1.103207
  O      -0.990091      6.538346     -0.590810
  C      -0.497891      6.237507      0.738181
  H      -2.110314      5.375281     -4.449827
  H      -2.475935      4.124718     -3.206550
  H      -0.792919      4.359276     -3.759848
  H       0.494402      5.779840      0.678429
  H      -1.184391      5.554376      1.248221
  H      -0.455531      7.200979      1.245602
25
Coordinates from ORCA-job DMC_m1_shell2_reduced_opt_relaxed E -694.614091651979
  C      -1.998803     -0.483955      1.204988
  O      -0.766275     -1.126868      0.798130
  C       0.063748     -0.366573      0.099422
  O      -0.136334      0.798971     -0.214498
  O       1.144840     -1.067349     -0.206373
  C       2.144901     -0.354650     -0.976106
  H      -2.545789     -1.249424      1.754933
  H      -2.560666     -0.154524      0.325359
  H      -1.780949      0.378328      1.843022
  H       2.496792      0.519168     -0.418966
  H       1.723090     -0.030548     -1.932607
  H       2.948682     -1.075170     -1.125601
  Li     -0.444891      2.572082     -0.684104
  C      -1.745820      4.859483     -3.561949
  O      -1.565788      5.902821     -2.572968
  C      -1.113487      5.494796     -1.397038
  O      -0.844460      4.337767     -1.103479
  O      -0.990186      6.538403     -0.590803
  C      -0.498669      6.237403      0.738402
  H      -2.110162      5.375545     -4.449966
  H      -2.475585      4.124935     -3.206679
  H      -0.792652      4.359552     -3.760189
  H       0.493764      5.779985      0.679104
  H      -1.185288      5.554004      1.247926
  H      -0.456820      7.200779      1.246048
25
Coordinates from ORCA-job DMC_m1_shell2_reduced_opt_relaxed E -694.614092217785
  C      -1.998627     -0.485054      1.205559
  O      -0.765930     -1.127428      0.798364
  C       0.063735     -0.366615      0.099786
  O      -0.136951      0.798882     -0.213914
  O       1.144849     -1.067041     -0.206731
  C       2.144365     -0.353908     -0.976769
  H      -2.545293     -1.250871      1.755337
  H      -2.560704     -0.155543      0.326098
  H      -1.780982      0.377105      1.843826
  H       2.496313      0.519857     -0.419579
  H       1.722023     -0.029664     -1.932989
  H       2.948250     -1.074198     -1.126829
  Li     -0.445254      2.572061     -0.683863
  C      -1.744957      4.859669     -3.562305
  O      -1.565281      5.902979     -2.573231
  C      -1.113906      5.494842     -1.396981
  O      -0.844913      4.337819     -1.103385
  O      -0.990054      6.538548     -0.590957
  C      -0.498562      6.237568      0.738261
  H      -2.108557      5.375814     -4.450578
  H      -2.475182      4.125357     -3.207494
  H      -0.791813      4.359437     -3.759903
  H       0.493660      5.779690      0.678980
  H      -1.185455      5.554572      1.247954
  H      -0.456243      7.201016      1.245733
25
Coordinates from ORCA-job DMC_m1_shell2_reduced_opt_relaxed E -694.614092787102
  C      -1.998312     -0.485733      1.206479
  O      -0.765647     -1.127807      0.798716
  C       0.063470     -0.366804      0.099683
  O      -0.137596      0.798698     -0.213748
  O       1.144794     -1.066833     -0.206991
  C       2.143940     -0.353329     -0.977164
  H      -2.544520     -1.251670      1.756545
  H      -2.560890     -0.156401      0.327274
  H      -1.780585      0.376503      1.844612
  H       2.495664      0.520557     -0.420016
  H       1.721332     -0.029214     -1.933312
  H       2.948059     -1.073328     -1.127363
  Li     -0.445234      2.572017     -0.683999
  C      -1.744684      4.859897     -3.562497
  O      -1.564892      5.903180     -2.573418
  C      -1.113282      5.495018     -1.397262
  O      -0.844569      4.337939     -1.103633
  O      -0.990116      6.538593     -0.590956
  C      -0.499241      6.237463      0.738454
  H      -2.108386      5.376062     -4.450716
  H      -2.474865      4.125567     -3.207628
  H      -0.791560      4.359676     -3.760209
  H       0.493097      5.779787      0.679581
  H      -1.186256      5.554242      1.247688
  H      -0.457360      7.200825      1.246125
25
Coordinates from ORCA-job DMC_m1_shell2_reduced_opt_relaxed E -694.614093334050
  C      -1.998163     -0.486777      1.206993
  O      -0.765330     -1.128333      0.798923
  C       0.063458     -0.366830      0.100037
  O      -0.138185      0.798629     -0.213185
  O       1.144800     -1.066525     -0.207326
  C       2.143433     -0.352606     -0.977781
  H      -2.544072     -1.253051      1.756884
  H      -2.560931     -0.157365      0.327942
  H      -1.780646      0.375335      1.845358
  H       2.495209      0.521226     -0.420580
  H       1.720324     -0.028350     -1.933663
  H       2.947649     -1.072386     -1.128518
  Li     -0.445552      2.572000     -0.683776
  C      -1.743908      4.860053     -3.562817
  O      -1.564424      5.903315     -2.573659
  C      -1.113639      5.495056     -1.397220
  O      -0.844963      4.337982     -1.103552
  O      -0.989982      6.538721     -0.591101
  C      -0.499139      6.237610      0.738323
  H      -2.106947      5.376291     -4.451265
  H      -2.474502      4.125941     -3.208352
  H      -0.790810      4.359557     -3.759956
  H       0.493010      5.779520      0.679471
  H      -1.186403      5.554754      1.247706
  H      -0.456836      7.201036      1.245836
25
Coordinates from ORCA-job DMC_m1_shell2_reduced_opt_relaxed E -694.614093889961
  C      -1.997869     -0.487446      1.207862
  O      -0.765060     -1.128699      0.799249
  C       0.063195     -0.367004      0.099929
  O      -0.138822      0.798460     -0.213028
  O       1.144754     -1.066300     -0.207570
  C       2.143032     -0.352008     -0.978138
  H      -2.543329     -1.253841      1.758029
  H      -2.561120     -0.158213      0.329056
  H      -1.780285      0.374743      1.846098
  H       2.494572      0.521944     -0.420972
  H       1.719677     -0.027882     -1.933957
  H       2.947486     -1.071497     -1.128998
  Li     -0.445547      2.571955     -0.683906
  C      -1.743640      4.860264     -3.563001
  O      -1.564052      5.903498     -2.573834
  C      -1.113079      5.495208     -1.397473
  O      -0.844664      4.338081     -1.103778
  O      -0.990016      6.538754     -0.591104
  C      -0.499733      6.237503      0.738493
  H      -2.106748      5.376527     -4.451406
  H      -2.474212      4.126148     -3.208496
  H      -0.790565      4.359763     -3.760227
  H       0.492510      5.779572      0.680007
  H      -1.187120      5.554462      1.247465
  H      -0.457802      7.200854      1.246180
25
Coordinates from ORCA-job DMC_m1_shell2_reduced_opt_relaxed E -694.614094421538
  C      -1.997741     -0.488439      1.208329
  O      -0.764766     -1.129194      0.799434
  C       0.063183     -0.367015      0.100272
  O      -0.139385      0.798406     -0.212484
  O       1.144758     -1.065994     -0.207886
  C       2.142548     -0.351307     -0.978718
  H      -2.542923     -1.255159      1.758319
  H      -2.561164     -0.159125      0.329666
  H      -1.780366      0.373629      1.846794
  H       2.494140      0.522592     -0.421498
  H       1.718718     -0.027042     -1.934282
  H       2.947092     -1.070588     -1.130093
  Li     -0.445823      2.571943     -0.683699
  C      -1.742940      4.860396     -3.563289
  O      -1.563618      5.903613     -2.574057
  C      -1.113378      5.495241     -1.397444
  O      -0.845004      4.338117     -1.103709
  O      -0.989885      6.538867     -0.591242
  C      -0.499641      6.237634      0.738372
  H      -2.105455      5.376722     -4.451900
  H      -2.473882      4.126477     -3.209140
  H      -0.789890      4.359644     -3.760004
  H       0.492432      5.779331      0.679915
  H      -1.187258      5.554920      1.247473
  H      -0.457336      7.201043      1.245919
25
Coordinates from ORCA-job DMC_m1_shell2_reduced_opt_relaxed E -694.614094961507
  C      -1.997468     -0.489092      1.209148
  O      -0.764507     -1.129545      0.799737
  C       0.062930     -0.367173      0.100168
  O      -0.140009      0.798251     -0.212334
  O       1.144719     -1.065758     -0.208115
  C       2.142168     -0.350704     -0.979048
  H      -2.542215     -1.255933      1.759397
  H      -2.561351     -0.159955      0.330716
  H      -1.780040      0.373052      1.847491
  H       2.493522      0.523312     -0.421858
  H       1.718106     -0.026566     -1.934553
  H       2.946947     -1.069698     -1.130536
  Li     -0.445830      2.571897     -0.683825
  C      -1.742673      4.860592     -3.563466
  O      -1.563261      5.903781     -2.574222
  C      -1.112880      5.495372     -1.397671
  O      -0.844745      4.338198     -1.103915
  O      -0.989899      6.538892     -0.591248
  C      -0.500161      6.237527      0.738522
  H      -2.105227      5.376947     -4.452044
  H      -2.473614      4.126680     -3.209296
  H      -0.789648      4.359822     -3.760242
  H       0.491986      5.779347      0.680394
  H      -1.187902      5.554663      1.247257
  H      -0.458170      7.200869      1.246221
25
Coordinates from ORCA-job DMC_m1_shell2_reduced_opt_relaxed E -694.614095480454
  C      -1.997356     -0.490034      1.209579
  O      -0.764235     -1.130009      0.799908
  C       0.062914     -0.367175      0.100494
  O      -0.140552      0.798206     -0.211820
  O       1.144722     -1.065455     -0.208409
  C       2.141710     -0.350022     -0.979587
  H      -2.541837     -1.257185      1.759659
  H      -2.561400     -0.160824      0.331279
  H      -1.780132      0.371996      1.848139
  H       2.493106      0.523945     -0.422343
  H       1.717201     -0.025754     -1.934853
  H       2.946578     -1.068816     -1.131558
  Li     -0.446069      2.571887     -0.683641
  C      -1.742042      4.860707     -3.563727
  O      -1.562860      5.903881     -2.574427
  C      -1.113125      5.495399     -1.397653
  O      -0.845036      4.338227     -1.103860
  O      -0.989770      6.538990     -0.591376
  C      -0.500079      6.237638      0.738413
  H      -2.104068      5.377118     -4.452488
  H      -2.473315      4.126976     -3.209871
  H      -0.789043      4.359708     -3.760050
  H       0.491917      5.779126      0.680318
  H      -1.188029      5.555066      1.247257
  H      -0.457758      7.201031      1.245988
25
Coordinates from ORCA-job DMC_m1_shell2_reduced_opt_relaxed E -694.614096009113
  C      -1.997099     -0.490675      1.210355
  O      -0.763985     -1.130348      0.800192
  C       0.062664     -0.367320      0.100388
  O      -0.141166      0.798063     -0.211678
  O       1.144690     -1.065208     -0.208624
  C       2.141349     -0.349411     -0.979889
  H      -2.541154     -1.257947      1.760688
  H      -2.561589     -0.161646      0.332277
  H      -1.779834      0.371432      1.848795
  H       2.492499      0.524674     -0.422671
  H       1.716623     -0.025272     -1.935104
  H       2.946454     -1.067920     -1.131960
  Li     -0.446088      2.571841     -0.683764
  C      -1.741776      4.860892     -3.563900
  O      -1.562516      5.904036     -2.574583
  C      -1.112682      5.495512     -1.397859
  O      -0.844814      4.338293     -1.104049
  O      -0.989764      6.539006     -0.591385
  C      -0.500533      6.237530      0.738543
  H      -2.103811      5.377337     -4.452637
  H      -2.473067      4.127178     -3.210040
  H      -0.788803      4.359862     -3.760260
  H       0.491521      5.779107      0.680745
  H      -1.188607      5.554840      1.247062
  H      -0.458472      7.200863      1.246254
25
Coordinates from ORCA-job DMC_m1_shell2_reduced_opt_relaxed E -694.614096519999
  C      -1.997001     -0.491571      1.210756
  O      -0.763731     -1.130785      0.800349
  C       0.062648     -0.367312      0.100705
  O      -0.141685      0.798030     -0.211181
  O       1.144689     -1.064911     -0.208905
  C       2.140907     -0.348753     -0.980404
  H      -2.540805     -1.259140      1.760919
  H      -2.561639     -0.162468      0.332802
  H      -1.779933      0.370425      1.849408
  H       2.492102      0.525283     -0.423135
  H       1.715754     -0.024487     -1.935388
  H       2.946094     -1.067072     -1.132939
  Li     -0.446290      2.571835     -0.683594
  C      -1.741199      4.860987     -3.564138
  O      -1.562140      5.904122     -2.574774
  C      -1.112879      5.495536     -1.397851
  O      -0.845061      4.338317     -1.104003
  O      -0.989642      6.539092     -0.591505
  C      -0.500469      6.237628      0.738447
  H      -2.102763      5.377481     -4.453039
  H      -2.472788      4.127438     -3.210555
  H      -0.788252      4.359750     -3.760092
  H       0.491450      5.778909      0.680690
  H      -1.188737      5.555197      1.247053
  H      -0.458122      7.201006      1.246047
25
Coordinates from ORCA-job DMC_m1_shell2_reduced_opt_relaxed E -694.614097040579
  C      -1.996755     -0.492197      1.211500
  O      -0.763489     -1.131111      0.800617
  C       0.062403     -0.367447      0.100597
  O      -0.142289      0.797897     -0.211046
  O       1.144662     -1.064657     -0.209111
  C       2.140562     -0.348140     -0.980687
  H      -2.540143     -1.259885      1.761908
  H      -2.561827     -0.163273      0.333760
  H      -1.779654      0.369876      1.850035
  H       2.491509      0.526012     -0.423440
  H       1.715202     -0.024001     -1.935624
  H       2.945983     -1.066178     -1.133314
  Li     -0.446318      2.571788     -0.683713
  C      -1.740927      4.861163     -3.564308
  O      -1.561807      5.904265     -2.574922
  C      -1.112488      5.495632     -1.398035
  O      -0.844873      4.338369     -1.104176
  O      -0.989623      6.539101     -0.591515
  C      -0.500869      6.237519      0.738562
  H      -2.102471      5.377695     -4.453195
  H      -2.472551      4.127640     -3.210741
  H      -0.788006      4.359884     -3.760275
  H       0.491093      5.778860      0.681073
  H      -1.189263      5.554999      1.246878
  H      -0.458736      7.200845      1.246281
25
Coordinates from ORCA-job DMC_m1_shell2_reduced_opt_relaxed E -694.614097549896
  C      -1.996667     -0.493047      1.211875
  O      -0.763251     -1.131523      0.800762
  C       0.062387     -0.367431      0.100904
  O      -0.142784      0.797874     -0.210566
  O       1.144657     -1.064366     -0.209380
  C       2.140136     -0.347506     -0.981180
  H      -2.539818     -1.261021      1.762118
  H      -2.561878     -0.164051      0.334254
  H      -1.779757      0.368917      1.850617
  H       2.491129      0.526597     -0.423881
  H       1.714367     -0.023242     -1.935895
  H       2.945633     -1.065364     -1.134253
  Li     -0.446486      2.571785     -0.683559
  C      -1.740399      4.861244     -3.564526
  O      -1.561454      5.904339     -2.575101
  C      -1.112641      5.495653     -1.398039
  O      -0.845077      4.338390     -1.104141
  O      -0.989509      6.539176     -0.591627
  C      -0.500826      6.237604      0.738478
  H      -2.101523      5.377817     -4.453559
  H      -2.472289      4.127869     -3.211203
  H      -0.787503      4.359777     -3.760131
  H       0.491018      5.778685      0.681039
  H      -1.189396      5.555311      1.246861
  H      -0.458448      7.200970      1.246101
25
Coordinates from ORCA-job DMC_m1_shell2_reduced_opt_relaxed E -694.614098063043
  C      -1.996433     -0.493659      1.212587
  O      -0.763016     -1.131838      0.801017
  C       0.062148     -0.367556      0.100797
  O      -0.143376      0.797751     -0.210435
  O       1.144633     -1.064108     -0.209578
  C       2.139804     -0.346894     -0.981447
  H      -2.539177     -1.261751      1.763065
  H      -2.562062     -0.164839      0.335172
  H      -1.779496      0.368380      1.851216
  H       2.490550      0.527323     -0.424167
  H       1.713839     -0.022754     -1.936117
  H       2.945532     -1.064476     -1.134606
  Li     -0.446522      2.571739     -0.683674
  C      -1.740121      4.861410     -3.564694
  O      -1.561130      5.904472     -2.575242
  C      -1.112298      5.495734     -1.398203
  O      -0.844921      4.338430     -1.104299
  O      -0.989479      6.539180     -0.591639
  C      -0.501175      6.237497      0.738579
  H      -2.101197      5.378024     -4.453723
  H      -2.472062      4.128069     -3.211404
  H      -0.787251      4.359892     -3.760288
  H       0.490697      5.778610      0.681381
  H      -1.189874      5.555140      1.246705
  H      -0.458969      7.200816      1.246305
25
Coordinates from ORCA-job DMC_m1_shell2_reduced_opt_relaxed E -694.614098561554
  C      -1.996353     -0.494466      1.212944
  O      -0.762794     -1.132226      0.801153
  C       0.062131     -0.367534      0.101091
  O      -0.143851      0.797736     -0.209974
  O       1.144624     -1.063825     -0.209836
  C       2.139393     -0.346283     -0.981919
  H      -2.538870     -1.262832      1.763263
  H      -2.562115     -0.165577      0.335642
  H      -1.779598      0.367468      1.851772
  H       2.490183      0.527886     -0.424590
  H       1.713035     -0.022023     -1.936377
  H       2.945192     -1.063694     -1.135507
  Li     -0.446658      2.571739     -0.683535
  C      -1.739636      4.861478     -3.564894
  O      -1.560798      5.904535     -2.575410
  C      -1.112411      5.495753     -1.398216
  O      -0.845087      4.338448     -1.104273
  O      -0.989374      6.539244     -0.591743
  C      -0.501154      6.237569      0.738507
  H      -2.100338      5.378128     -4.454053
  H      -2.471815      4.128272     -3.211820
  H      -0.786789      4.359791     -3.760166
  H       0.490616      5.778454      0.681368
  H      -1.190015      5.555411      1.246679
  H      -0.458741      7.200922      1.246151
25
Coordinates from ORCA-job DMC_m1_shell2_reduced_opt_relaxed E -694.614099068237
  C      -1.996131     -0.495064      1.213624
  O      -0.762567     -1.132530      0.801393
  C       0.061899     -0.367649      0.100989
  O      -0.144430      0.797621     -0.209846
  O       1.144604     -1.063564     -0.210026
  C       2.139074     -0.345675     -0.982172
  H      -2.538252     -1.263548      1.764166
  H      -2.562296     -0.166347      0.336519
  H      -1.779356      0.366943      1.852344
  H       2.489622      0.528603     -0.424858
  H       1.712528     -0.021534     -1.936587
  H       2.945099     -1.062816     -1.135841
  Li     -0.446699      2.571693     -0.683645
  C      -1.739353      4.861636     -3.565059
  O      -1.560484      5.904658     -2.575545
  C      -1.112113      5.495822     -1.398361
  O      -0.844960      4.338478     -1.104416
  O      -0.989334      6.539244     -0.591756
  C      -0.501458      6.237465      0.738595
  H      -2.099984      5.378329     -4.454223
  H      -2.471598      4.128470     -3.212034
  H      -0.786533      4.359889     -3.760298
  H       0.490327      5.778359      0.681672
  H      -1.190447      5.555266      1.246541
  H      -0.459179      7.200778      1.246326
25
Coordinates from ORCA-job DMC_m1_shell2_reduced_opt_relaxed E -694.614099569560
  C      -1.996056     -0.495831      1.213965
  O      -0.762357     -1.132896      0.801522
  C       0.061879     -0.367624      0.101269
  O      -0.144886      0.797612     -0.209405
  O       1.144591     -1.063288     -0.210273
  C       2.138677     -0.345086     -0.982623
  H      -2.537960     -1.264575      1.764358
  H      -2.562350     -0.167048      0.336970
  H      -1.779454      0.366077      1.852875
  H       2.489268      0.529147     -0.425262
  H       1.711757     -0.020831     -1.936834
  H       2.944770     -1.062063     -1.136701
  Li     -0.446807      2.571695     -0.683522
  C      -1.738908      4.861694     -3.565243
  O      -1.560170      5.904714     -2.575703
  C      -1.112188      5.495839     -1.398383
  O      -0.845091      4.338493     -1.104400
  O      -0.989237      6.539299     -0.591852
  C      -0.501456      6.237525      0.738534
  H      -2.099207      5.378419     -4.454523
  H      -2.471366      4.128650     -3.212407
  H      -0.786110      4.359795     -3.760196
  H       0.490241      5.778220      0.681679
  H      -1.190595      5.555499      1.246509
  H      -0.459005      7.200867      1.246197
25
Coordinates from ORCA-job DMC_m1_shell2_reduced_opt_relaxed E -694.614100071772
  C      -1.995846     -0.496416      1.214611
  O      -0.762138     -1.133190      0.801748
  C       0.061655     -0.367728      0.101173
  O      -0.145450      0.797506     -0.209277
  O       1.144574     -1.063026     -0.210457
  C       2.138371     -0.344485     -0.982863
  H      -2.537368     -1.265278      1.765213
  H      -2.562525     -0.167799      0.337804
  H      -1.779233      0.365560      1.853421
  H       2.488725      0.529853     -0.425513
  H       1.711269     -0.020342     -1.937033
  H       2.944683     -1.061199     -1.137023
  Li     -0.446851      2.571651     -0.683627
  C      -1.738623      4.861843     -3.565405
  O      -1.559867      5.904827     -2.575832
  C      -1.111932      5.495896     -1.398512
  O      -0.844990      4.338515     -1.104530
  O      -0.989190      6.539296     -0.591867
  C      -0.501717      6.237425      0.738609
  H      -2.098828      5.378612     -4.454697
  H      -2.471158      4.128844     -3.212632
  H      -0.785851      4.359876     -3.760306
  H       0.489984      5.778108      0.681946
  H      -1.190983      5.555378      1.246386
  H      -0.459365      7.200732      1.246346
25
Coordinates from ORCA-job DMC_m1_shell2_reduced_opt_relaxed E -694.614100569231
  C      -1.995776     -0.497144      1.214942
  O      -0.761940     -1.133536      0.801872
  C       0.061631     -0.367701      0.101437
  O      -0.145890      0.797501     -0.208857
  O       1.144558     -1.062757     -0.210693
  C       2.137988     -0.343916     -0.983293
  H      -2.537087     -1.266254      1.765405
  H      -2.562583     -0.168468      0.338241
  H      -1.779325      0.364739      1.853929
  H       2.488379      0.530380     -0.425899
  H       1.710531     -0.019666     -1.937269
  H       2.944367     -1.060472     -1.137840
  Li     -0.446932      2.571654     -0.683521
  C      -1.738213      4.861894     -3.565576
  O      -1.559570      5.904876     -2.575980
  C      -1.111974      5.495912     -1.398542
  O      -0.845089      4.338527     -1.104523
  O      -0.989101      6.539343     -0.591955
  C      -0.501733      6.237473      0.738559
  H      -2.098124      5.378692     -4.454970
  H      -2.470938      4.129005     -3.212969
  H      -0.785462      4.359790     -3.760224
  H       0.489892      5.777983      0.681970
  H      -1.191138      5.555575      1.246348
  H      -0.459241      7.200803      1.246239
25
Coordinates from ORCA-job DMC_m1_shell2_reduced_opt_relaxed E -694.614101070688
  C      -1.995579     -0.497716      1.215553
  O      -0.761729     -1.133821      0.802084
  C       0.061418     -0.367796      0.101351
  O      -0.146438      0.797404     -0.208727
  O       1.144543     -1.062496     -0.210870
  C       2.137693     -0.343324     -0.983523
  H      -2.536522     -1.266945      1.766211
  H      -2.562752     -0.169198      0.339032
  H      -1.779125      0.364230      1.854451
  H       2.487857      0.531070     -0.426137
  H       1.710058     -0.019179     -1.937457
  H       2.944282     -1.059626     -1.138154
  Li     -0.446977      2.571612     -0.683620
  C      -1.737927      4.862033     -3.565734
  O      -1.559277      5.904981     -2.576103
  C      -1.111755      5.495960     -1.398656
  O      -0.845011      4.338542     -1.104640
  O      -0.989048      6.539337     -0.591973
  C      -0.501957      6.237378      0.738622
  H      -2.097727      5.378877     -4.455147
  H      -2.470739      4.129196     -3.213200
  H      -0.785202      4.359856     -3.760314
  H       0.489663      5.777858      0.682205
  H      -1.191487      5.555477      1.246239
  H      -0.459533      7.200679      1.246363
25
Coordinates from ORCA-job DMC_m1_shell2_reduced_opt_relaxed E -694.614101567351
  C      -1.995510     -0.498408      1.215876
  O      -0.761542     -1.134147      0.802203
  C       0.061389     -0.367768      0.101596
  O      -0.146864      0.797401     -0.208329
  O       1.144525     -1.062234     -0.211096
  C       2.137325     -0.342774     -0.983931
  H      -2.536247     -1.267871      1.766409
  H      -2.562812     -0.169838      0.339460
  H      -1.779208      0.363452      1.854937
  H       2.487517      0.531584     -0.426503
  H       1.709353     -0.018531     -1.937683
  H       2.943982     -1.058922     -1.138926
  Li     -0.447036      2.571616     -0.683530
  C      -1.737548      4.862079     -3.565892
  O      -1.558996      5.905025     -2.576242
  C      -1.111769      5.495975     -1.398692
  O      -0.845083      4.338553     -1.104642
  O      -0.988966      6.539376     -0.592053
  C      -0.501989      6.237414      0.738582
  H      -2.097087      5.378948     -4.455396
  H      -2.470531      4.129341     -3.213506
  H      -0.784844      4.359777     -3.760248
  H       0.489567      5.777744      0.682244
  H      -1.191648      5.555642      1.246196
  H      -0.459452      7.200734      1.246277
25
Coordinates from ORCA-job DMC_m1_shell2_reduced_opt_relaxed E -694.614102065141
  C      -1.995326     -0.498968      1.216452
  O      -0.761338     -1.134423      0.802402
  C       0.061187     -0.367853      0.101522
  O      -0.147394      0.797314     -0.208194
  O       1.144512     -1.061975     -0.211268
  C       2.137038     -0.342193     -0.984155
  H      -2.535712     -1.268551      1.767161
  H      -2.562974     -0.170547      0.340206
  H      -1.779030      0.362949      1.855435
  H       2.487016      0.532256     -0.426730
  H       1.708892     -0.018044     -1.937862
  H       2.943896     -1.058096     -1.139238
  Li     -0.447079      2.571576     -0.683622
  C      -1.737263      4.862208     -3.566046
  O      -1.558714      5.905121     -2.576361
  C      -1.111583      5.496013     -1.398793
  O      -0.845023      4.338562     -1.104747
  O      -0.988907      6.539369     -0.592072
  C      -0.502179      6.237326      0.738634
  H      -2.096676      5.379122     -4.455574
  H      -2.470341      4.129525     -3.213741
  H      -0.784584      4.359829     -3.760319
  H       0.489363      5.777611      0.682449
  H      -1.191960      5.555566      1.246101
  H      -0.459684      7.200622      1.246379
25
Coordinates from ORCA-job DMC_m1_shell2_reduced_opt_relaxed E -694.614102559417
  C      -1.995259     -0.499626      1.216771
  O      -0.761160     -1.134732      0.802519
  C       0.061151     -0.367827      0.101747
  O      -0.147809      0.797312     -0.207820
  O       1.144492     -1.061720     -0.211484
  C       2.136685     -0.341659     -0.984540
  H      -2.535439     -1.269430      1.767371
  H      -2.563039     -0.171163      0.340628
  H      -1.779103      0.362214      1.855903
  H       2.486682      0.532759     -0.427078
  H       1.708220     -0.017424     -1.938078
  H       2.943612     -1.057411     -1.139964
  Li     -0.447118      2.571580     -0.683549
  C      -1.736912      4.862252     -3.566195
  O      -1.558447      5.905162     -2.576492
  C      -1.111573      5.496027     -1.398834
  O      -0.845072      4.338571     -1.104757
  O      -0.988832      6.539401     -0.592145
  C      -0.502224      6.237350      0.738602
  H      -2.096091      5.379189     -4.455804
  H      -2.470144      4.129659     -3.214021
  H      -0.784252      4.359759     -3.760268
  H       0.489262      5.777505      0.682501
  H      -1.192127      5.555701      1.246054
  H      -0.459638      7.200661      1.246312
25
Coordinates from ORCA-job DMC_m1_shell2_reduced_opt_relaxed E -694.614103060198
  C      -1.995089     -0.500174      1.217311
  O      -0.760965     -1.135000      0.802705
  C       0.060963     -0.367901      0.101688
  O      -0.148319      0.797233     -0.207679
  O       1.144480     -1.061463     -0.211650
  C       2.136407     -0.341092     -0.984759
  H      -2.534935     -1.270099      1.768068
  H      -2.563192     -0.171847      0.341328
  H      -1.778947      0.361717      1.856378
  H       2.486204      0.533409     -0.427296
  H       1.707770     -0.016940     -1.938248
  H       2.943524     -1.056610     -1.140276
  Li     -0.447156      2.571543     -0.683634
  C      -1.736630      4.862370     -3.566343
  O      -1.558177      5.905249     -2.576605
  C      -1.111414      5.496059     -1.398924
  O      -0.845027      4.338575     -1.104851
  O      -0.988771      6.539393     -0.592167
  C      -0.502385      6.237269      0.738645
  H      -2.095672      5.379353     -4.455982
  H      -2.469962      4.129835     -3.214258
  H      -0.783995      4.359798     -3.760323
  H       0.489082      5.777367      0.682680
  H      -1.192407      5.555644      1.245970
  H      -0.459821      7.200560      1.246394
25
Coordinates from ORCA-job DMC_m1_shell2_reduced_opt_relaxed E -694.614103555534
  C      -1.995020     -0.500800      1.217628
  O      -0.760795     -1.135293      0.802818
  C       0.060919     -0.367877      0.101891
  O      -0.148724      0.797231     -0.207329
  O       1.144459     -1.061215     -0.211856
  C       2.136069     -0.340573     -0.985121
  H      -2.534662     -1.270934      1.768293
  H      -2.563261     -0.172442      0.341748
  H      -1.779008      0.361021      1.856828
  H       2.485872      0.533904     -0.427623
  H       1.707132     -0.016345     -1.938453
  H       2.943258     -1.055941     -1.140955
  Li     -0.447179      2.571546     -0.683578
  C      -1.736303      4.862412     -3.566483
  O      -1.557922      5.905287     -2.576729
  C      -1.111386      5.496072     -1.398969
  O      -0.845058      4.338582     -1.104869
  O      -0.988700      6.539419     -0.592233
  C      -0.502440      6.237283      0.738621
  H      -2.095134      5.379417     -4.456194
  H      -2.469775      4.129959     -3.214516
  H      -0.783687      4.359735     -3.760284
  H       0.488978      5.777267      0.682742
  H      -1.192576      5.555755      1.245921
  H      -0.459803      7.200585      1.246343
25
Coordinates from ORCA-job DMC_m1_shell2_reduced_opt_relaxed E -694.614104054430
  C      -1.994864     -0.501335      1.218132
  O      -0.760609     -1.135552      0.802991
  C       0.060744     -0.367941      0.101847
  O      -0.149214      0.797162     -0.207181
  O       1.144448     -1.060963     -0.212017
  C       2.135799     -0.340021     -0.985335
  H      -2.534191     -1.271592      1.768933
  H      -2.563406     -0.173100      0.342403
  H      -1.778876      0.360528      1.857282
  H       2.485418      0.534529     -0.427833
  H       1.706691     -0.015864     -1.938615
  H       2.943166     -1.055167     -1.141271
  Li     -0.447210      2.571513     -0.683656
  C      -1.736027      4.862520     -3.566626
  O      -1.557664      5.905366     -2.576837
  C      -1.111250      5.496097     -1.399049
  O      -0.845024      4.338583     -1.104953
  O      -0.988637      6.539411     -0.592256
  C      -0.502577      6.237209      0.738655
  H      -2.094716      5.379568     -4.456369
  H      -2.469602      4.130126     -3.214750
  H      -0.783434      4.359762     -3.760326
  H       0.488818      5.777128      0.682897
  H      -1.192827      5.555714      1.245846
  H      -0.459944      7.200495      1.246408
25
Coordinates from ORCA-job DMC_m1_shell2_reduced_opt_relaxed E -694.614104549784
  C      -1.994795     -0.501932      1.218447
  O      -0.760446     -1.135830      0.803103
  C       0.060692     -0.367921      0.102027
  O      -0.149611      0.797158     -0.206855
  O       1.144427     -1.060720     -0.212212
  C       2.135476     -0.339516     -0.985674
  H      -2.533918     -1.272385      1.769173
  H      -2.563480     -0.173677      0.342820
  H      -1.778925      0.359872      1.857714
  H       2.485089      0.535018     -0.428139
  H       1.706089     -0.015295     -1.938808
  H       2.942920     -1.054512     -1.141899
  Li     -0.447219      2.571515     -0.683616
  C      -1.735722      4.862561     -3.566758
  O      -1.557421      5.905403     -2.576953
  C      -1.111208      5.496109     -1.399097
  O      -0.845039      4.338588     -1.104977
  O      -0.988571      6.539430     -0.592316
  C      -0.502638      6.237213      0.738637
  H      -2.094219      5.379631     -4.456565
  H      -2.469425      4.130243     -3.214989
  H      -0.783148      4.359708     -3.760297
  H       0.488714      5.777030      0.682966
  H      -1.192996      5.555803      1.245796
  H      -0.459946      7.200508      1.246370
25
Coordinates from ORCA-job DMC_m1_shell2_reduced_opt_relaxed E -694.614105048953
  C      -1.994653     -0.502455      1.218916
  O      -0.760269     -1.136081      0.803262
  C       0.060531     -0.367974      0.102001
  O      -0.150081      0.797097     -0.206699
  O       1.144415     -1.060473     -0.212369
  C       2.135213     -0.338980     -0.985885
  H      -2.533479     -1.273033      1.769756
  H      -2.563615     -0.174308      0.343430
  H      -1.778815      0.359381      1.858147
  H       2.484658      0.535618     -0.428342
  H       1.705654     -0.014816     -1.938963
  H       2.942822     -1.053766     -1.142222
  Li     -0.447241      2.571486     -0.683687
  C      -1.735453      4.862658     -3.566894
  O      -1.557176      5.905473     -2.577057
  C      -1.111090      5.496129     -1.399169
  O      -0.845013      4.338586     -1.105052
  O      -0.988507      6.539422     -0.592341
  C      -0.502753      6.237147      0.738663
  H      -2.093805      5.379769     -4.456736
  H      -2.469260      4.130400     -3.215217
  H      -0.782902      4.359723     -3.760328
  H       0.488572      5.776894      0.683101
  H      -1.193220      5.555777      1.245729
  H      -0.460053      7.200428      1.246419
25
Coordinates from ORCA-job DMC_m1_shell2_reduced_opt_relaxed E -694.614105548878
  C      -1.994583     -0.503025      1.219231
  O      -0.760113     -1.136347      0.803373
  C       0.060471     -0.367959      0.102159
  O      -0.150471      0.797091     -0.206397
  O       1.144394     -1.060235     -0.212554
  C       2.134905     -0.338486     -0.986200
  H      -2.533204     -1.273786      1.770014
  H      -2.563694     -0.174870      0.343846
  H      -1.778853      0.358762      1.858562
  H       2.484330      0.536102     -0.428627
  H       1.705086     -0.014270     -1.939145
  H       2.942596     -1.053122     -1.142802
  Li     -0.447239      2.571487     -0.683664
  C      -1.735167      4.862700     -3.567020
  O      -1.556944      5.905508     -2.577167
  C      -1.111037      5.496140     -1.399218
  O      -0.845017      4.338589     -1.105082
  O      -0.988443      6.539436     -0.592395
  C      -0.502817      6.237142      0.738651
  H      -2.093343      5.379833     -4.456920
  H      -2.469092      4.130512     -3.215442
  H      -0.782634      4.359676     -3.760308
  H       0.488469      5.776797      0.683174
  H      -1.193387      5.555847      1.245679
  H      -0.460067      7.200429      1.246392
25
Coordinates from ORCA-job DMC_m1_shell2_reduced_opt_relaxed E -694.614106054168
  C      -1.994454     -0.503535      1.219665
  O      -0.759945     -1.136590      0.803520
  C       0.060323     -0.368002      0.102149
  O      -0.150920      0.797040     -0.206233
  O       1.144383     -1.059993     -0.212707
  C       2.134647     -0.337967     -0.986410
  H      -2.532796     -1.274424      1.770542
  H      -2.563821     -0.175476      0.344413
  H      -1.778764      0.358276      1.858975
  H       2.483923      0.536676     -0.428825
  H       1.704656     -0.013797     -1.939294
  H       2.942491     -1.052405     -1.143132
  Li     -0.447250      2.571461     -0.683728
  C      -1.734906      4.862788     -3.567150
  O      -1.556710      5.905571     -2.577266
  C      -1.110935      5.496156     -1.399283
  O      -0.844995      4.338586     -1.105150
  O      -0.988380      6.539429     -0.592422
  C      -0.502915      6.237082      0.738670
  H      -2.092937      5.379958     -4.457086
  H      -2.468936      4.130658     -3.215663
  H      -0.782395      4.359683     -3.760330
  H       0.488342      5.776665      0.683292
  H      -1.193590      5.555833      1.245618
  H      -0.460149      7.200359      1.246429
25
Coordinates from ORCA-job DMC_m1_shell2_reduced_opt_relaxed E -694.614106547359
  C      -1.994382     -0.504079      1.219979
  O      -0.759794     -1.136842      0.803629
  C       0.060255     -0.367991      0.102285
  O      -0.151303      0.797032     -0.205954
  O       1.144362     -1.059761     -0.212882
  C       2.134355     -0.337484     -0.986702
  H      -2.532519     -1.275140      1.770816
  H      -2.563904     -0.176023      0.344828
  H      -1.778791      0.357691      1.859374
  H       2.483597      0.537156     -0.429090
  H       1.704122     -0.013274     -1.939465
  H       2.942285     -1.051772     -1.143664
  Li     -0.447238      2.571460     -0.683719
  C      -1.734637      4.862830     -3.567269
  O      -1.556488      5.905606     -2.577369
  C      -1.110875      5.496165     -1.399333
  O      -0.844991      4.338587     -1.105183
  O      -0.988319      6.539438     -0.592471
  C      -0.502980      6.237071      0.738662
  H      -2.092504      5.380023     -4.457258
  H      -2.468777      4.130766     -3.215876
  H      -0.782143      4.359641     -3.760315
  H       0.488242      5.776568      0.683367
  H      -1.193753      5.555888      1.245569
  H      -0.460171      7.200351      1.246411
25
Coordinates from ORCA-job DMC_m1_shell2_reduced_opt_relaxed E -694.614107056681
  C      -1.994267     -0.504577      1.220383
  O      -0.759635     -1.137078      0.803765
  C       0.060120     -0.368025      0.102291
  O      -0.151732      0.796988     -0.205782
  O       1.144350     -1.059525     -0.213032
  C       2.134103     -0.336982     -0.986910
  H      -2.532142     -1.275766      1.771294
  H      -2.564023     -0.176603      0.345355
  H      -1.778722      0.357209      1.859770
  H       2.483212      0.537704     -0.429284
  H       1.703697     -0.012806     -1.939608
  H       2.942174     -1.051084     -1.144002
  Li     -0.447238      2.571439     -0.683778
  C      -1.734385      4.862906     -3.567392
  O      -1.556266      5.905661     -2.577464
  C      -1.110784      5.496177     -1.399393
  O      -0.844971      4.338582     -1.105245
  O      -0.988257      6.539431     -0.592499
  C      -0.503065      6.237018      0.738676
  H      -2.092108      5.380134     -4.457419
  H      -2.468627      4.130901     -3.216088
  H      -0.781912      4.359639     -3.760330
  H       0.488127      5.776442      0.683471
  H      -1.193937      5.555883      1.245514
  H      -0.460234      7.200291      1.246437
