25
Coordinates from ORCA-job DMC_m1_shell2_oxidized_opt_relaxed E -694.016926169739
  C      -2.038094     -0.404882      1.141551
  O      -0.794347     -1.039277      0.751120
  C       0.064159     -0.310399      0.074751
  O      -0.108086      0.869019     -0.253525
  O       1.132669     -1.021245     -0.200789
  C       2.190737     -0.365023     -0.945817
  H      -2.586010     -1.175010      1.681505
  H      -2.595442     -0.092142      0.254860
  H      -1.836137      0.447569      1.795176
  H       2.567134      0.494298     -0.385502
  H       1.822741     -0.057711     -1.927829
  H       2.966809     -1.121053     -1.049992
  Li     -0.438938      2.573530     -0.681499
  C      -1.794953      4.809015     -3.543497
  O      -1.588068      5.829357     -2.534233
  C      -1.111156      5.438497     -1.374744
  O      -0.830341      4.271371     -1.078690
  O      -0.976726      6.472255     -0.576586
  C      -0.458518      6.218722      0.754175
  H      -2.184897      5.346203     -4.406189
  H      -2.523341      4.074008     -3.191722
  H      -0.845486      4.327989     -3.791786
  H       0.544456      5.789240      0.691766
  H      -1.132998      5.553385      1.298969
  H      -0.423924      7.197111      1.229930
25
Coordinates from ORCA-job DMC_m1_shell2_oxidized_opt_relaxed E -694.020031510603
  C      -2.039967     -0.487091      1.167405
  O      -0.783047     -1.065503      0.752810
  C       0.064828     -0.311978      0.075016
  O      -0.109133      0.863133     -0.250926
  O       1.133801     -1.040199     -0.193002
  C       2.216613     -0.429659     -0.930326
  H      -2.556558     -1.283739      1.700704
  H      -2.610221     -0.171820      0.283606
  H      -1.851297      0.369847      1.827494
  H       2.600089      0.435347     -0.373020
  H       1.856993     -0.116830     -1.919801
  H       2.973760     -1.207471     -1.017198
  Li     -0.441191      2.573247     -0.680574
  C      -1.815296      4.878509     -3.576381
  O      -1.589459      5.854130     -2.535194
  C      -1.110326      5.440050     -1.375683
  O      -0.832075      4.276872     -1.080324
  O      -0.978959      6.493034     -0.588894
  C      -0.462573      6.296176      0.746147
  H      -2.201531      5.448706     -4.419964
  H      -2.549137      4.136747     -3.234185
  H      -0.867085      4.388141     -3.833904
  H       0.545741      5.864591      0.691934
  H      -1.133310      5.630371      1.305432
  H      -0.439416      7.290215      1.190230
25
Coordinates from ORCA-job DMC_m1_shell2_oxidized_opt_relaxed E -694.020916103811
  C      -2.038083     -0.547789      1.181048
  O      -0.774200     -1.088501      0.752292
  C       0.063893     -0.315614      0.075491
  O      -0.111874      0.853247     -0.247198
  O       1.133672     -1.055081     -0.185211
  C       2.230394     -0.470997     -0.913456
  H      -2.534561     -1.359816      1.708858
  H      -2.614767     -0.227690      0.301018
  H      -1.860502      0.313240      1.841650
  H       2.612457      0.399675     -0.360453
  H       1.878333     -0.150920     -1.905438
  H       2.977509     -1.258653     -0.989192
  Li     -0.444511      2.572768     -0.679945
  C      -1.831147      4.928818     -3.593519
  O      -1.590498      5.875297     -2.535259
  C      -1.106553      5.443755     -1.378643
  O      -0.833137      4.286129     -1.084190
  O      -0.978418      6.510039     -0.600791
  C      -0.462618      6.348076      0.733941
  H      -2.217193      5.517312     -4.423649
  H      -2.563271      4.181232     -3.254671
  H      -0.887351      4.429457     -3.857274
  H       0.545798      5.911632      0.684960
  H      -1.126579      5.679594      1.301631
  H      -0.445549      7.349615      1.159402
25
Coordinates from ORCA-job DMC_m1_shell2_oxidized_opt_relaxed E -694.021090730778
  C      -2.039036     -0.568420      1.181980
  O      -0.772415     -1.100661      0.752382
  C       0.063367     -0.321219      0.078224
  O      -0.115169      0.845875     -0.242865
  O       1.135940     -1.059904     -0.181590
  C       2.233267     -0.474670     -0.906101
  H      -2.532045     -1.383647      1.707637
  H      -2.616673     -0.245990      0.303363
  H      -1.867697      0.294243      1.842137
  H       2.611230      0.398849     -0.354614
  H       1.883901     -0.150872     -1.897961
  H       2.982297     -1.260276     -0.980992
  Li     -0.449683      2.572283     -0.677991
  C      -1.836373      4.941052     -3.596758
  O      -1.592738      5.884064     -2.536970
  C      -1.110301      5.448911     -1.379643
  O      -0.838560      4.292641     -1.085417
  O      -0.976136      6.518478     -0.604895
  C      -0.456003      6.360493      0.727769
  H      -2.219981      5.531326     -4.426464
  H      -2.568804      4.192991     -3.259415
  H      -0.895596      4.435442     -3.859579
  H       0.549250      5.916748      0.678185
  H      -1.117585      5.694101      1.300858
  H      -0.433216      7.362988      1.150120
25
Coordinates from ORCA-job DMC_m1_shell2_oxidized_opt_relaxed E -694.021385944260
  C      -2.041948     -0.608393      1.178726
  O      -0.770876     -1.130647      0.752143
  C       0.061641     -0.340830      0.083891
  O      -0.122434      0.824187     -0.233806
  O       1.142459     -1.073794     -0.171494
  C       2.238630     -0.477740     -0.885317
  H      -2.531739     -1.426541      1.702169
  H      -2.620299     -0.283204      0.301658
  H      -1.883151      0.258861      1.835782
  H       2.603402      0.402852     -0.336151
  H       1.897020     -0.147993     -1.878065
  H       2.996661     -1.254502     -0.957518
  Li     -0.457089      2.571277     -0.676786
  C      -1.853835      4.964272     -3.598614
  O      -1.595851      5.907269     -2.543579
  C      -1.103291      5.468827     -1.389880
  O      -0.839980      4.312986     -1.094849
  O      -0.964730      6.540684     -0.615460
  C      -0.440288      6.380629      0.713779
  H      -2.242457      5.553068     -4.426626
  H      -2.582197      4.215145     -3.254950
  H      -0.921494      4.446927     -3.868297
  H       0.559861      5.925475      0.665158
  H      -1.097278      5.714009      1.292012
  H      -0.409493      7.382003      1.137481
25
Coordinates from ORCA-job DMC_m1_shell2_oxidized_opt_relaxed E -694.021486478022
  C      -2.041723     -0.617307      1.175912
  O      -0.769419     -1.139043      0.752123
  C       0.062761     -0.347023      0.087297
  O      -0.125184      0.818622     -0.229420
  O       1.145606     -1.075172     -0.170357
  C       2.238003     -0.471480     -0.883154
  H      -2.532027     -1.436032      1.698267
  H      -2.619108     -0.293486      0.297759
  H      -1.885337      0.249580      1.834049
  H       2.599350      0.409473     -0.332243
  H       1.895281     -0.142484     -1.875722
  H       3.000208     -1.244121     -0.957173
  Li     -0.463117      2.570761     -0.673964
  C      -1.851534      4.966125     -3.598585
  O      -1.595754      5.912135     -2.545900
  C      -1.112267      5.474185     -1.389024
  O      -0.848424      4.317512     -1.094052
  O      -0.960524      6.546325     -0.618175
  C      -0.430858      6.382640      0.708479
  H      -2.232662      5.553771     -4.430972
  H      -2.585954      4.221773     -3.257499
  H      -0.919812      4.444311     -3.861787
  H       0.565033      5.918237      0.655568
  H      -1.091850      5.724494      1.292039
  H      -0.387848      7.384572      1.130636
25
Coordinates from ORCA-job DMC_m1_shell2_oxidized_opt_relaxed E -694.021537001425
  C      -2.042253     -0.615918      1.174435
  O      -0.770370     -1.140361      0.752352
  C       0.062474     -0.350815      0.086825
  O      -0.124637      0.815721     -0.230030
  O       1.146014     -1.077279     -0.168221
  C       2.238801     -0.472124     -0.879732
  H      -2.533223     -1.433093      1.698739
  H      -2.619357     -0.295598      0.294777
  H      -1.884578      0.251394      1.831565
  H       2.598388      0.408790     -0.327814
  H       1.897208     -0.146747     -1.873900
  H       3.002320     -1.243866     -0.951327
  Li     -0.459237      2.570912     -0.676294
  C      -1.860358      4.966057     -3.595343
  O      -1.598308      5.914086     -2.545633
  C      -1.102641      5.478770     -1.393667
  O      -0.841176      4.320863     -1.098171
  O      -0.960733      6.547775     -0.618007
  C      -0.435779      6.380875      0.710313
  H      -2.250777      5.552144     -4.424767
  H      -2.590697      4.220969     -3.247199
  H      -0.928720      4.448584     -3.867197
  H       0.563253      5.923578      0.659293
  H      -1.097185      5.718316      1.288194
  H      -0.400028      7.381310      1.136504
25
Coordinates from ORCA-job DMC_m1_shell2_oxidized_opt_relaxed E -694.021562461757
  C      -2.042391     -0.624427      1.173213
  O      -0.768620     -1.145538      0.752160
  C       0.063493     -0.353010      0.089825
  O      -0.127097      0.813526     -0.226271
  O       1.147900     -1.076367     -0.168320
  C       2.238420     -0.467320     -0.880500
  H      -2.532030     -1.443532      1.695852
  H      -2.619151     -0.305530      0.292883
  H      -1.887226      0.241819      1.832223
  H       2.596938      0.412928     -0.327014
  H       1.894610     -0.142663     -1.874054
  H       3.003632     -1.237277     -0.954072
  Li     -0.465768      2.570442     -0.672819
  C      -1.853465      4.967978     -3.598372
  O      -1.597009      5.916220     -2.547202
  C      -1.115384      5.479966     -1.389941
  O      -0.851831      4.322053     -1.094934
  O      -0.957320      6.550587     -0.620198
  C      -0.425050      6.383997      0.705487
  H      -2.232580      5.555185     -4.432335
  H      -2.591961      4.228132     -3.256407
  H      -0.921601      4.446168     -3.860728
  H       0.569212      5.917147      0.649644
  H      -1.090380      5.731703      1.290477
  H      -0.376352      7.386031      1.126880
25
Coordinates from ORCA-job DMC_m1_shell2_oxidized_opt_relaxed E -694.021576439269
  C      -2.043161     -0.622289      1.172789
  O      -0.770121     -1.145983      0.752340
  C       0.062763     -0.355981      0.088132
  O      -0.125774      0.810985     -0.228158
  O       1.147742     -1.079564     -0.165799
  C       2.240415     -0.471389     -0.875798
  H      -2.533214     -1.439519      1.698032
  H      -2.620166     -0.306075      0.291674
  H      -1.886499      0.245348      1.829526
  H       2.597104      0.409583     -0.322443
  H       1.899445     -0.149671     -1.871228
  H       3.006017     -1.241364     -0.945441
  Li     -0.459223      2.570749     -0.676636
  C      -1.866604      4.969036     -3.594457
  O      -1.600340      5.918306     -2.546431
  C      -1.099922      5.484146     -1.396425
  O      -0.839993      4.325428     -1.100792
  O      -0.958783      6.551834     -0.619592
  C      -0.434341      6.383281      0.709143
  H      -2.259991      5.554772     -4.422915
  H      -2.597118      4.225915     -3.242686
  H      -0.935519      4.452638     -3.869924
  H       0.565049      5.927113      0.657593
  H      -1.097859      5.721917      1.285851
  H      -0.398537      7.383561      1.136045
25
Coordinates from ORCA-job DMC_m1_shell2_oxidized_opt_relaxed E -694.021581743783
  C      -2.042862     -0.633468      1.172040
  O      -0.767479     -1.152036      0.752064
  C       0.064041     -0.357302      0.091837
  O      -0.129143      0.809253     -0.223399
  O       1.149892     -1.077786     -0.166636
  C       2.239638     -0.465380     -0.877794
  H      -2.530838     -1.453551      1.694799
  H      -2.619769     -0.317690      0.290726
  H      -1.889778      0.233046      1.831039
  H       2.595372      0.415102     -0.323148
  H       1.895685     -0.143150     -1.871992
  H       3.006940     -1.233404     -0.950507
  Li     -0.468861      2.570044     -0.671530
  C      -1.854557      4.971881     -3.599625
  O      -1.597900      5.920443     -2.548431
  C      -1.119369      5.483843     -1.389998
  O      -0.855988      4.325634     -1.095262
  O      -0.954684      6.554827     -0.622328
  C      -0.419070      6.387882      0.702303
  H      -2.230413      5.559674     -4.434832
  H      -2.596585      4.235196     -3.258460
  H      -0.923073      4.448357     -3.859878
  H       0.573125      5.917045      0.643881
  H      -1.086891      5.740700      1.290152
  H      -0.364499      7.390600      1.121730
25
Coordinates from ORCA-job DMC_m1_shell2_oxidized_opt_relaxed E -694.021580284607
  C      -2.043736     -0.628596      1.172106
  O      -0.769819     -1.151094      0.752402
  C       0.062773     -0.360111      0.088939
  O      -0.126862      0.806919     -0.226735
  O       1.149031     -1.081912     -0.163646
  C       2.241943     -0.471694     -0.872045
  H      -2.532477     -1.445883      1.698543
  H      -2.621186     -0.315493      0.290184
  H      -1.888233      0.240082      1.827637
  H       2.595730      0.410036     -0.318233
  H       1.902012     -0.152563     -1.868607
  H       3.009248     -1.240210     -0.939537
  Li     -0.458718      2.570559     -0.677231
  C      -1.872738      4.972604     -3.593888
  O      -1.602333      5.922298     -2.547032
  C      -1.096000      5.488435     -1.399250
  O      -0.837860      4.329311     -1.103497
  O      -0.957673      6.555535     -0.620895
  C      -0.434068      6.386267      0.708340
  H      -2.269611      5.558242     -4.420954
  H      -2.602285      4.230034     -3.238784
  H      -0.942326      4.456897     -3.873092
  H       0.565949      5.931423      0.656818
  H      -1.098331      5.724501      1.283836
  H      -0.399448      7.386413      1.136042
25
Coordinates from ORCA-job DMC_m1_shell2_oxidized_opt_relaxed E -694.021571391362
  C      -2.042881     -0.641817      1.171470
  O      -0.766221     -1.157910      0.752038
  C       0.064567     -0.360788      0.093615
  O      -0.131135      0.805589     -0.220768
  O       1.151637     -1.079079     -0.165379
  C       2.240674     -0.463945     -0.875652
  H      -2.529147     -1.462705      1.694591
  H      -2.620261     -0.328472      0.289587
  H      -1.891764      0.225410      1.829912
  H       2.593826      0.417155     -0.320508
  H       1.896701     -0.143430     -1.870358
  H       3.009792     -1.230257     -0.947568
  Li     -0.472191      2.569547     -0.670125
  C      -1.854520      4.975959     -3.601376
  O      -1.598264      5.924367     -2.549732
  C      -1.124143      5.486675     -1.389465
  O      -0.860688      4.328430     -1.095119
  O      -0.952319      6.558671     -0.624259
  C      -0.413400      6.391754      0.699254
  H      -2.226263      5.564553     -4.438105
  H      -2.600233      4.242080     -3.261805
  H      -0.923533      4.449861     -3.858612
  H       0.576442      5.916106      0.638564
  H      -1.083395      5.749497      1.290261
  H      -0.352684      7.395225      1.116536
25
Coordinates from ORCA-job DMC_m1_shell2_oxidized_opt_relaxed E -694.021557837257
  C      -2.044060     -0.634399      1.172107
  O      -0.769519     -1.155657      0.752613
  C       0.062605     -0.363643      0.089540
  O      -0.127964      0.803383     -0.225532
  O       1.150001     -1.083982     -0.161923
  C       2.242986     -0.471946     -0.868957
  H      -2.531323     -1.451683      1.699955
  H      -2.622346     -0.324043      0.289734
  H      -1.889636      0.235590      1.826090
  H       2.594000      0.410805     -0.315148
  H       1.903979     -0.154953     -1.866498
  H       3.011917     -1.239020     -0.934524
  Li     -0.457958      2.570317     -0.677873
  C      -1.878232      4.975938     -3.593490
  O      -1.604099      5.925844     -2.547617
  C      -1.091432      5.492008     -1.402055
  O      -0.835188      4.332608     -1.106103
  O      -0.957074      6.558835     -0.621882
  C      -0.434634      6.389118      0.707939
  H      -2.278546      5.561474     -4.419245
  H      -2.606487      4.233348     -3.235353
  H      -0.948370      4.460834     -3.876178
  H       0.566164      5.935664      0.656765
  H      -1.099252      5.726343      1.282135
  H      -0.401636      7.389155      1.136568
25
Coordinates from ORCA-job DMC_m1_shell2_oxidized_opt_relaxed E -694.021541594363
  C      -2.042608     -0.648761      1.171266
  O      -0.765048     -1.162916      0.752094
  C       0.065104     -0.363760      0.095134
  O      -0.132830      0.802417     -0.218501
  O       1.153102     -1.080369     -0.164464
  C       2.241553     -0.463113     -0.874019
  H      -2.527342     -1.470100      1.695113
  H      -2.620655     -0.337622      0.289005
  H      -1.893059      0.219443      1.828729
  H       2.592464      0.418738     -0.318778
  H       1.897680     -0.144093     -1.869222
  H       3.012203     -1.227984     -0.945096
  Li     -0.475188      2.568999     -0.668830
  C      -1.854147      4.979735     -3.603179
  O      -1.598311      5.927891     -2.551054
  C      -1.128659      5.488859     -1.388788
  O      -0.865045      4.330679     -1.094840
  O      -0.950305      6.562100     -0.625886
  C      -0.408808      6.395251      0.696744
  H      -2.222044      5.569075     -4.441387
  H      -2.603275      4.248343     -3.265125
  H      -0.923678      4.450994     -3.857510
  H       0.578876      5.915052      0.634407
  H      -1.080898      5.757322      1.290427
  H      -0.342662      7.399402      1.112181
25
Coordinates from ORCA-job DMC_m1_shell2_oxidized_opt_relaxed E -694.021526101993
  C      -2.044151     -0.639924      1.172552
  O      -0.769106     -1.159829      0.752922
  C       0.062380     -0.366707      0.090109
  O      -0.129187      0.800297     -0.224349
  O       1.150787     -1.085637     -0.160690
  C       2.243586     -0.471785     -0.866652
  H      -2.529782     -1.457230      1.701891
  H      -2.623533     -0.332183      0.289949
  H      -1.890780      0.231437      1.824893
  H       2.592024      0.412031     -0.313031
  H       1.905224     -0.156653     -1.864999
  H       3.014109     -1.237399     -0.930666
  Li     -0.457557      2.569989     -0.678241
  C      -1.882290      4.978936     -3.593452
  O      -1.605436      5.928952     -2.548269
  C      -1.087696      5.494892     -1.404335
  O      -0.833120      4.335332     -1.108163
  O      -0.956655      6.561825     -0.622727
  C      -0.435033      6.391888      0.707521
  H      -2.284832      5.564445     -4.418426
  H      -2.609832      4.236431     -3.233202
  H      -0.952820      4.464021     -3.878426
  H       0.566249      5.939099      0.656560
  H      -1.100073      5.728608      1.280952
  H      -0.402882      7.391954      1.136708
25
Coordinates from ORCA-job DMC_m1_shell2_oxidized_opt_relaxed E -694.021514026923
  C      -2.042248     -0.654430      1.171385
  O      -0.764088     -1.167099      0.752206
  C       0.065521     -0.366341      0.096332
  O      -0.134230      0.799675     -0.216665
  O       1.154235     -1.081630     -0.163775
  C       2.242251     -0.462700     -0.872678
  H      -2.525536     -1.475932      1.696311
  H      -2.621168     -0.345486      0.288881
  H      -1.893886      0.214928      1.827549
  H       2.591135      0.419978     -0.317584
  H       1.898624     -0.145156     -1.868430
  H       3.014241     -1.226325     -0.942783
  Li     -0.477371      2.568489     -0.667867
  C      -1.854256      4.982985     -3.604585
  O      -1.598295      5.930966     -2.552233
  C      -1.131617      5.490742     -1.388502
  O      -0.868079      4.332646     -1.094818
  O      -0.948748      6.565088     -0.627217
  C      -0.405828      6.398218      0.694937
  H      -2.219632      5.572839     -4.443771
  H      -2.605844      4.253502     -3.267315
  H      -0.924335      4.452167     -3.857089
  H       0.580273      5.914654      0.631769
  H      -1.079697      5.763432      1.290288
  H      -0.335898      7.402825      1.109134
25
Coordinates from ORCA-job DMC_m1_shell2_oxidized_opt_relaxed E -694.021504833652
  C      -2.044027     -0.645028      1.173202
  O      -0.768571     -1.163576      0.753230
  C       0.062189     -0.369318      0.090646
  O      -0.130504      0.797649     -0.223198
  O       1.151497     -1.086886     -0.159844
  C       2.243982     -0.471313     -0.864938
  H      -2.527954     -1.462333      1.704121
  H      -2.624667     -0.339871      0.290484
  H      -1.891639      0.227742      1.823828
  H       2.590027      0.413577     -0.311630
  H       1.906121     -0.157936     -1.864012
  H       3.016028     -1.235512     -0.927578
  Li     -0.457795      2.569612     -0.678289
  C      -1.884811      4.981625     -3.593727
  O      -1.606241      5.931676     -2.548957
  C      -1.085590      5.497182     -1.405867
  O      -0.832264      4.337556     -1.109552
  O      -0.956151      6.564445     -0.623559
  C      -0.434800      6.394354      0.706861
  H      -2.288108      5.567221     -4.418446
  H      -2.612442      4.239581     -3.232390
  H      -0.955716      4.466334     -3.879665
  H       0.566427      5.941204      0.655890
  H      -1.100486      5.731449      1.280181
  H      -0.402325      7.394533      1.136117
25
Coordinates from ORCA-job DMC_m1_shell2_oxidized_opt_relaxed E -694.021513099477
  C      -2.041919     -0.657934      1.171453
  O      -0.763588     -1.170118      0.752260
  C       0.065866     -0.368548      0.097038
  O      -0.134975      0.797369     -0.215545
  O       1.154999     -1.083135     -0.163063
  C       2.243116     -0.463323     -0.871116
  H      -2.524164     -1.479012      1.697992
  H      -2.621726     -0.351268      0.288689
  H      -1.894092      0.212842      1.825807
  H       2.590170      0.420255     -0.316410
  H       1.900279     -0.147421     -1.867653
  H       3.016112     -1.226074     -0.939682
  Li     -0.478145      2.568117     -0.667609
  C      -1.856079      4.985570     -3.605014
  O      -1.598393      5.933583     -2.553086
  C      -1.132040      5.492593     -1.389045
  O      -0.868965      4.334523     -1.095505
  O      -0.947701      6.567457     -0.628200
  C      -0.405201      6.400203      0.694127
  H      -2.221620      5.575554     -4.444075
  H      -2.608364      4.257144     -3.266822
  H      -0.926945      4.453651     -3.858072
  H       0.580409      5.915632      0.631343
  H      -1.080173      5.766322      1.289283
  H      -0.334533      7.404796      1.108296
25
Coordinates from ORCA-job DMC_m1_shell2_oxidized_opt_relaxed E -694.021505898934
  C      -2.043789     -0.648792      1.173611
  O      -0.768118     -1.166512      0.753358
  C       0.062249     -0.371385      0.091131
  O      -0.131414      0.795520     -0.222274
  O       1.152127     -1.088032     -0.159206
  C       2.244567     -0.471289     -0.863439
  H      -2.526307     -1.465791      1.706280
  H      -2.625605     -0.346160      0.290754
  H      -1.892061      0.225467      1.822324
  H       2.588516      0.414644     -0.310587
  H       1.907425     -0.159663     -1.863308
  H       3.017834     -1.234383     -0.924523
  Li     -0.458358      2.569289     -0.678213
  C      -1.886545      4.983921     -3.593930
  O      -1.606487      5.934017     -2.549590
  C      -1.085196      5.499014     -1.406689
  O      -0.832545      4.339373     -1.110425
  O      -0.955330      6.566549     -0.624442
  C      -0.434336      6.396107      0.706106
  H      -2.290236      5.569599     -4.418419
  H      -2.614413      4.242481     -3.231772
  H      -0.958012      4.467980     -3.880563
  H       0.566604      5.942298      0.655347
  H      -1.100737      5.733756      1.279263
  H      -0.401341      7.396274      1.135387
25
Coordinates from ORCA-job DMC_m1_shell2_oxidized_opt_relaxed E -694.021518364579
  C      -2.041705     -0.661318      1.171723
  O      -0.763178     -1.172763      0.752319
  C       0.066013     -0.370359      0.097612
  O      -0.135738      0.795479     -0.214609
  O       1.155565     -1.084203     -0.162518
  C       2.243676     -0.463404     -0.869794
  H      -2.522620     -1.482051      1.700019
  H      -2.622633     -0.357170      0.288775
  H      -1.894517      0.210971      1.824148
  H       2.588773      0.421202     -0.315597
  H       1.901541     -0.149234     -1.867126
  H       3.017793     -1.225160     -0.936823
  Li     -0.478708      2.567846     -0.667461
  C      -1.857645      4.987654     -3.605236
  O      -1.598503      5.935701     -2.553695
  C      -1.131954      5.494298     -1.389695
  O      -0.869410      4.336200     -1.096234
  O      -0.946837      6.569337     -0.629052
  C      -0.404743      6.401750      0.693421
  H      -2.223624      5.577691     -4.444071
  H      -2.610103      4.259774     -3.266238
  H      -0.929060      4.455141     -3.859027
  H       0.580583      5.916612      0.630919
  H      -1.080349      5.768358      1.288383
  H      -0.333642      7.406296      1.107632
25
Coordinates from ORCA-job DMC_m1_shell2_oxidized_opt_relaxed E -694.021510012485
  C      -2.043585     -0.652023      1.173936
  O      -0.767735     -1.168986      0.753415
  C       0.062292     -0.373081      0.091531
  O      -0.132231      0.793765     -0.221501
  O       1.152663     -1.088934     -0.158684
  C       2.245125     -0.471171     -0.862060
  H      -2.524651     -1.468620      1.708549
  H      -2.626651     -0.352121      0.290915
  H      -1.892506      0.223875      1.820534
  H       2.586968      0.415886     -0.309791
  H       1.908779     -0.161397     -1.862786
  H       3.019581     -1.233200     -0.921451
  Li     -0.458935      2.569017     -0.678143
  C      -1.888055      4.985876     -3.594069
  O      -1.606573      5.935976     -2.550126
  C      -1.085080      5.500598     -1.407332
  O      -0.832962      4.340902     -1.111150
  O      -0.954468      6.568243     -0.625225
  C      -0.433809      6.397459      0.705421
  H      -2.292122      5.571641     -4.418309
  H      -2.616051      4.244921     -3.231179
  H      -0.960062      4.469367     -3.881417
  H       0.566901      5.943149      0.654842
  H      -1.100727      5.735490      1.278416
  H      -0.400390      7.397588      1.134760
25
Coordinates from ORCA-job DMC_m1_shell2_oxidized_opt_relaxed E -694.021522529318
  C      -2.041564     -0.664355      1.171906
  O      -0.762854     -1.175065      0.752289
  C       0.066076     -0.371876      0.098060
  O      -0.136492      0.793890     -0.213835
  O       1.156061     -1.084996     -0.162028
  C       2.244218     -0.463226     -0.868439
  H      -2.521062     -1.484672      1.702141
  H      -2.623697     -0.362956      0.288755
  H      -1.895044      0.209591      1.822201
  H       2.587220      0.422509     -0.314833
  H       1.902896     -0.150904     -1.866644
  H       3.019504     -1.223945     -0.933766
  Li     -0.479256      2.567601     -0.667362
  C      -1.859121      4.989455     -3.605381
  O      -1.598613      5.937479     -2.554172
  C      -1.131886      5.495773     -1.390268
  O      -0.869826      4.337603     -1.096895
  O      -0.946002      6.570851     -0.629776
  C      -0.404088      6.402977      0.692744
  H      -2.225536      5.579571     -4.443969
  H      -2.611631      4.261966     -3.265667
  H      -0.931009      4.456479     -3.859930
  H       0.581062      5.917494      0.630308
  H      -1.080020      5.769849      1.287606
  H      -0.332645      7.407467      1.107025
25
Coordinates from ORCA-job DMC_m1_shell2_oxidized_opt_relaxed E -694.021513210548
  C      -2.043430     -0.654890      1.174205
  O      -0.767432     -1.171145      0.753380
  C       0.062281     -0.374504      0.091848
  O      -0.133028      0.792284     -0.220849
  O       1.153127     -1.089610     -0.158236
  C       2.245657     -0.470861     -0.860695
  H      -2.522988     -1.471003      1.710919
  H      -2.627823     -0.357890      0.291023
  H      -1.892977      0.222755      1.818514
  H       2.585292      0.417402     -0.309090
  H       1.910200     -0.163046     -1.862342
  H       3.021328     -1.231802     -0.918251
  Li     -0.459512      2.568762     -0.678096
  C      -1.889371      4.987588     -3.594194
  O      -1.606691      5.937632     -2.550548
  C      -1.085023      5.501939     -1.407882
  O      -0.833388      4.342162     -1.111792
  O      -0.953695      6.569614     -0.625868
  C      -0.433071      6.398548      0.704757
  H      -2.293974      5.573441     -4.418116
  H      -2.617249      4.246835     -3.230648
  H      -0.961767      4.470811     -3.882351
  H       0.567539      5.944027      0.654115
  H      -1.100164      5.736697      1.277684
  H      -0.399398      7.398626      1.134209
25
Coordinates from ORCA-job DMC_m1_shell2_oxidized_opt_relaxed E -694.021526001925
  C      -2.041493     -0.667168      1.172089
  O      -0.762590     -1.177092      0.752198
  C       0.066100     -0.373121      0.098491
  O      -0.137224      0.792575     -0.213113
  O       1.156471     -1.085565     -0.161653
  C       2.244655     -0.462836     -0.867226
  H      -2.519466     -1.487049      1.704383
  H      -2.624931     -0.368694      0.288746
  H      -1.895676      0.208522      1.820125
  H       2.585507      0.424100     -0.314305
  H       1.904146     -0.152455     -1.866335
  H       3.021139     -1.222488     -0.930795
  Li     -0.479760      2.567393     -0.667252
  C      -1.860399      4.990986     -3.605497
  O      -1.598708      5.938969     -2.554567
  C      -1.131785      5.497025     -1.390774
  O      -0.870174      4.338775     -1.097476
  O      -0.945228      6.572104     -0.630402
  C      -0.403384      6.403990      0.692115
  H      -2.227341      5.581167     -4.443811
  H      -2.612787      4.263688     -3.265120
  H      -0.932636      4.457763     -3.860836
  H       0.581674      5.918327      0.629636
  H      -1.079458      5.770969      1.286916
  H      -0.331704      7.408430      1.106479
25
Coordinates from ORCA-job DMC_m1_shell2_oxidized_opt_relaxed E -694.021516047212
  C      -2.043314     -0.657499      1.174465
  O      -0.767175     -1.173040      0.753296
  C       0.062208     -0.375706      0.092069
  O      -0.133833      0.791031     -0.220304
  O       1.153535     -1.090077     -0.157859
  C       2.246134     -0.470355     -0.859398
  H      -2.521246     -1.473059      1.713478
  H      -2.629146     -0.363655      0.291118
  H      -1.893504      0.222037      1.816275
  H       2.583443      0.419229     -0.308585
  H       1.911617     -0.164669     -1.862036
  H       3.023078     -1.230153     -0.914972
  Li     -0.460081      2.568528     -0.678067
  C      -1.890573      4.989059     -3.594279
  O      -1.606770      5.939035     -2.550898
  C      -1.084970      5.503066     -1.408350
  O      -0.833783      4.343201     -1.112354
  O      -0.952890      6.570748     -0.626442
  C      -0.432306      6.399422      0.704164
  H      -2.295646      5.575005     -4.417902
  H      -2.618317      4.248473     -3.230145
  H      -0.963324      4.472048     -3.883194
  H       0.568232      5.944745      0.653447
  H      -1.099511      5.737636      1.277024
  H      -0.398406      7.399447      1.133724
25
Coordinates from ORCA-job DMC_m1_shell2_oxidized_opt_relaxed E -694.021528239920
  C      -2.041421     -0.669660      1.172257
  O      -0.762370     -1.178875      0.752057
  C       0.066080     -0.374167      0.098845
  O      -0.137964      0.791464     -0.212483
  O       1.156830     -1.085964     -0.161344
  C       2.245067     -0.462316     -0.866063
  H      -2.517806     -1.489003      1.706809
  H      -2.626252     -0.374324      0.288720
  H      -1.896265      0.207907      1.817826
  H       2.583667      0.425923     -0.313941
  H       1.905442     -0.154035     -1.866148
  H       3.022785     -1.220868     -0.927719
  Li     -0.480287      2.567197     -0.667157
  C      -1.861515      4.992337     -3.605611
  O      -1.598795      5.940247     -2.554893
  C      -1.131732      5.498072     -1.391200
  O      -0.870543      4.339733     -1.097987
  O      -0.944479      6.573123     -0.630937
  C      -0.402601      6.404777      0.691537
  H      -2.228996      5.582591     -4.443635
  H      -2.613702      4.265116     -3.264654
  H      -0.934026      4.458992     -3.861727
  H       0.582427      5.919072      0.628926
  H      -1.078679      5.771734      1.286291
  H      -0.330774      7.409153      1.106023
25
Coordinates from ORCA-job DMC_m1_shell2_oxidized_opt_relaxed E -694.021518988679
  C      -2.043188     -0.659800      1.174741
  O      -0.766952     -1.174704      0.753185
  C       0.062105     -0.376725      0.092232
  O      -0.134634      0.789965     -0.219837
  O       1.153883     -1.090404     -0.157571
  C       2.246568     -0.469755     -0.858192
  H      -2.519429     -1.474699      1.716261
  H      -2.630560     -0.369334      0.291235
  H      -1.893979      0.221760      1.813834
  H       2.581474      0.421242     -0.308287
  H       1.913046     -0.166350     -1.861883
  H       3.024809     -1.228384     -0.911649
  Li     -0.460673      2.568305     -0.678042
  C      -1.891533      4.990365     -3.594388
  O      -1.606845      5.940242     -2.551184
  C      -1.084988      5.504000     -1.408730
  O      -0.834217      4.344043     -1.112839
  O      -0.952159      6.571673     -0.626919
  C      -0.431468      6.400110      0.703612
  H      -2.297168      5.576392     -4.417679
  H      -2.618989      4.249747     -3.229757
  H      -0.964515      4.473347     -3.884074
  H       0.569097      5.945499      0.652695
  H      -1.098581      5.738199      1.276422
  H      -0.397506      7.400065      1.133339
25
Coordinates from ORCA-job DMC_m1_shell2_oxidized_opt_relaxed E -694.021530400893
  C      -2.041395     -0.671988      1.172411
  O      -0.762187     -1.180469      0.751881
  C       0.066031     -0.375026      0.099183
  O      -0.138702      0.790543     -0.211883
  O       1.157127     -1.086202     -0.161126
  C       2.245393     -0.461645     -0.865031
  H      -2.516086     -1.490736      1.709390
  H      -2.627712     -0.380030      0.288672
  H      -1.896940      0.207584      1.815325
  H       2.581665      0.427992     -0.313828
  H       1.906659     -0.155613     -1.866138
  H       3.024388     -1.219053     -0.924679
  Li     -0.480794      2.567032     -0.667042
  C      -1.862463      4.993458     -3.605684
  O      -1.598873      5.941312     -2.555156
  C      -1.131641      5.498957     -1.391571
  O      -0.870860      4.340532     -1.098422
  O      -0.943773      6.573979     -0.631415
  C      -0.401800      6.405442      0.690992
  H      -2.230490      5.583756     -4.443439
  H      -2.614373      4.266211     -3.264199
  H      -0.935163      4.460105     -3.862528
  H       0.583279      5.919854      0.628182
  H      -1.077746      5.772243      1.285708
  H      -0.329949      7.409756      1.105621
25
Coordinates from ORCA-job DMC_m1_shell2_oxidized_opt_relaxed E -694.021520682898
  C      -2.043082     -0.661973      1.175088
  O      -0.766762     -1.176205      0.753037
  C       0.061937     -0.377594      0.092313
  O      -0.135466      0.789058     -0.219445
  O       1.154178     -1.090567     -0.157364
  C       2.246931     -0.468972     -0.857072
  H      -2.517480     -1.476161      1.719309
  H      -2.632145     -0.375127      0.291456
  H      -1.894481      0.221733      1.811270
  H       2.579300      0.423553     -0.308199
  H       1.914440     -0.168031     -1.861879
  H       3.026541     -1.226359     -0.908272
  Li     -0.461244      2.568106     -0.678028
  C      -1.892377      4.991465     -3.594462
  O      -1.606904      5.941259     -2.551418
  C      -1.084917      5.504793     -1.409079
  O      -0.834565      4.344744     -1.113273
  O      -0.951421      6.572448     -0.627351
  C      -0.430678      6.400670      0.703132
  H      -2.298521      5.577556     -4.417455
  H      -2.619539      4.250791     -3.229385
  H      -0.965549      4.474474     -3.884847
  H       0.569887      5.946070      0.652056
  H      -1.097738      5.738693      1.275902
  H      -0.396588      7.400565      1.132979
25
Coordinates from ORCA-job DMC_m1_shell2_oxidized_opt_relaxed E -694.021531577080
  C      -2.041355     -0.674080      1.172592
  O      -0.762034     -1.181887      0.751668
  C       0.065959     -0.375745      0.099472
  O      -0.139440      0.789767     -0.211341
  O       1.157377     -1.086334     -0.160988
  C       2.245693     -0.460897     -0.864061
  H      -2.514269     -1.492139      1.712200
  H      -2.629269     -0.385719      0.288666
  H      -1.897558      0.207621      1.812645
  H       2.579541      0.430227     -0.313885
  H       1.907917     -0.157274     -1.866259
  H       3.026000     -1.217129     -0.921558
  Li     -0.481309      2.566879     -0.666927
  C      -1.863289      4.994442     -3.605762
  O      -1.598919      5.942227     -2.555390
  C      -1.131583      5.499691     -1.391882
  O      -0.871184      4.341181     -1.098797
  O      -0.943063      6.574685     -0.631840
  C      -0.401017      6.405959      0.690515
  H      -2.231853      5.584788     -4.443246
  H      -2.614904      4.267128     -3.263800
  H      -0.936146      4.461131     -3.863308
  H       0.584084      5.920430      0.627536
  H      -1.076875      5.772655      1.285197
  H      -0.329089      7.410217      1.105261
25
Coordinates from ORCA-job DMC_m1_shell2_oxidized_opt_relaxed E -694.021521782054
  C      -2.043028     -0.664049      1.175399
  O      -0.766612     -1.177575      0.752834
  C       0.061741     -0.378329      0.092370
  O      -0.136300      0.788287     -0.219086
  O       1.154435     -1.090605     -0.157207
  C       2.247268     -0.468048     -0.855965
  H      -2.515467     -1.477473      1.722479
  H      -2.633871     -0.381066      0.291639
  H      -1.895086      0.221922      1.808485
  H       2.576982      0.426088     -0.308212
  H       1.915872     -0.169715     -1.861948
  H       3.028299     -1.224138     -0.904782
  Li     -0.461795      2.567926     -0.678009
  C      -1.893208      4.992417     -3.594495
  O      -1.606942      5.942132     -2.551615
  C      -1.084801      5.505459     -1.409393
  O      -0.834861      4.345319     -1.113657
  O      -0.950702      6.573099     -0.627738
  C      -0.429824      6.401134      0.702666
  H      -2.299784      5.578579     -4.417219
  H      -2.620129      4.251730     -3.229000
  H      -0.966581      4.475405     -3.885526
  H       0.570758      5.946585      0.651375
  H      -1.096772      5.739067      1.275439
  H      -0.395622      7.400977      1.132620
25
Coordinates from ORCA-job DMC_m1_shell2_oxidized_opt_relaxed E -694.021532304569
  C      -2.041354     -0.676010      1.172678
  O      -0.761921     -1.183170      0.751390
  C       0.065861     -0.376357      0.099698
  O      -0.140175      0.789103     -0.210865
  O       1.157612     -1.086366     -0.160854
  C       2.246020     -0.460068     -0.863042
  H      -2.512408     -1.493277      1.715121
  H      -2.630936     -0.391529      0.288535
  H      -1.898250      0.207979      1.809628
  H       2.577290      0.432663     -0.314016
  H       1.909315     -0.159062     -1.866425
  H       3.027698     -1.215067     -0.918174
  Li     -0.481825      2.566736     -0.666819
  C      -1.864130      4.995294     -3.605791
  O      -1.598967      5.943013     -2.555576
  C      -1.131540      5.500303     -1.392136
  O      -0.871503      4.341711     -1.099112
  O      -0.942352      6.575279     -0.632224
  C      -0.400120      6.406388      0.690034
  H      -2.233169      5.585698     -4.443022
  H      -2.615511      4.267966     -3.263367
  H      -0.937169      4.461966     -3.863997
  H       0.585010      5.920939      0.626813
  H      -1.075832      5.772969      1.284741
  H      -0.328107      7.410595      1.104885
25
Coordinates from ORCA-job DMC_m1_shell2_oxidized_opt_relaxed E -694.021524191161
  C      -2.042957     -0.665843      1.175617
  O      -0.766489     -1.178794      0.752592
  C       0.061554     -0.378961      0.092396
  O      -0.137112      0.787623     -0.218769
  O       1.154670     -1.090587     -0.157080
  C       2.247628     -0.467142     -0.854873
  H      -2.513416     -1.478341      1.725796
  H      -2.635633     -0.386995      0.291695
  H      -1.895647      0.222563      1.805332
  H       2.574580      0.428722     -0.308394
  H       1.917434     -0.171639     -1.862127
  H       3.030109     -1.221909     -0.901091
  Li     -0.462380      2.567751     -0.677977
  C      -1.893942      4.993266     -3.594527
  O      -1.606976      5.942891     -2.551776
  C      -1.084797      5.506000     -1.409626
  O      -0.835232      4.345773     -1.113967
  O      -0.950000      6.573632     -0.628077
  C      -0.428894      6.401492      0.702217
  H      -2.300988      5.579501     -4.416967
  H      -2.620583      4.252507     -3.228643
  H      -0.967478      4.476303     -3.886208
  H       0.571714      5.947018      0.650648
  H      -1.095678      5.739313      1.275029
  H      -0.394583      7.401283      1.132282
25
Coordinates from ORCA-job DMC_m1_shell2_oxidized_opt_relaxed E -694.021532915145
  C      -2.041320     -0.677774      1.172843
  O      -0.761818     -1.184334      0.751115
  C       0.065752     -0.376865      0.099910
  O      -0.140912      0.788546     -0.210411
  O       1.157795     -1.086323     -0.160814
  C       2.246281     -0.459194     -0.862161
  H      -2.510418     -1.494148      1.718339
  H      -2.632696     -0.397420      0.288505
  H      -1.898883      0.208639      1.806463
  H       2.574881      0.435257     -0.314441
  H       1.910676     -0.161013     -1.866796
  H       3.029376     -1.212915     -0.914785
  Li     -0.482355      2.566610     -0.666695
  C      -1.864761      4.996038     -3.605842
  O      -1.598990      5.943688     -2.555734
  C      -1.131510      5.500819     -1.392351
  O      -0.871829      4.342146     -1.099376
  O      -0.941691      6.575769     -0.632564
  C      -0.399283      6.406717      0.689603
  H      -2.234277      5.586486     -4.442833
  H      -2.615843      4.268595     -3.263037
  H      -0.937895      4.462813     -3.864657
  H       0.585906      5.921410      0.626136
  H      -1.074808      5.773127      1.284315
  H      -0.327248      7.410868      1.104575
25
Coordinates from ORCA-job DMC_m1_shell2_oxidized_opt_relaxed E -694.021524917802
  C      -2.042914     -0.667683      1.175971
  O      -0.766388     -1.179948      0.752329
  C       0.061325     -0.379493      0.092410
  O      -0.137944      0.787063     -0.218462
  O       1.154850     -1.090456     -0.157046
  C       2.247889     -0.466072     -0.853900
  H      -2.511203     -1.479257      1.729382
  H      -2.637590     -0.393185      0.291952
  H      -1.896285      0.223235      1.802175
  H       2.571958      0.431616     -0.308812
  H       1.918897     -0.173566     -1.862466
  H       3.031890     -1.219432     -0.897431
  Li     -0.462917      2.567607     -0.677940
  C      -1.894603      4.993975     -3.594536
  O      -1.606959      5.943537     -2.551928
  C      -1.084639      5.506477     -1.409880
  O      -0.835477      4.346164     -1.114260
  O      -0.949333      6.574093     -0.628387
  C      -0.428068      6.401800      0.701828
  H      -2.301934      5.580276     -4.416778
  H      -2.621086      4.253245     -3.228328
  H      -0.968321      4.476950     -3.886714
  H       0.572568      5.947401      0.650028
  H      -1.094707      5.739527      1.274670
  H      -0.393653      7.401547      1.131979
25
Coordinates from ORCA-job DMC_m1_shell2_oxidized_opt_relaxed E -694.021534826279
  C      -2.041336     -0.679565      1.173053
  O      -0.761758     -1.185434      0.750767
  C       0.065581     -0.377305      0.100035
  O      -0.141679      0.788066     -0.210028
  O       1.157953     -1.086175     -0.160805
  C       2.246544     -0.458150     -0.861207
  H      -2.508290     -1.495022      1.721773
  H      -2.634665     -0.403593      0.288568
  H      -1.899614      0.209382      1.803161
  H       2.572267      0.438130     -0.314874
  H       1.912158     -0.162976     -1.867179
  H       3.031149     -1.210493     -0.911132
  Li     -0.482845      2.566500     -0.666605
  C      -1.865476      4.996652     -3.605814
  O      -1.598986      5.944267     -2.555872
  C      -1.131358      5.501269     -1.392575
  O      -0.872047      4.342516     -1.099632
  O      -0.941020      6.576194     -0.632881
  C      -0.398423      6.407008      0.689194
  H      -2.235304      5.587147     -4.442633
  H      -2.616429      4.269271     -3.262616
  H      -0.938798      4.463325     -3.865132
  H       0.586764      5.921712      0.625492
  H      -1.073836      5.773376      1.283974
  H      -0.326230      7.411130      1.104216
25
Coordinates from ORCA-job DMC_m1_shell2_oxidized_opt_relaxed E -694.021527404702
  C      -2.042839     -0.669296      1.176307
  O      -0.766305     -1.180974      0.752031
  C       0.061098     -0.379951      0.092373
  O      -0.138758      0.786580     -0.218210
  O       1.155002     -1.090301     -0.157062
  C       2.248183     -0.465038     -0.852925
  H      -2.508874     -1.479794      1.733216
  H      -2.639621     -0.399444      0.292194
  H      -1.896855      0.224309      1.798709
  H       2.569230      0.434593     -0.309371
  H       1.920534     -0.175759     -1.862904
  H       3.033743     -1.216952     -0.893525
  Li     -0.463480      2.567471     -0.677905
  C      -1.895158      4.994609     -3.594541
  O      -1.606931      5.944102     -2.552048
  C      -1.084600      5.506865     -1.410058
  O      -0.835791      4.346472     -1.114493
  O      -0.948658      6.574472     -0.628675
  C      -0.427223      6.402027      0.701458
  H      -2.302819      5.580973     -4.416576
  H      -2.621458      4.253860     -3.228021
  H      -0.969028      4.477571     -3.887213
  H       0.573399      5.947613      0.649443
  H      -1.093782      5.739729      1.274345
  H      -0.392641      7.401739      1.131675
25
Coordinates from ORCA-job DMC_m1_shell2_oxidized_opt_relaxed E -694.021535455296
  C      -2.041305     -0.681109      1.173220
  O      -0.761715     -1.186430      0.750392
  C       0.065409     -0.377689      0.100113
  O      -0.142444      0.787646     -0.209692
  O       1.158090     -1.086006     -0.160832
  C       2.246847     -0.457141     -0.860241
  H      -2.506069     -1.495470      1.725443
  H      -2.636672     -0.409824      0.288573
  H      -1.900252      0.210555      1.799506
  H       2.569534      0.441104     -0.315462
  H       1.913823     -0.165238     -1.867665
  H       3.033013     -1.208058     -0.907199
  Li     -0.483390      2.566388     -0.666506
  C      -1.866059      4.997213     -3.605806
  O      -1.598999      5.944771     -2.555971
  C      -1.131339      5.501635     -1.392724
  O      -0.872362      4.342803     -1.099822
  O      -0.940372      6.576535     -0.633161
  C      -0.397479      6.407222      0.688782
  H      -2.236261      5.587752     -4.442426
  H      -2.616804      4.269789     -3.262270
  H      -0.939500      4.463909     -3.865631
  H       0.587740      5.922029      0.624775
  H      -1.072688      5.773473      1.283647
  H      -0.325205      7.411300      1.103888
25
Coordinates from ORCA-job DMC_m1_shell2_oxidized_opt_relaxed E -694.021529994893
  C      -2.042801     -0.670824      1.176519
  O      -0.766273     -1.181959      0.751639
  C       0.060868     -0.380352      0.092329
  O      -0.139569      0.786158     -0.217965
  O       1.155148     -1.090091     -0.157081
  C       2.248525     -0.463942     -0.851860
  H      -2.506530     -1.480139      1.737094
  H      -2.641743     -0.405865      0.292301
  H      -1.897496      0.225591      1.794901
  H       2.566362      0.437751     -0.309966
  H       1.922368     -0.178118     -1.863356
  H       3.035712     -1.214335     -0.889290
  Li     -0.464056      2.567342     -0.677846
  C      -1.895768      4.995146     -3.594500
  O      -1.606945      5.944583     -2.552132
  C      -1.084568      5.507190     -1.410204
  O      -0.836112      4.346718     -1.114676
  O      -0.947982      6.574800     -0.628945
  C      -0.426221      6.402244      0.701049
  H      -2.303743      5.581565     -4.416337
  H      -2.621894      4.254395     -3.227665
  H      -0.969793      4.478085     -3.887650
  H       0.574415      5.947891      0.648711
  H      -1.092586      5.739877      1.274060
  H      -0.391499      7.401924      1.131323
25
Coordinates from ORCA-job DMC_m1_shell2_oxidized_opt_relaxed E -694.021537516768
  C      -2.041323     -0.682735      1.173429
  O      -0.761691     -1.187396      0.749986
  C       0.065215     -0.378001      0.100202
  O      -0.143217      0.787300     -0.209343
  O       1.158194     -1.085751     -0.160912
  C       2.247087     -0.456008     -0.859341
  H      -2.503722     -1.495972      1.729313
  H      -2.638862     -0.416416      0.288651
  H      -1.901040      0.211762      1.795705
  H       2.566563      0.444343     -0.316280
  H       1.915470     -0.167627     -1.868295
  H       3.034907     -1.205394     -0.903158
  Li     -0.483898      2.566307     -0.666390
  C      -1.866633      4.997660     -3.605759
  O      -1.599003      5.945192     -2.556056
  C      -1.131196      5.501968     -1.392887
  O      -0.872579      4.343060     -1.099992
  O      -0.939713      6.576844     -0.633442
  C      -0.396585      6.407425      0.688394
  H      -2.237133      5.588230     -4.442225
  H      -2.617219      4.270237     -3.261896
  H      -0.940198      4.464333     -3.866026
  H       0.588635      5.922254      0.624123
  H      -1.071649      5.773638      1.283364
  H      -0.324154      7.411480      1.103528
25
Coordinates from ORCA-job DMC_m1_shell2_oxidized_opt_relaxed E -694.021532552607
  C      -2.042733     -0.672339      1.176891
  O      -0.766239     -1.182889      0.751252
  C       0.060594     -0.380711      0.092215
  O      -0.140412      0.785784     -0.217776
  O       1.155259     -1.089823     -0.157165
  C       2.248829     -0.462766     -0.850842
  H      -2.503952     -1.480394      1.741377
  H      -2.644035     -0.412582      0.292640
  H      -1.898120      0.227029      1.791000
  H       2.563250      0.441147     -0.310791
  H       1.924258     -0.180685     -1.863954
  H       3.037741     -1.211528     -0.884864
  Li     -0.464637      2.567225     -0.677811
  C      -1.896283      4.995646     -3.594473
  O      -1.606909      5.945018     -2.552210
  C      -1.084504      5.507474     -1.410344
  O      -0.836405      4.346921     -1.114849
  O      -0.947297      6.575072     -0.629200
  C      -0.425310      6.402390      0.700695
  H      -2.304472      5.582137     -4.416148
  H      -2.622310      4.254939     -3.227384
  H      -0.970468      4.478509     -3.888019
  H       0.575297      5.947999      0.648107
  H      -1.091582      5.740036      1.273806
  H      -0.390376      7.402048      1.130999
25
Coordinates from ORCA-job DMC_m1_shell2_oxidized_opt_relaxed E -694.021538771341
  C      -2.041327     -0.684246      1.173624
  O      -0.761688     -1.188300      0.749535
  C       0.065029     -0.378262      0.100281
  O      -0.143980      0.787007     -0.209009
  O       1.158280     -1.085476     -0.161030
  C       2.247353     -0.454878     -0.858425
  H      -2.501271     -1.496245      1.733375
  H      -2.641133     -0.423156      0.288733
  H      -1.901810      0.213215      1.791652
  H       2.563448      0.447706     -0.317237
  H       1.917278     -0.170273     -1.869010
  H       3.036887     -1.202667     -0.898858
  Li     -0.484423      2.566233     -0.666266
  C      -1.867184      4.998067     -3.605706
  O      -1.598984      5.945568     -2.556132
  C      -1.131114      5.502247     -1.393015
  O      -0.872836      4.343264     -1.100130
  O      -0.939040      6.577103     -0.633710
  C      -0.395669      6.407576      0.688019
  H      -2.237906      5.588681     -4.442043
  H      -2.617689      4.270710     -3.261546
  H      -0.940903      4.464640     -3.866354
  H       0.589532      5.922393      0.623490
  H      -1.070611      5.773780      1.283098
  H      -0.323056      7.411607      1.103174
25
Coordinates from ORCA-job DMC_m1_shell2_oxidized_opt_relaxed E -694.021534863346
  C      -2.042667     -0.673781      1.177243
  O      -0.766229     -1.183774      0.750830
  C       0.060300     -0.381038      0.092060
  O      -0.141263      0.785446     -0.217623
  O       1.155361     -1.089519     -0.157255
  C       2.249147     -0.461563     -0.849796
  H      -2.501270     -1.480459      1.745859
  H      -2.646429     -0.419527      0.292974
  H      -1.898777      0.228684      1.786819
  H       2.559938      0.444738     -0.311795
  H       1.926296     -0.183551     -1.864641
  H       3.039874     -1.208592     -0.880120
  Li     -0.465226      2.567112     -0.677783
  C      -1.896746      4.996089     -3.594436
  O      -1.606924      5.945399     -2.552254
  C      -1.084440      5.507718     -1.410462
  O      -0.836696      4.347083     -1.114997
  O      -0.946654      6.575307     -0.629419
  C      -0.424314      6.402520      0.700327
  H      -2.305137      5.582643     -4.415965
  H      -2.622663      4.255386     -3.227136
  H      -0.971051      4.478919     -3.888330
  H       0.576282      5.948135      0.647403
  H      -1.090415      5.740148      1.273597
  H      -0.389182      7.402159      1.130661
25
Coordinates from ORCA-job DMC_m1_shell2_oxidized_opt_relaxed E -694.021540504332
  C      -2.041308     -0.685686      1.173867
  O      -0.761708     -1.189167      0.749047
  C       0.064817     -0.378499      0.100307
  O      -0.144762      0.786741     -0.208722
  O       1.158354     -1.085168     -0.161163
  C       2.247640     -0.453719     -0.857472
  H      -2.498682     -1.496339      1.737700
  H      -2.643515     -0.430086      0.288910
  H      -1.902547      0.214863      1.787409
  H       2.560125      0.451267     -0.318358
  H       1.919258     -0.173217     -1.869813
  H       3.038984     -1.199806     -0.894218
  Li     -0.484972      2.566158     -0.666158
  C      -1.867659      4.998458     -3.605669
  O      -1.599006      5.945910     -2.556178
  C      -1.131042      5.502486     -1.393125
  O      -0.873107      4.343426     -1.100251
  O      -0.938403      6.577317     -0.633943
  C      -0.394687      6.407684      0.687637
  H      -2.238624      5.589119     -4.441864
  H      -2.618041      4.271100     -3.261265
  H      -0.941486      4.465012     -3.866685
  H       0.590491      5.922491      0.622784
  H      -1.069470      5.773883      1.282876
  H      -0.321873      7.411695      1.102808
25
Coordinates from ORCA-job DMC_m1_shell2_oxidized_opt_relaxed E -694.021537242512
  C      -2.042621     -0.675279      1.177637
  O      -0.766237     -1.184648      0.750357
  C       0.060008     -0.381309      0.091940
  O      -0.142117      0.785164     -0.217438
  O       1.155434     -1.089165     -0.157406
  C       2.249437     -0.460282     -0.848786
  H      -2.498469     -1.480548      1.750492
  H      -2.648955     -0.426726      0.293408
  H      -1.899511      0.230344      1.782539
  H       2.556425      0.448526     -0.312991
  H       1.928397     -0.186582     -1.865439
  H       3.042052     -1.205482     -0.875221
  Li     -0.465801      2.567022     -0.677729
  C      -1.897237      4.996467     -3.594373
  O      -1.606886      5.945736     -2.552308
  C      -1.084315      5.507936     -1.410590
  O      -0.836942      4.347223     -1.115128
  O      -0.945969      6.575522     -0.629655
  C      -0.423380      6.402636      0.699988
  H      -2.305729      5.583086     -4.415798
  H      -2.623152      4.255885     -3.226856
  H      -0.971721      4.479132     -3.888551
  H       0.577133      5.948098      0.646817
  H      -1.089446      5.740391      1.273418
  H      -0.387922      7.402271      1.130290
25
Coordinates from ORCA-job DMC_m1_shell2_oxidized_opt_relaxed E -694.021542875682
  C      -2.041308     -0.687172      1.174142
  O      -0.761739     -1.190015      0.748523
  C       0.064584     -0.378702      0.100311
  O      -0.145559      0.786514     -0.208447
  O       1.158407     -1.084815     -0.161335
  C       2.247917     -0.452487     -0.856514
  H      -2.495955     -1.496426      1.742216
  H      -2.646034     -0.437328      0.289162
  H      -1.903376      0.216566      1.783005
  H       2.556578      0.455051     -0.319655
  H       1.921347     -0.176379     -1.870711
  H       3.041164     -1.196758     -0.889325
  Li     -0.485503      2.566102     -0.666050
  C      -1.868200      4.998773     -3.605582
  O      -1.598966      5.946211     -2.556237
  C      -1.130900      5.502709     -1.393242
  O      -0.873320      4.343573     -1.100359
  O      -0.937733      6.577520     -0.634184
  C      -0.393756      6.407792      0.687284
  H      -2.239220      5.589489     -4.441717
  H      -2.618655      4.271612     -3.260925
  H      -0.942232      4.465075     -3.866844
  H       0.591324      5.922428      0.622191
  H      -1.068510      5.774136      1.282698
  H      -0.320609      7.411799      1.102407
25
Coordinates from ORCA-job DMC_m1_shell2_oxidized_opt_relaxed E -694.021540424212
  C      -2.042545     -0.676653      1.178024
  O      -0.766265     -1.185476      0.749843
  C       0.059699     -0.381571      0.091748
  O      -0.142979      0.784897     -0.217314
  O       1.155502     -1.088806     -0.157563
  C       2.249788     -0.459021     -0.847692
  H      -2.495546     -1.480372      1.755347
  H      -2.651555     -0.434081      0.293873
  H      -1.900203      0.232264      1.777986
  H       2.552725      0.452468     -0.314319
  H       1.930765     -0.189986     -1.866291
  H       3.044377     -1.202285     -0.869881
  Li     -0.466405      2.566931     -0.677694
  C      -1.897713      4.996824     -3.594296
  O      -1.606859      5.946048     -2.552341
  C      -1.084251      5.508122     -1.410680
  O      -0.837232      4.347330     -1.115233
  O      -0.945295      6.575702     -0.629869
  C      -0.422374      6.402718      0.699637
  H      -2.306218      5.583526     -4.415655
  H      -2.623718      4.256429     -3.226594
  H      -0.972396      4.479243     -3.888680
  H       0.578041      5.948001      0.646174
  H      -1.088400      5.740617      1.273268
  H      -0.386563      7.402355      1.129903
25
Coordinates from ORCA-job DMC_m1_shell2_oxidized_opt_relaxed E -694.021546124566
  C      -2.041314     -0.688669      1.174462
  O      -0.761791     -1.190848      0.747963
  C       0.064343     -0.378869      0.100320
  O      -0.146359      0.786324     -0.208165
  O       1.158434     -1.084431     -0.161553
  C       2.248178     -0.451217     -0.855576
  H      -2.493113     -1.496463      1.746917
  H      -2.648666     -0.444794      0.289516
  H      -1.904245      0.218335      1.778478
  H       2.552806      0.459023     -0.321171
  H       1.923542     -0.179812     -1.871729
  H       3.043416     -1.193563     -0.884194
  Li     -0.486024      2.566064     -0.665931
  C      -1.868662      4.999045     -3.605499
  O      -1.598969      5.946468     -2.556265
  C      -1.130727      5.502915     -1.393358
  O      -0.873505      4.343705     -1.100451
  O      -0.937095      6.577700     -0.634415
  C      -0.392808      6.407896      0.686923
  H      -2.239736      5.589803     -4.441577
  H      -2.619164      4.272036     -3.260643
  H      -0.942858      4.465156     -3.866966
  H       0.592179      5.922378      0.621556
  H      -1.067497      5.774374      1.282537
  H      -0.319338      7.411901      1.101989
25
Coordinates from ORCA-job DMC_m1_shell2_oxidized_opt_relaxed E -694.021543776669
  C      -2.042461     -0.678033      1.178498
  O      -0.766300     -1.186275      0.749319
  C       0.059372     -0.381807      0.091528
  O      -0.143849      0.784659     -0.217212
  O       1.155545     -1.088423     -0.157767
  C       2.250125     -0.457731     -0.846618
  H      -2.492464     -1.480134      1.760453
  H      -2.654274     -0.441687      0.294491
  H      -1.900928      0.234265      1.773328
  H       2.548794      0.456599     -0.315888
  H       1.933251     -0.193693     -1.867267
  H       3.046777     -1.198941     -0.864282
  Li     -0.467007      2.566852     -0.677667
  C      -1.898105      4.997162     -3.594240
  O      -1.606836      5.946330     -2.552358
  C      -1.084184      5.508291     -1.410761
  O      -0.837511      4.347421     -1.115326
  O      -0.944643      6.575859     -0.630069
  C      -0.421381      6.402782      0.699299
  H      -2.306614      5.583945     -4.415536
  H      -2.624191      4.256920     -3.226400
  H      -0.972956      4.479376     -3.888797
  H       0.578911      5.947837      0.645546
  H      -1.087392      5.740875      1.273154
  H      -0.385173      7.402427      1.129506
25
Coordinates from ORCA-job DMC_m1_shell2_oxidized_opt_relaxed E -694.021548780231
  C      -2.041305     -0.690089      1.174775
  O      -0.761858     -1.191643      0.747369
  C       0.064108     -0.379011      0.100314
  O      -0.147149      0.786162     -0.207899
  O       1.158447     -1.084045     -0.161801
  C       2.248469     -0.449970     -0.854618
  H      -2.490177     -1.496325      1.751764
  H      -2.651354     -0.452400      0.289899
  H      -1.905114      0.220266      1.773754
  H       2.548861      0.463123     -0.322877
  H       1.925930     -0.183589     -1.872837
  H       3.045766     -1.190295     -0.878749
  Li     -0.486558      2.566035     -0.665807
  C      -1.869118      4.999279     -3.605398
  O      -1.598950      5.946700     -2.556293
  C      -1.130604      5.503097     -1.393444
  O      -0.873719      4.343816     -1.100515
  O      -0.936439      6.577864     -0.634642
  C      -0.391856      6.407982      0.686571
  H      -2.240136      5.590087     -4.441470
  H      -2.619772      4.272513     -3.260362
  H      -0.943514      4.465089     -3.866981
  H       0.592999      5.922231      0.620958
  H      -1.066542      5.774671      1.282401
  H      -0.318001      7.411993      1.101553
25
Coordinates from ORCA-job DMC_m1_shell2_oxidized_opt_relaxed E -694.021546547577
  C      -2.042388     -0.679473      1.179010
  O      -0.766354     -1.187082      0.748746
  C       0.059019     -0.382023      0.091288
  O      -0.144741      0.784444     -0.217119
  O       1.155573     -1.087998     -0.158001
  C       2.250459     -0.456361     -0.845520
  H      -2.489278     -1.479927      1.765674
  H      -2.657093     -0.449511      0.295219
  H      -1.901717      0.236233      1.768602
  H       2.544632      0.460951     -0.317625
  H       1.935876     -0.197624     -1.868310
  H       3.049265     -1.195387     -0.858398
  Li     -0.467590      2.566789     -0.677641
  C      -1.898558      4.997434     -3.594137
  O      -1.606806      5.946580     -2.552375
  C      -1.084030      5.508455     -1.410860
  O      -0.837721      4.347507     -1.115416
  O      -0.943940      6.576019     -0.630285
  C      -0.420431      6.402857      0.698983
  H      -2.306882      5.584305     -4.415455
  H      -2.624905      4.257517     -3.226176
  H      -0.973647      4.479245     -3.888725
  H       0.579664      5.947519      0.645020
  H      -1.086561      5.741298      1.273078
  H      -0.383683      7.402531      1.129062
25
Coordinates from ORCA-job DMC_m1_shell2_oxidized_opt_relaxed E -694.021551481830
  C      -2.041263     -0.691480      1.175159
  O      -0.761938     -1.192427      0.746734
  C       0.063852     -0.379148      0.100262
  O      -0.147958      0.786009     -0.207666
  O       1.158449     -1.083647     -0.162078
  C       2.248784     -0.448707     -0.853623
  H      -2.487125     -1.496100      1.756776
  H      -2.654103     -0.460102      0.290434
  H      -1.905935      0.222252      1.768986
  H       2.544720      0.467381     -0.324744
  H       1.928510     -0.187663     -1.874012
  H       3.048220     -1.186900     -0.872976
  Li     -0.487104      2.566007     -0.665695
  C      -1.869574      4.999505     -3.605300
  O      -1.598911      5.946921     -2.556326
  C      -1.130482      5.503262     -1.393521
  O      -0.873934      4.343909     -1.100568
  O      -0.935762      6.578017     -0.634868
  C      -0.390928      6.408055      0.686241
  H      -2.240446      5.590375     -4.441390
  H      -2.620477      4.273069     -3.260110
  H      -0.944218      4.464915     -3.866935
  H       0.593711      5.921899      0.620441
  H      -1.065735      5.775111      1.282315
  H      -0.316537      7.412087      1.101077
25
Coordinates from ORCA-job DMC_m1_shell2_oxidized_opt_relaxed E -694.021551806741
  C      -2.042257     -0.680682      1.179462
  O      -0.766430     -1.187836      0.748124
  C       0.058689     -0.382240      0.091004
  O      -0.145610      0.784233     -0.217069
  O       1.155601     -1.087618     -0.158246
  C       2.250898     -0.455107     -0.844320
  H      -2.486055     -1.479326      1.770983
  H      -2.659877     -0.457245      0.295922
  H      -1.902375      0.238500      1.763624
  H       2.540370      0.465326     -0.319472
  H       1.938857     -0.202000     -1.869375
  H       3.051899     -1.191873     -0.852047
  Li     -0.468240      2.566714     -0.677612
  C      -1.898965      4.997727     -3.594051
  O      -1.606777      5.946828     -2.552379
  C      -1.084068      5.508578     -1.410880
  O      -0.838078      4.347555     -1.115453
  O      -0.943257      6.576148     -0.630480
  C      -0.419362      6.402899      0.698632
  H      -2.307144      5.584695     -4.415372
  H      -2.625552      4.258099     -3.225982
  H      -0.974277      4.479170     -3.888688
  H       0.580521      5.947143      0.644379
  H      -1.085584      5.741702      1.273029
  H      -0.382039      7.402606      1.128583
25
Coordinates from ORCA-job DMC_m1_shell2_oxidized_opt_relaxed E -694.021554705759
  C      -2.041216     -0.692804      1.175519
  O      -0.762046     -1.193197      0.746055
  C       0.063604     -0.379263      0.100217
  O      -0.148760      0.785879     -0.207429
  O       1.158432     -1.083244     -0.162389
  C       2.249126     -0.447453     -0.852598
  H      -2.484052     -1.495734      1.761828
  H      -2.656871     -0.467835      0.290990
  H      -1.906751      0.224322      1.764100
  H       2.540408      0.471760     -0.326779
  H       1.931291     -0.192048     -1.875253
  H       3.050763     -1.183413     -0.866889
  Li     -0.487667      2.565992     -0.665568
  C      -1.869960      4.999697     -3.605198
  O      -1.598935      5.947108     -2.556318
  C      -1.130380      5.503415     -1.393582
  O      -0.874173      4.343991     -1.100597
  O      -0.935135      6.578147     -0.635078
  C      -0.389916      6.408124      0.685873
  H      -2.240753      5.590608     -4.441291
  H      -2.621016      4.273482     -3.259892
  H      -0.944775      4.464839     -3.866891
  H       0.594515      5.921592      0.619790
  H      -1.064767      5.775531      1.282261
  H      -0.314983      7.412178      1.100555
25
Coordinates from ORCA-job DMC_m1_shell2_oxidized_opt_relaxed E -694.021556267240
  C      -2.042125     -0.681957      1.180003
  O      -0.766524     -1.188604      0.747466
  C       0.058334     -0.382441      0.090704
  O      -0.146502      0.784040     -0.217026
  O       1.155608     -1.087201     -0.158532
  C       2.251321     -0.453782     -0.843119
  H      -2.482742     -1.478793      1.776388
  H      -2.662735     -0.465098      0.296810
  H      -1.903058      0.240667      1.758715
  H       2.535878      0.469900     -0.321521
  H       1.941961     -0.206606     -1.870516
  H       3.054596     -1.188155     -0.845444
  Li     -0.468889      2.566653     -0.677585
  C      -1.899336      4.997986     -3.593967
  O      -1.606762      5.947049     -2.552372
  C      -1.084039      5.508703     -1.410919
  O      -0.838394      4.347603     -1.115490
  O      -0.942596      6.576269     -0.630664
  C      -0.418289      6.402950      0.698285
  H      -2.307284      5.585049     -4.415326
  H      -2.626213      4.258678     -3.225844
  H      -0.974865      4.479032     -3.888569
  H       0.581380      5.946778      0.643723
  H      -1.084590      5.742123      1.273007
  H      -0.380384      7.402694      1.128096
25
Coordinates from ORCA-job DMC_m1_shell2_oxidized_opt_relaxed E -694.021558105697
  C      -2.041187     -0.694149      1.175863
  O      -0.762173     -1.193964      0.745327
  C       0.063350     -0.379368      0.100153
  O      -0.149558      0.785763     -0.207206
  O       1.158414     -1.082827     -0.162697
  C       2.249501     -0.446188     -0.851514
  H      -2.480951     -1.495372      1.766867
  H      -2.659676     -0.475648      0.291583
  H      -1.907625      0.226351      1.759166
  H       2.535927      0.476276     -0.328959
  H       1.934270     -0.196723     -1.876521
  H       3.053403     -1.179804     -0.860470
  Li     -0.488233      2.565986     -0.665440
  C      -1.870393      4.999861     -3.605074
  O      -1.598961      5.947278     -2.556307
  C      -1.130279      5.503563     -1.393634
  O      -0.874411      4.344068     -1.100608
  O      -0.934511      6.578279     -0.635284
  C      -0.388839      6.408215      0.685486
  H      -2.240978      5.590828     -4.441219
  H      -2.621730      4.273983     -3.259672
  H      -0.945435      4.464601     -3.866736
  H       0.595388      5.921329      0.619078
  H      -1.063695      5.775964      1.282220
  H      -0.313373      7.412294      1.100006
25
Coordinates from ORCA-job DMC_m1_shell2_oxidized_opt_relaxed E -694.021559907218
  C      -2.042035     -0.683281      1.180505
  O      -0.766644     -1.189373      0.746756
  C       0.057965     -0.382633      0.090384
  O      -0.147393      0.783861     -0.216996
  O       1.155616     -1.086759     -0.158801
  C       2.251768     -0.452426     -0.841850
  H      -2.479431     -1.478311      1.781722
  H      -2.665630     -0.473035      0.297707
  H      -1.903849      0.242746      1.753768
  H       2.531219      0.474621     -0.323701
  H       1.945248     -0.211469     -1.871659
  H       3.057378     -1.184288     -0.838517
  Li     -0.469518      2.566609     -0.677562
  C      -1.899748      4.998199     -3.593846
  O      -1.606822      5.947241     -2.552334
  C      -1.083958      5.508833     -1.410967
  O      -0.838664      4.347656     -1.115521
  O      -0.941945      6.576397     -0.630847
  C      -0.417135      6.403034      0.697908
  H      -2.307462      5.585345     -4.415260
  H      -2.626921      4.259208     -3.225669
  H      -0.975484      4.478850     -3.888388
  H       0.582284      5.946380      0.642983
  H      -1.083510      5.742652      1.273038
  H      -0.378553      7.402829      1.127527
25
Coordinates from ORCA-job DMC_m1_shell2_oxidized_opt_relaxed E -694.021562267554
  C      -2.041194     -0.695550      1.176210
  O      -0.762331     -1.194730      0.744540
  C       0.063092     -0.379451      0.100091
  O      -0.150344      0.785671     -0.206982
  O       1.158384     -1.082392     -0.163024
  C       2.249895     -0.444890     -0.850383
  H      -2.477854     -1.495105      1.771827
  H      -2.662515     -0.483471      0.292247
  H      -1.908573      0.228242      1.754306
  H       2.531320      0.480891     -0.331226
  H       1.937410     -0.201568     -1.877788
  H       3.056099     -1.176074     -0.853814
  Li     -0.488768      2.566002     -0.665313
  C      -1.870890      4.999977     -3.604906
  O      -1.599024      5.947425     -2.556287
  C      -1.130116      5.503715     -1.393702
  O      -0.874593      4.344152     -1.100622
  O      -0.933857      6.578421     -0.635504
  C      -0.387761      6.408318      0.685097
  H      -2.241202      5.590989     -4.441141
  H      -2.622578      4.274510     -3.259397
  H      -0.946189      4.464228     -3.866479
  H       0.596168      5.920879      0.618411
  H      -1.062753      5.776590      1.282229
  H      -0.311583      7.412445      1.099376
25
Coordinates from ORCA-job DMC_m1_shell2_oxidized_opt_relaxed E -694.021564112043
  C      -2.041941     -0.684592      1.181032
  O      -0.766791     -1.190132      0.745980
  C       0.057576     -0.382824      0.090001
  O      -0.148286      0.783689     -0.217020
  O       1.155622     -1.086310     -0.159079
  C       2.252280     -0.451052     -0.840469
  H      -2.476092     -1.477825      1.787033
  H      -2.668538     -0.480909      0.298715
  H      -1.904619      0.244761      1.748893
  H       2.526452      0.479424     -0.325900
  H       1.948803     -0.216521     -1.872749
  H       3.060257     -1.180311     -0.831237
  Li     -0.470149      2.566571     -0.677565
  C      -1.900271      4.998384     -3.593666
  O      -1.606842      5.947428     -2.552301
  C      -1.083882      5.508956     -1.411007
  O      -0.838931      4.347704     -1.115546
  O      -0.941235      6.576523     -0.631051
  C      -0.415984      6.403110      0.697534
  H      -2.307543      5.585633     -4.415216
  H      -2.627965      4.259945     -3.225422
  H      -0.976335      4.478366     -3.888021
  H       0.583074      5.945734      0.642321
  H      -1.082611      5.743380      1.273108
  H      -0.376527      7.402980      1.126883
25
Coordinates from ORCA-job DMC_m1_shell2_oxidized_opt_relaxed E -694.021565272286
  C      -2.041171     -0.696856      1.176539
  O      -0.762504     -1.195476      0.743705
  C       0.062854     -0.379524      0.100030
  O      -0.151108      0.785590     -0.206763
  O       1.158351     -1.081983     -0.163365
  C       2.250346     -0.443664     -0.849201
  H      -2.474785     -1.494730      1.776692
  H      -2.665285     -0.491091      0.292947
  H      -1.909438      0.230135      1.749494
  H       2.526683      0.485476     -0.333571
  H       1.940765     -0.206656     -1.879044
  H       3.058845     -1.172373     -0.846922
  Li     -0.489324      2.566021     -0.665176
  C      -1.871411      5.000108     -3.604748
  O      -1.599074      5.947574     -2.556268
  C      -1.130035      5.503850     -1.393740
  O      -0.874833      4.344221     -1.100608
  O      -0.933173      6.578554     -0.635735
  C      -0.386671      6.408410      0.684704
  H      -2.241311      5.591195     -4.441111
  H      -2.623597      4.275182     -3.259175
  H      -0.947038      4.463724     -3.866142
  H       0.596916      5.920342      0.617779
  H      -1.061858      5.777278      1.282240
  H      -0.309731      7.412582      1.098722
25
Coordinates from ORCA-job DMC_m1_shell2_oxidized_opt_relaxed E -694.021568245439
  C      -2.041834     -0.685883      1.181584
  O      -0.766943     -1.190886      0.745196
  C       0.057193     -0.383010      0.089627
  O      -0.149166      0.783523     -0.217039
  O       1.155617     -1.085871     -0.159379
  C       2.252794     -0.449708     -0.839095
  H      -2.472783     -1.477343      1.792246
  H      -2.671387     -0.488627      0.299807
  H      -1.905363      0.246680      1.744159
  H       2.521635      0.484218     -0.328227
  H       1.952455     -0.221740     -1.873849
  H       3.063128     -1.176312     -0.823853
  Li     -0.470779      2.566539     -0.677561
  C      -1.900745      4.998584     -3.593518
  O      -1.606898      5.947610     -2.552259
  C      -1.083818      5.509072     -1.411043
  O      -0.839205      4.347746     -1.115562
  O      -0.940545      6.576649     -0.631247
  C      -0.414829      6.403193      0.697159
  H      -2.307520      5.585954     -4.415224
  H      -2.629003      4.260697     -3.225279
  H      -0.977117      4.477896     -3.887623
  H       0.583878      5.945116      0.641640
  H      -1.081686      5.744100      1.273188
  H      -0.374515      7.403140      1.126241
25
Coordinates from ORCA-job DMC_m1_shell2_oxidized_opt_relaxed E -694.021568275189
  C      -2.041118     -0.698083      1.176896
  O      -0.762698     -1.196210      0.742831
  C       0.062596     -0.379615      0.099900
  O      -0.151876      0.785497     -0.206601
  O       1.158315     -1.081584     -0.163714
  C       2.250851     -0.442455     -0.847933
  H      -2.471744     -1.494280      1.781485
  H      -2.667997     -0.498472      0.293750
  H      -1.910199      0.231994      1.744820
  H       2.522015      0.490054     -0.335907
  H       1.944331     -0.211871     -1.880232
  H       3.061638     -1.168638     -0.839796
  Li     -0.489900      2.566036     -0.665061
  C      -1.871903      5.000231     -3.604586
  O      -1.599157      5.947714     -2.556231
  C      -1.129991      5.503974     -1.393759
  O      -0.875103      4.344281     -1.100580
  O      -0.932523      6.578680     -0.635947
  C      -0.385518      6.408507      0.684293
  H      -2.241387      5.591389     -4.441080
  H      -2.624586      4.275833     -3.258981
  H      -0.947842      4.463229     -3.865772
  H       0.597708      5.919778      0.617066
  H      -1.060878      5.778005      1.282295
  H      -0.307761      7.412733      1.098025
25
Coordinates from ORCA-job DMC_m1_shell2_oxidized_opt_relaxed E -694.021572139192
  C      -2.041715     -0.687066      1.182103
  O      -0.767126     -1.191616      0.744362
  C       0.056836     -0.383180      0.089273
  O      -0.150006      0.783376     -0.217045
  O       1.155590     -1.085462     -0.159715
  C       2.253334     -0.448437     -0.837712
  H      -2.469577     -1.476777      1.797261
  H      -2.674138     -0.496006      0.300917
  H      -1.906025      0.248556      1.739561
  H       2.516855      0.488903     -0.330596
  H       1.956237     -0.227069     -1.874919
  H       3.065968     -1.172382     -0.816400
  Li     -0.471395      2.566522     -0.677536
  C      -1.901172      4.998728     -3.593362
  O      -1.607002      5.947759     -2.552200
  C      -1.083763      5.509183     -1.411068
  O      -0.839480      4.347789     -1.115552
  O      -0.939931      6.576774     -0.631421
  C      -0.413644      6.403305      0.696768
  H      -2.307465      5.586191     -4.415236
  H      -2.629965      4.261355     -3.225143
  H      -0.977817      4.477416     -3.887178
  H       0.584705      5.944523      0.640884
  H      -1.080696      5.744864      1.273314
  H      -0.372453      7.403337      1.125564
25
Coordinates from ORCA-job DMC_m1_shell2_oxidized_opt_relaxed E -694.021571750523
  C      -2.041080     -0.699279      1.177239
  O      -0.762906     -1.196916      0.741946
  C       0.062342     -0.379697      0.099757
  O      -0.152612      0.785419     -0.206454
  O       1.158264     -1.081198     -0.164080
  C       2.251372     -0.441287     -0.846653
  H      -2.468779     -1.493841      1.786118
  H      -2.670651     -0.505658      0.294578
  H      -1.910976      0.233756      1.740280
  H       2.517373      0.494560     -0.338281
  H       1.947994     -0.217162     -1.881385
  H       3.064403     -1.164932     -0.832613
  Li     -0.490445      2.566068     -0.664946
  C      -1.872409      5.000303     -3.604396
  O      -1.599265      5.947830     -2.556186
  C      -1.129916      5.504103     -1.393780
  O      -0.875339      4.344349     -1.100539
  O      -0.931901      6.578817     -0.636155
  C      -0.384382      6.408627      0.683882
  H      -2.241389      5.591521     -4.441070
  H      -2.625662      4.276497     -3.258770
  H      -0.948678      4.462607     -3.865286
  H       0.598445      5.919162      0.616360
  H      -1.059957      5.778825      1.282384
  H      -0.305742      7.412917      1.097292
25
Coordinates from ORCA-job DMC_m1_shell2_oxidized_opt_relaxed E -694.021576725073
  C      -2.041587     -0.688214      1.182620
  O      -0.767313     -1.192329      0.743509
  C       0.056468     -0.383357      0.088866
  O      -0.150841      0.783225     -0.217096
  O       1.155568     -1.085059     -0.160045
  C       2.253925     -0.447191     -0.836258
  H      -2.466418     -1.476207      1.802142
  H      -2.676818     -0.503177      0.302075
  H      -1.906652      0.250343      1.735105
  H       2.512113      0.493528     -0.332932
  H       1.960188     -0.232454     -1.875900
  H       3.068819     -1.168457     -0.808802
  Li     -0.472032      2.566507     -0.677523
  C      -1.901633      4.998873     -3.593191
  O      -1.607099      5.947908     -2.552138
  C      -1.083763      5.509287     -1.411070
  O      -0.839795      4.347827     -1.115522
  O      -0.939268      6.576901     -0.631614
  C      -0.412446      6.403412      0.696371
  H      -2.307422      5.586437     -4.415241
  H      -2.631011      4.262066     -3.224978
  H      -0.978581      4.476876     -3.886707
  H       0.585481      5.943787      0.640165
  H      -1.079793      5.745744      1.273454
  H      -0.370264      7.403541      1.124836
25
Coordinates from ORCA-job DMC_m1_shell2_oxidized_opt_relaxed E -694.021576222653
  C      -2.041063     -0.700552      1.177616
  O      -0.763123     -1.197636      0.741039
  C       0.062082     -0.379758      0.099643
  O      -0.153346      0.785362     -0.206277
  O       1.158195     -1.080790     -0.164477
  C       2.251857     -0.440087     -0.845420
  H      -2.465880     -1.493595      1.790559
  H      -2.673256     -0.512662      0.295500
  H      -1.911777      0.235257      1.736030
  H       2.512753      0.499024     -0.340699
  H       1.951619     -0.222369     -1.882519
  H       3.067086     -1.161188     -0.825545
  Li     -0.490962      2.566123     -0.664812
  C      -1.872901      5.000325     -3.604188
  O      -1.599384      5.947916     -2.556134
  C      -1.129755      5.504245     -1.393828
  O      -0.875509      4.344435     -1.100495
  O      -0.931297      6.578961     -0.636376
  C      -0.383295      6.408782      0.683474
  H      -2.241381      5.591583     -4.441054
  H      -2.626718      4.277107     -3.258545
  H      -0.949488      4.461947     -3.864766
  H       0.599102      5.918517      0.615698
  H      -1.059131      5.779758      1.282499
  H      -0.303719      7.413149      1.096514
25
Coordinates from ORCA-job DMC_m1_shell2_oxidized_opt_relaxed E -694.021580439936
  C      -2.041467     -0.689395      1.183194
  O      -0.767508     -1.193032      0.742646
  C       0.056092     -0.383521      0.088456
  O      -0.151662      0.783093     -0.217147
  O       1.155529     -1.084650     -0.160405
  C       2.254488     -0.445942     -0.834845
  H      -2.463314     -1.475778      1.806865
  H      -2.679443     -0.510121      0.303352
  H      -1.907274      0.251918      1.730951
  H       2.507435      0.498061     -0.335284
  H       1.964106     -0.237744     -1.876840
  H       3.071575     -1.164541     -0.801339
  Li     -0.472629      2.566513     -0.677510
  C      -1.902104      4.998967     -3.592996
  O      -1.607167      5.948032     -2.552085
  C      -1.083693      5.509403     -1.411093
  O      -0.840043      4.347882     -1.115491
  O      -0.938630      6.577033     -0.631812
  C      -0.411333      6.403543      0.695998
  H      -2.307251      5.586628     -4.415285
  H      -2.632190      4.262846     -3.224806
  H      -0.979405      4.476151     -3.886109
  H       0.586131      5.942989      0.639532
  H      -1.079054      5.746732      1.273623
  H      -0.368101      7.403782      1.124091
25
Coordinates from ORCA-job DMC_m1_shell2_oxidized_opt_relaxed E -694.021579584342
  C      -2.041014     -0.701706      1.178015
  O      -0.763344     -1.198309      0.740132
  C       0.061841     -0.379818      0.099510
  O      -0.154032      0.785311     -0.206126
  O       1.158114     -1.080431     -0.164899
  C       2.252368     -0.438996     -0.844193
  H      -2.463060     -1.493271      1.794848
  H      -2.675745     -0.519282      0.296488
  H      -1.912463      0.236722      1.731998
  H       2.508312      0.503252     -0.343055
  H       1.955293     -0.227536     -1.883576
  H       3.069683     -1.157625     -0.818585
  Li     -0.491469      2.566184     -0.664682
  C      -1.873355      5.000349     -3.604003
  O      -1.599486      5.947997     -2.556092
  C      -1.129666      5.504376     -1.393849
  O      -0.875712      4.344513     -1.100428
  O      -0.930721      6.579102     -0.636585
  C      -0.382253      6.408938      0.683086
  H      -2.241297      5.591651     -4.441070
  H      -2.627777      4.277752     -3.258367
  H      -0.950279      4.461257     -3.864232
  H       0.599670      5.917791      0.615091
  H      -1.058416      5.780768      1.282644
  H      -0.301682      7.413388      1.095730
25
Coordinates from ORCA-job DMC_m1_shell2_oxidized_opt_relaxed E -694.021584602723
  C      -2.041321     -0.690403      1.183720
  O      -0.767705     -1.193676      0.741799
  C       0.055739     -0.383685      0.088023
  O      -0.152428      0.782961     -0.217230
  O       1.155486     -1.084296     -0.160765
  C       2.255090     -0.444826     -0.833426
  H      -2.460330     -1.475171      1.811399
  H      -2.681917     -0.516666      0.304591
  H      -1.907793      0.253541      1.726897
  H       2.502957      0.502334     -0.337569
  H       1.968084     -0.243020     -1.877692
  H       3.074248     -1.160837     -0.793964
  Li     -0.473225      2.566520     -0.677500
  C      -1.902513      4.999060     -3.592824
  O      -1.607277      5.948145     -2.552014
  C      -1.083708      5.509502     -1.411078
  O      -0.840340      4.347923     -1.115433
  O      -0.938033      6.577156     -0.631991
  C      -0.410216      6.403671      0.695626
  H      -2.307044      5.586819     -4.415346
  H      -2.633283      4.263576     -3.224694
  H      -0.980129      4.475480     -3.885518
  H       0.586765      5.942141      0.638886
  H      -1.078328      5.747756      1.273825
  H      -0.365897      7.404029      1.123332
25
Coordinates from ORCA-job DMC_m1_shell2_oxidized_opt_relaxed E -694.021583127066
  C      -2.040981     -0.702788      1.178337
  O      -0.763575     -1.198954      0.739224
  C       0.061614     -0.379871      0.099377
  O      -0.154678      0.785268     -0.205982
  O       1.158036     -1.080090     -0.165299
  C       2.252903     -0.437969     -0.842948
  H      -2.460396     -1.492921      1.798868
  H      -2.678107     -0.525580      0.297394
  H      -1.913140      0.238112      1.728094
  H       2.504063      0.507277     -0.345304
  H       1.958979     -0.232582     -1.884521
  H       3.072194     -1.154200     -0.811748
  Li     -0.491951      2.566254     -0.664552
  C      -1.873854      5.000351     -3.603792
  O      -1.599619      5.948063     -2.556035
  C      -1.129561      5.504505     -1.393873
  O      -0.875897      4.344592     -1.100354
  O      -0.930168      6.579240     -0.636793
  C      -0.381210      6.409101      0.682691
  H      -2.241175      5.591709     -4.441093
  H      -2.628962      4.278446     -3.258184
  H      -0.951142      4.460463     -3.863607
  H       0.600213      5.917024      0.614473
  H      -1.057716      5.781830      1.282810
  H      -0.299603      7.413638      1.094914
25
Coordinates from ORCA-job DMC_m1_shell2_oxidized_opt_relaxed E -694.021587972803
  C      -2.041182     -0.691366      1.184236
  O      -0.767918     -1.194299      0.740940
  C       0.055395     -0.383845      0.087590
  O      -0.153154      0.782838     -0.217322
  O       1.155433     -1.083966     -0.161134
  C       2.255707     -0.443762     -0.831992
  H      -2.457479     -1.474604      1.815694
  H      -2.684288     -0.522854      0.305845
  H      -1.908271      0.255028      1.723097
  H       2.498696      0.506377     -0.339690
  H       1.972058     -0.248083     -1.878415
  H       3.076810     -1.157280     -0.786771
  Li     -0.473787      2.566538     -0.677492
  C      -1.902929      4.999139     -3.592646
  O      -1.607423      5.948243     -2.551932
  C      -1.083701      5.509604     -1.411072
  O      -0.840609      4.347971     -1.115371
  O      -0.937481      6.577279     -0.632161
  C      -0.409108      6.403813      0.695249
  H      -2.306787      5.586999     -4.415423
  H      -2.634426      4.264319     -3.224609
  H      -0.980863      4.474767     -3.884868
  H       0.587381      5.941305      0.638219
  H      -1.077602      5.748808      1.274045
  H      -0.363699      7.404292      1.122555
25
Coordinates from ORCA-job DMC_m1_shell2_oxidized_opt_relaxed E -694.021586667056
  C      -2.040927     -0.703792      1.178722
  O      -0.763813     -1.199556      0.738330
  C       0.061393     -0.379920      0.099230
  O      -0.155278      0.785234     -0.205861
  O       1.157932     -1.079789     -0.165744
  C       2.253433     -0.437014     -0.841739
  H      -2.457814     -1.492571      1.802743
  H      -2.680373     -0.531489      0.298411
  H      -1.913716      0.239404      1.724502
  H       2.500041      0.511037     -0.347414
  H       1.962611     -0.237398     -1.885379
  H       3.074561     -1.150962     -0.805183
  Li     -0.492400      2.566334     -0.664431
  C      -1.874277      5.000331     -3.603596
  O      -1.599775      5.948112     -2.555972
  C      -1.129453      5.504631     -1.393896
  O      -0.876063      4.344674     -1.100276
  O      -0.929665      6.579377     -0.636986
  C      -0.380248      6.409270      0.682323
  H      -2.240927      5.591734     -4.441159
  H      -2.630088      4.279109     -3.258071
  H      -0.951904      4.459657     -3.862926
  H       0.600666      5.916246      0.613918
  H      -1.057127      5.782924      1.282995
  H      -0.297609      7.413899      1.094115
25
Coordinates from ORCA-job DMC_m1_shell2_oxidized_opt_relaxed E -694.021591077795
  C      -2.041007     -0.692296      1.184869
  O      -0.768120     -1.194889      0.740115
  C       0.055039     -0.384005      0.087120
  O      -0.153858      0.782720     -0.217450
  O       1.155359     -1.083652     -0.161543
  C       2.256292     -0.442732     -0.830628
  H      -2.454654     -1.474100      1.819910
  H      -2.686574     -0.528717      0.307278
  H      -1.908646      0.256379      1.719661
  H       2.494632      0.510200     -0.341714
  H       1.975911     -0.252883     -1.879076
  H       3.079214     -1.153857     -0.779906
  Li     -0.474324      2.566565     -0.677505
  C      -1.903315      4.999190     -3.592464
  O      -1.607479      5.948339     -2.551883
  C      -1.083673      5.509708     -1.411074
  O      -0.840850      4.348024     -1.115313
  O      -0.936942      6.577402     -0.632330
  C      -0.408169      6.403947      0.694936
  H      -2.306339      5.587151     -4.415569
  H      -2.635690      4.265184     -3.224535
  H      -0.981633      4.473855     -3.884092
  H       0.587767      5.940321      0.637742
  H      -1.077192      5.749975      1.274294
  H      -0.361581      7.404556      1.121801
25
Coordinates from ORCA-job DMC_m1_shell2_oxidized_opt_relaxed E -694.021589150027
  C      -2.040857     -0.704715      1.179096
  O      -0.764039     -1.200118      0.737466
  C       0.061202     -0.379954      0.099109
  O      -0.155827      0.785215     -0.205728
  O       1.157815     -1.079525     -0.166213
  C       2.253947     -0.436161     -0.840613
  H      -2.455346     -1.492203      1.806409
  H      -2.682502     -0.537038      0.299422
  H      -1.914225      0.240625      1.721123
  H       2.496294      0.514495     -0.349429
  H       1.966114     -0.241987     -1.886176
  H       3.076760     -1.147966     -0.798990
  Li     -0.492829      2.566426     -0.664291
  C      -1.874691      5.000286     -3.603402
  O      -1.599851      5.948154     -2.555942
  C      -1.129376      5.504752     -1.393906
  O      -0.876238      4.344757     -1.100175
  O      -0.929189      6.579520     -0.637180
  C      -0.379397      6.409453      0.681990
  H      -2.240606      5.591731     -4.441251
  H      -2.631290      4.279848     -3.257941
  H      -0.952718      4.458718     -3.862204
  H       0.600970      5.915404      0.613477
  H      -1.056731      5.784103      1.283196
  H      -0.295682      7.414177      1.093325
25
Coordinates from ORCA-job DMC_m1_shell2_oxidized_opt_relaxed E -694.021593273568
  C      -2.040832     -0.693167      1.185486
  O      -0.768314     -1.195444      0.739331
  C       0.054699     -0.384158      0.086668
  O      -0.154517      0.782613     -0.217567
  O       1.155267     -1.083372     -0.161974
  C       2.256840     -0.441786     -0.829357
  H      -2.451959     -1.473603      1.823908
  H      -2.688729     -0.534251      0.308688
  H      -1.908993      0.257640      1.716434
  H       2.490825      0.513737     -0.343644
  H       1.979593     -0.257424     -1.879682
  H       3.081437     -1.150655     -0.773448
  Li     -0.474822      2.566606     -0.677497
  C      -1.903608      4.999200     -3.592298
  O      -1.607574      5.948404     -2.551824
  C      -1.083625      5.509814     -1.411071
  O      -0.841059      4.348086     -1.115229
  O      -0.936476      6.577539     -0.632488
  C      -0.407295      6.404128      0.694632
  H      -2.305875      5.587238     -4.415717
  H      -2.636773      4.265904     -3.224494
  H      -0.982241      4.473025     -3.883341
  H       0.588092      5.939394      0.637282
  H      -1.076837      5.751187      1.274564
  H      -0.359549      7.404874      1.121040
