35
Coordinates from ORCA-job TMP_m2_shell2_cation_opt E -1531.332737583466
  C       1.530882     -2.505769     -0.398718
  O       1.547992     -1.123770     -0.025893
  P       0.287091     -0.258554     -0.533285
  O      -0.077124     -0.353833     -1.934955
  O      -0.856697     -0.570459      0.516005
  C      -2.178898     -0.906238      0.083648
  O       0.938066      1.130796     -0.025289
  C       0.193386      2.302862     -0.384741
  H       2.536598     -2.891480     -0.252277
  H       1.239301     -2.604820     -1.446273
  H       0.829124     -3.058107      0.228647
  H      -2.424131     -1.895828      0.467487
  H      -2.233128     -0.903949     -1.005207
  H      -2.870831     -0.171997      0.494274
  H      -0.141943      2.225164     -1.421037
  H       0.854077      3.158509     -0.271360
  H      -0.671201      2.415927      0.271655
  Li      2.490518      0.329355      0.619097
  C       3.818680      0.559534      3.563917
  O       3.602025      0.503872      2.146579
  P       4.899819      0.194339      1.239108
  O       6.178997      0.733153      1.656545
  O       4.829229     -1.382375      1.022487
  C       5.958515     -2.206930      1.326784
  O       4.207476      0.758114     -0.097264
  C       5.082680      0.954926     -1.216188
  H       3.084064      1.243635      3.982934
  H       4.825829      0.927673      3.768823
  H       3.693000     -0.430123      4.004429
  H       5.688994     -2.885008      2.135893
  H       6.805711     -1.589606      1.626067
  H       6.213034     -2.779570      0.435712
  H       4.596611      1.656870     -1.889719
  H       5.257268      0.010450     -1.733224
  H       6.034222      1.365939     -0.873239
35
Coordinates from ORCA-job TMP_m2_shell2_cation_opt E -1531.338969811023
  C       1.551842     -2.524730     -0.393554
  O       1.546988     -1.118053     -0.036247
  P       0.279887     -0.251366     -0.550739
  O      -0.078414     -0.345369     -1.962805
  O      -0.867025     -0.566082      0.498517
  C      -2.214087     -0.912323      0.084781
  O       0.932895      1.142503     -0.034823
  C       0.192358      2.345829     -0.376210
  H       2.562469     -2.892606     -0.218141
  H       1.286215     -2.646488     -1.447497
  H       0.844488     -3.072897      0.236087
  H      -2.448052     -1.901395      0.484077
  H      -2.298228     -0.919440     -1.004631
  H      -2.899465     -0.175441      0.508677
  H      -0.132166      2.304142     -1.419795
  H       0.865528      3.190370     -0.231392
  H      -0.675216      2.448884      0.282422
  Li      2.493090      0.340803      0.611798
  C       3.790020      0.548911      3.589150
  O       3.605500      0.510130      2.147168
  P       4.916047      0.209917      1.242016
  O       6.195519      0.766908      1.664836
  O       4.861680     -1.371195      1.026716
  C       5.996655     -2.221425      1.335118
  O       4.218754      0.763137     -0.105354
  C       5.084550      0.942052     -1.259195
  H       3.027314      1.213688      3.994723
  H       4.782885      0.936874      3.829603
  H       3.668795     -0.454056      4.008633
  H       5.712312     -2.901169      2.141771
  H       6.858868     -1.623297      1.639360
  H       6.241881     -2.796233      0.439604
  H       4.573611      1.624318     -1.938128
  H       5.253267     -0.017517     -1.757512
  H       6.038473      1.375317     -0.947608
35
Coordinates from ORCA-job TMP_m2_shell2_cation_opt E -1531.342245165865
  C       1.561762     -2.535281     -0.385610
  O       1.531992     -1.110033     -0.049088
  P       0.257763     -0.241652     -0.570361
  O      -0.094328     -0.331502     -1.994093
  O      -0.890342     -0.558110      0.478992
  C      -2.252024     -0.910400      0.073681
  O       0.917996      1.153620     -0.043480
  C       0.189962      2.387544     -0.356278
  H       2.575827     -2.875261     -0.174602
  H       1.327304     -2.672144     -1.444573
  H       0.846025     -3.071783      0.244015
  H      -2.472171     -1.898083      0.483912
  H      -2.345537     -0.921127     -1.015286
  H      -2.926628     -0.169063      0.506874
  H      -0.116621      2.382595     -1.405570
  H       0.881522      3.209735     -0.171513
  H      -0.678420      2.472567      0.303291
  Li      2.492357      0.352581      0.604388
  C       3.762331      0.519281      3.605119
  O       3.615676      0.510164      2.145354
  P       4.941810      0.223553      1.245349
  O       6.218530      0.807947      1.673101
  O       4.912739     -1.361041      1.034903
  C       6.059644     -2.212358      1.353770
  O       4.233097      0.759307     -0.112775
  C       5.077774      0.901761     -1.303419
  H       2.964712      1.153792      3.991853
  H       4.735665      0.933926      3.877346
  H       3.655640     -0.500087      3.987123
  H       5.765553     -2.886973      2.161285
  H       6.919106     -1.609571      1.658136
  H       6.301436     -2.786131      0.456720
  H       4.532670      1.552204     -1.987386
  H       5.236555     -0.079056     -1.761674
  H       6.029860      1.361785     -1.028079
35
Coordinates from ORCA-job TMP_m2_shell2_cation_opt E -1531.344035724613
  C       1.555451     -2.533059     -0.379247
  O       1.507174     -1.098609     -0.061421
  P       0.228204     -0.229744     -0.586327
  O      -0.118285     -0.313853     -2.017415
  O      -0.920224     -0.546961      0.461814
  C      -2.286921     -0.900939      0.053923
  O       0.897230      1.162514     -0.049570
  C       0.182862      2.417298     -0.332595
  H       2.569432     -2.850974     -0.137046
  H       1.348507     -2.677811     -1.442173
  H       0.828899     -3.058908      0.245423
  H      -2.498670     -1.888076      0.468052
  H      -2.374433     -0.910558     -1.035028
  H      -2.954269     -0.155852      0.490162
  H      -0.105360      2.443220     -1.386080
  H       0.888098      3.217958     -0.110831
  H      -0.688830      2.483814      0.323310
  Li      2.488813      0.364318      0.599012
  C       3.747015      0.478146      3.608492
  O       3.630743      0.506555      2.141048
  P       4.969629      0.234915      1.248230
  O       6.237999      0.849015      1.678325
  O       4.971046     -1.351276      1.045736
  C       6.134776     -2.183035      1.378798
  O       4.247164      0.750259     -0.116071
  C       5.067512      0.844086     -1.334868
  H       2.916048      1.074506      3.984131
  H       4.699242      0.922272      3.906154
  H       3.667456     -0.556874      3.950438
  H       5.841521     -2.850106      2.191942
  H       6.980117     -1.558944      1.678072
  H       6.381588     -2.758039      0.484718
  H       4.491652      1.455245     -2.029121
  H       5.222345     -0.158556     -1.742148
  H       6.015706      1.330754     -1.096416
35
Coordinates from ORCA-job TMP_m2_shell2_cation_opt E -1531.345683071821
  C       1.533405     -2.519779     -0.375850
  O       1.469898     -1.081693     -0.075023
  P       0.188196     -0.213329     -0.600896
  O      -0.152257     -0.289703     -2.036041
  O      -0.961141     -0.530950      0.443871
  C      -2.327470     -0.883378      0.024782
  O       0.867833      1.171383     -0.054342
  C       0.169073      2.442171     -0.304823
  H       2.544091     -2.822296     -0.103749
  H       1.353932     -2.670255     -1.442456
  H       0.793657     -3.038491      0.237917
  H      -2.536662     -1.870920      0.437292
  H      -2.400094     -0.888538     -1.064635
  H      -2.991536     -0.135799      0.459870
  H      -0.099521      2.500675     -1.361711
  H       0.883401      3.222226     -0.044767
  H      -0.709879      2.491262      0.341702
  Li      2.482655      0.378698      0.595115
  C       3.741460      0.421392      3.602761
  O       3.653059      0.499950      2.134434
  P       5.003891      0.246889      1.252072
  O       6.256197      0.897920      1.682166
  O       5.047131     -1.339351      1.062397
  C       6.234831     -2.132138      1.413186
  O       4.264140      0.735359     -0.115062
  C       5.054006      0.762732     -1.358321
  H       2.874498      0.965496      3.974617
  H       4.666401      0.900562      3.929803
  H       3.704003     -0.628925      3.899859
  H       5.954186     -2.789435      2.237654
  H       7.056965     -1.473489      1.700527
  H       6.494468     -2.712839      0.527352
  H       4.447976      1.322347     -2.069328
  H       5.210694     -0.262616     -1.701029
  H       5.997749      1.277563     -1.167919
35
Coordinates from ORCA-job TMP_m2_shell2_cation_opt E -1531.347191565974
  C       1.498390     -2.498580     -0.379365
  O       1.426754     -1.063027     -0.087429
  P       0.145616     -0.195428     -0.610969
  O      -0.189418     -0.263279     -2.045877
  O      -1.006349     -0.513502      0.428070
  C      -2.367955     -0.860708     -0.007356
  O       0.834896      1.178314     -0.056455
  C       0.149967      2.457212     -0.280143
  H       2.503593     -2.799048     -0.086480
  H       1.339633     -2.652417     -1.448735
  H       0.747081     -3.017553      0.219632
  H      -2.582412     -1.849719      0.397770
  H      -2.423838     -0.858962     -1.097347
  H      -3.033926     -0.113131      0.423747
  H      -0.103240      2.544651     -1.338803
  H       0.865689      3.224461      0.010753
  H      -0.738703      2.496081      0.353390
  Li      2.475786      0.392538      0.593878
  C       3.747638      0.361910      3.589924
  O       3.679659      0.490706      2.127472
  P       5.039509      0.256496      1.257239
  O       6.269620      0.946290      1.684054
  O       5.129923     -1.327984      1.084854
  C       6.343642     -2.070198      1.451222
  O       4.282568      0.715180     -0.108965
  C       5.040450      0.674510     -1.368047
  H       2.850917      0.851546      3.965923
  H       4.644484      0.871641      3.947766
  H       3.755193     -0.698643      3.850132
  H       6.086932     -2.716834      2.291235
  H       7.139831     -1.373763      1.720273
  H       6.620697     -2.661151      0.578035
  H       4.411949      1.183346     -2.097068
  H       5.202642     -0.367766     -1.651111
  H       5.982017      1.209514     -1.229795
35
Coordinates from ORCA-job TMP_m2_shell2_cation_opt E -1531.348235292523
  C       1.453199     -2.473724     -0.389684
  O       1.382093     -1.044298     -0.098096
  P       0.105604     -0.176057     -0.618225
  O      -0.223831     -0.235440     -2.050321
  O      -1.052282     -0.494839      0.412395
  C      -2.407431     -0.834478     -0.039391
  O       0.801477      1.185277     -0.056334
  C       0.125609      2.465860     -0.260077
  H       2.450643     -2.786689     -0.083451
  H       1.309727     -2.629803     -1.461362
  H       0.691026     -2.997863      0.191697
  H      -2.632959     -1.825401      0.355187
  H      -2.451584     -0.825613     -1.129875
  H      -3.079007     -0.089056      0.387009
  H      -0.115767      2.580105     -1.319373
  H       0.834181      3.229738      0.056244
  H      -0.774818      2.499231      0.357783
  Li      2.469878      0.405867      0.594665
  C       3.762339      0.302080      3.574728
  O       3.708250      0.478796      2.122298
  P       5.075061      0.266049      1.263951
  O       6.277739      0.997478      1.683643
  O       5.217501     -1.315125      1.114315
  C       6.456623     -2.002606      1.491055
  O       4.302777      0.689791     -0.100494
  C       5.028877      0.584579     -1.368466
  H       2.840565      0.733965      3.961185
  H       4.629174      0.838880      3.966588
  H       3.817254     -0.764331      3.806166
  H       6.232358     -2.636293      2.350170
  H       7.229916     -1.272216      1.735418
  H       6.751061     -2.608663      0.633920
  H       4.383311      1.042695     -2.116190
  H       5.201457     -0.469256     -1.599029
  H       5.969214      1.134063     -1.286626
35
Coordinates from ORCA-job TMP_m2_shell2_cation_opt E -1531.348545750752
  C       1.425333     -2.463296     -0.397925
  O       1.361550     -1.037184     -0.101270
  P       0.090758     -0.165652     -0.621438
  O      -0.234919     -0.221669     -2.052352
  O      -1.073169     -0.484336      0.403190
  C      -2.425732     -0.819505     -0.053436
  O       0.786728      1.190579     -0.054979
  C       0.110593      2.469190     -0.254257
  H       2.417067     -2.790958     -0.087669
  H       1.287591     -2.619226     -1.470807
  H       0.656528     -2.989674      0.173649
  H      -2.658411     -1.811092      0.336278
  H      -2.470283     -0.808421     -1.144129
  H      -3.100496     -0.075609      0.371544
  H      -0.125059      2.595050     -1.313904
  H       0.810396      3.236867      0.073204
  H      -0.796876      2.499848      0.354282
  Li      2.468185      0.411653      0.596000
  C       3.772473      0.271932      3.570261
  O       3.721294      0.469829      2.123080
  P       5.091006      0.271940      1.268272
  O       6.278009      1.027665      1.681512
  O       5.262196     -1.307281      1.134289
  C       6.513326     -1.968916      1.511370
  O       4.313315      0.673116     -0.097578
  C       5.025788      0.542898     -1.368045
  H       2.838580      0.670468      3.964385
  H       4.621610      0.823925      3.980352
  H       3.855354     -0.795623      3.790496
  H       6.309186     -2.593201      2.382772
  H       7.280301     -1.225919      1.738047
  H       6.812148     -2.586525      0.663632
  H       4.372306      0.975047     -2.124724
  H       5.208794     -0.514035     -1.577599
  H       5.963767      1.100817     -1.315082
35
Coordinates from ORCA-job TMP_m2_shell2_cation_opt E -1531.348736542742
  C       1.401979     -2.460355     -0.405255
  O       1.349577     -1.036083     -0.100898
  P       0.085526     -0.158620     -0.623300
  O      -0.236626     -0.213078     -2.054492
  O      -1.084846     -0.476236      0.396025
  C      -2.436265     -0.807618     -0.061194
  O       0.779056      1.195829     -0.052550
  C       0.098732      2.471346     -0.253945
  H       2.388464     -2.803107     -0.093673
  H       1.266948     -2.613358     -1.479164
  H       0.626990     -2.985802      0.159570
  H      -2.674223     -1.799350      0.325975
  H      -2.484676     -0.795859     -1.152017
  H      -3.112393     -0.064411      0.363777
  H      -0.131745      2.601974     -1.314383
  H       0.789631      3.244576      0.080209
  H      -0.814084      2.498750      0.347385
  Li      2.467817      0.413549      0.597696
  C       3.780939      0.251831      3.571449
  O       3.727836      0.459497      2.126921
  P       5.099200      0.275372      1.271619
  O       6.274785      1.051198      1.677786
  O       5.291650     -1.302524      1.151968
  C       6.551031     -1.947700      1.525086
  O       4.319567      0.657301     -0.097702
  C       5.026284      0.519859     -1.369024
  H       2.838423      0.624692      3.970983
  H       4.616005      0.817837      3.991823
  H       3.887117     -0.815161      3.786464
  H       6.363730     -2.562281      2.407559
  H       7.317015     -1.198089      1.734157
  H       6.847971     -2.576425      0.684497
  H       4.366665      0.934906     -2.130329
  H       5.221506     -0.537074     -1.569361
  H       5.959650      1.087313     -1.332239
35
Coordinates from ORCA-job TMP_m2_shell2_cation_opt E -1531.348907789992
  C       1.374896     -2.462057     -0.413129
  O       1.338389     -1.039028     -0.098205
  P       0.082916     -0.152177     -0.624585
  O      -0.234817     -0.205152     -2.057401
  O      -1.094970     -0.467336      0.388848
  C      -2.445577     -0.794086     -0.068320
  O       0.773139      1.201845     -0.048505
  C       0.086619      2.473767     -0.255839
  H       2.355353     -2.821186     -0.100366
  H       1.242344     -2.608099     -1.488386
  H       0.591993     -2.983016      0.145303
  H      -2.688488     -1.785788      0.316683
  H      -2.497531     -0.781535     -1.159258
  H      -3.121671     -0.050676      0.357104
  H      -0.136136      2.605480     -1.317857
  H       0.768370      3.252460      0.084923
  H      -0.831590      2.496048      0.337784
  Li      2.467297      0.412493      0.600040
  C       3.790292      0.232327      3.575990
  O       3.731815      0.444001      2.132747
  P       5.104715      0.276073      1.274833
  O       6.268398      1.075264      1.671642
  O       5.319892     -1.300088      1.171934
  C       6.588736     -1.927706      1.538025
  O       4.323528      0.636532     -0.099454
  C       5.028694      0.501356     -1.370802
  H       2.838597      0.577987      3.978727
  H       4.609688      0.817081      4.001802
  H       3.923642     -0.832513      3.787786
  H       6.420945     -2.529235      2.433657
  H       7.353520     -1.170485      1.724368
  H       6.880274     -2.569242      0.704994
  H       4.361334      0.899460     -2.134679
  H       5.241209     -0.553639     -1.565030
  H       5.953422      1.083572     -1.343948
35
Coordinates from ORCA-job TMP_m2_shell2_cation_opt E -1531.349050607008
  C       1.345864     -2.466903     -0.420319
  O       1.326125     -1.044738     -0.094198
  P       0.079431     -0.146815     -0.624872
  O      -0.233256     -0.197547     -2.060072
  O      -1.105463     -0.458151      0.382846
  C      -2.455350     -0.779451     -0.076219
  O       0.767808      1.206895     -0.043287
  C       0.076257      2.476245     -0.258017
  H       2.320339     -2.840146     -0.105437
  H       1.216548     -2.602652     -1.497180
  H       0.554051     -2.980694      0.131995
  H      -2.702765     -1.771131      0.306250
  H      -2.507050     -0.765051     -1.167283
  H      -3.130159     -0.034862      0.349411
  H      -0.136237      2.606314     -1.322222
  H       0.751197      3.257760      0.089733
  H      -0.847050      2.492791      0.327693
  Li      2.465587      0.408258      0.602808
  C       3.799682      0.213743      3.581593
  O       3.733846      0.423864      2.138282
  P       5.108282      0.272414      1.277524
  O       6.259508      1.096390      1.664074
  O       5.347259     -1.301052      1.191458
  C       6.627712     -1.907600      1.549441
  O       4.324335      0.611543     -0.101341
  C       5.031810      0.485265     -1.371900
  H       2.838795      0.532793      3.984453
  H       4.602820      0.820834      4.007056
  H       3.962050     -0.847289      3.792105
  H       6.481053     -2.493949      2.458814
  H       7.387431     -1.139335      1.710267
  H       6.913496     -2.561508      0.724062
  H       4.355640      0.866158     -2.136848
  H       5.265326     -0.566221     -1.561070
  H       5.944315      1.086529     -1.348177
35
Coordinates from ORCA-job TMP_m2_shell2_cation_opt E -1531.349182647117
  C       1.313916     -2.473889     -0.426689
  O       1.310871     -1.052538     -0.089305
  P       0.072940     -0.142547     -0.623700
  O      -0.233940     -0.189718     -2.061440
  O      -1.118218     -0.448532      0.378461
  C      -2.467364     -0.763390     -0.085833
  O       0.762330      1.209883     -0.036982
  C       0.068675      2.478338     -0.259975
  H       2.282357     -2.859268     -0.108407
  H       1.189114     -2.597016     -1.505348
  H       0.512285     -2.978856      0.119007
  H      -2.719451     -1.755120      0.293215
  H      -2.514113     -0.745798     -1.177046
  H      -3.140112     -0.016833      0.339355
  H      -0.131323      2.605026     -1.326777
  H       0.739544      3.259768      0.095233
  H      -0.859770      2.490183      0.317177
  Li      2.462055      0.400306      0.606030
  C       3.809336      0.195700      3.587083
  O       3.734404      0.398002      2.142401
  P       5.110370      0.263254      1.279572
  O       6.247452      1.113471      1.655514
  O       5.375768     -1.306030      1.209892
  C       6.670841     -1.885578      1.559610
  O       4.321547      0.581012     -0.102610
  C       5.035472      0.470446     -1.371285
  H       2.839542      0.488653      3.987979
  H       4.595477      0.828574      4.006334
  H       4.002572     -0.859533      3.799381
  H       6.547253     -2.455076      2.482862
  H       7.419843     -1.101771      1.692969
  H       6.952748     -2.550956      0.742315
  H       4.350427      0.833220     -2.136962
  H       5.294405     -0.575563     -1.556665
  H       5.931985      1.094874     -1.343944
35
Coordinates from ORCA-job TMP_m2_shell2_cation_opt E -1531.349306562072
  C       1.280452     -2.482038     -0.431573
  O       1.292481     -1.061597     -0.084194
  P       0.062855     -0.139837     -0.621008
  O      -0.237752     -0.182110     -2.060808
  O      -1.133617     -0.439109      0.375990
  C      -2.482141     -0.746617     -0.096782
  O       0.756972      1.209576     -0.030225
  C       0.065646      2.479374     -0.261399
  H       2.242821     -2.877918     -0.108647
  H       1.161481     -2.592797     -1.511986
  H       0.468802     -2.978152      0.106741
  H      -2.739423     -1.738457      0.277914
  H      -2.520274     -0.724650     -1.188103
  H      -3.152472      0.002328      0.327480
  H      -0.121211      2.602518     -1.330769
  H       0.735275      3.258166      0.101173
  H      -0.867980      2.489623      0.306804
  Li      2.456659      0.388460      0.609275
  C       3.818627      0.179264      3.591157
  O       3.733547      0.366848      2.143992
  P       5.110889      0.248709      1.280445
  O       6.232070      1.125132      1.646502
  O       5.405259     -1.314791      1.225346
  C       6.716936     -1.862028      1.568398
  O       4.314987      0.545542     -0.103275
  C       5.039538      0.458151     -1.368622
  H       2.841095      0.448068      3.989593
  H       4.587881      0.839406      3.999103
  H       4.042665     -0.868249      3.809688
  H       6.616232     -2.414942      2.504158
  H       7.449788     -1.059477      1.675819
  H       6.999114     -2.536825      0.759290
  H       4.347311      0.803022     -2.135850
  H       5.327697     -0.580115     -1.553036
  H       5.917030      1.108221     -1.331169
35
Coordinates from ORCA-job TMP_m2_shell2_cation_opt E -1531.349433318525
  C       1.245810     -2.491246     -0.434435
  O       1.270905     -1.071834     -0.079286
  P       0.049425     -0.138984     -0.617260
  O      -0.244580     -0.175170     -2.058444
  O      -1.151865     -0.430084      0.374873
  C      -2.500185     -0.728836     -0.108517
  O       0.752231      1.205225     -0.023473
  C       0.068562      2.478900     -0.262020
  H       2.201720     -2.897042     -0.105422
  H       1.134163     -2.592159     -1.516442
  H       0.424107     -2.979347      0.095439
  H      -2.763663     -1.720806      0.260888
  H      -2.528191     -0.701402     -1.199818
  H      -3.167655      0.022706      0.315079
  H      -0.105558      2.600009     -1.333622
  H       0.739410      3.252970      0.107783
  H      -0.870383      2.491964      0.296901
  Li      2.449619      0.372217      0.611890
  C       3.827124      0.164265      3.592830
  O       3.731159      0.329577      2.142428
  P       5.109641      0.229368      1.279311
  O       6.212610      1.132293      1.636319
  O       5.436781     -1.326580      1.236721
  C       6.765696     -1.836766      1.576865
  O       4.304659      0.504435     -0.104475
  C       5.043883      0.449518     -1.364500
  H       2.843170      0.410436      3.989599
  H       4.579198      0.852691      3.985390
  H       4.081981     -0.873389      3.823016
  H       6.685478     -2.375132      2.522766
  H       7.477772     -1.013591      1.663200
  H       7.054360     -2.517978      0.775790
  H       4.347021      0.777013     -2.134912
  H       5.365850     -0.577994     -1.552128
  H       5.898979      1.127455     -1.310909
35
Coordinates from ORCA-job TMP_m2_shell2_cation_opt E -1531.349563181678
  C       1.212762     -2.501111     -0.434125
  O       1.247673     -1.082643     -0.075194
  P       0.034168     -0.140185     -0.613614
  O      -0.253424     -0.169757     -2.055507
  O      -1.171777     -0.422039      0.374040
  C      -2.520599     -0.710460     -0.119940
  O       0.749009      1.196653     -0.017560
  C       0.078736      2.476795     -0.261035
  H       2.161891     -2.916098     -0.097369
  H       1.109867     -2.597396     -1.517414
  H       0.381611     -2.982930      0.086636
  H      -2.791285     -1.702540      0.243497
  H      -2.539803     -0.676763     -1.211075
  H      -3.184601      0.043627      0.304192
  H      -0.084445      2.599353     -1.334171
  H       0.753082      3.244290      0.115865
  H      -0.865293      2.497624      0.288979
  Li      2.441825      0.352221      0.612968
  C       3.833232      0.150698      3.591119
  O       3.727279      0.287644      2.137471
  P       5.106631      0.207621      1.275445
  O       6.189492      1.136753      1.624665
  O       5.469811     -1.339261      1.242411
  C       6.814029     -1.810896      1.585709
  O       4.291603      0.459544     -0.107637
  C       5.047354      0.445357     -1.360438
  H       2.844123      0.375769      3.987410
  H       4.567688      0.866908      3.966752
  H       4.117959     -0.875206      3.837908
  H       6.748619     -2.339594      2.538029
  H       7.503148     -0.967563      1.660168
  H       7.116557     -2.493943      0.791562
  H       4.348401      0.756535     -2.135610
  H       5.406579     -0.568276     -1.555485
  H       5.877332      1.151971     -1.287229
35
Coordinates from ORCA-job TMP_m2_shell2_cation_opt E -1531.349686786084
  C       1.188440     -2.509820     -0.429823
  O       1.227612     -1.091862     -0.072720
  P       0.020982     -0.142845     -0.611844
  O      -0.261624     -0.166758     -2.053969
  O      -1.189331     -0.416226      0.372080
  C      -2.539288     -0.693955     -0.129260
  O       0.748271      1.185791     -0.013642
  C       0.094956      2.473868     -0.257296
  H       2.131659     -2.931318     -0.084418
  H       1.094545     -2.608628     -1.513844
  H       0.350155     -2.988372      0.082863
  H      -2.817158     -1.686205      0.228239
  H      -2.554120     -0.653992     -1.220183
  H      -3.199599      0.062016      0.297249
  H      -0.061071      2.602696     -1.330877
  H       0.774419      3.233734      0.126113
  H      -0.852863      2.505650      0.285986
  Li      2.435417      0.332553      0.611939
  C       3.834273      0.139485      3.586325
  O       3.722872      0.248638      2.130452
  P       5.102869      0.189324      1.269431
  O       6.166592      1.141384      1.613106
  O       5.499980     -1.348614      1.241752
  C       6.853742     -1.788782      1.594588
  O       4.279362      0.418955     -0.113171
  C       5.047208      0.444910     -1.359445
  H       2.840974      0.346340      3.982266
  H       4.551936      0.879028      3.949057
  H       4.144226     -0.874717      3.850956
  H       6.794209     -2.315399      2.548486
  H       7.523580     -0.930189      1.669356
  H       7.174778     -2.468520      0.804898
  H       4.346642      0.741396     -2.139005
  H       5.441362     -0.553977     -1.563415
  H       5.853232      1.177115     -1.270808
35
Coordinates from ORCA-job TMP_m2_shell2_cation_opt E -1531.349803098504
  C       1.174091     -2.517049     -0.422259
  O       1.212759     -1.099152     -0.071434
  P       0.012303     -0.145852     -0.612612
  O      -0.267002     -0.165589     -2.054970
  O      -1.202473     -0.412286      0.367973
  C      -2.553772     -0.679416     -0.136439
  O       0.750216      1.174890     -0.011331
  C       0.114955      2.471206     -0.250501
  H       2.112763     -2.941937     -0.068084
  H       1.088670     -2.623751     -1.506452
  H       0.331181     -2.994760      0.084254
  H      -2.838409     -1.671996      0.215156
  H      -2.569063     -0.633323     -1.227187
  H      -3.210384      0.077613      0.294190
  H      -0.037392      2.610223     -1.323532
  H       0.800507      3.222868      0.138806
  H      -0.834998      2.514738      0.288798
  Li      2.431473      0.315259      0.609293
  C       3.829663      0.129487      3.580192
  O       3.718499      0.215138      2.123342
  P       5.099025      0.176883      1.262492
  O       6.145141      1.149151      1.602436
  O       5.526188     -1.352964      1.237260
  C       6.883405     -1.771151      1.603604
  O       4.269998      0.385053     -0.120704
  C       5.041768      0.445578     -1.363470
  H       2.832040      0.319243      3.974314
  H       4.530435      0.888392      3.936228
  H       4.160983     -0.873727      3.861338
  H       6.822782     -2.301634      2.555480
  H       7.539624     -0.902816      1.687490
  H       7.224277     -2.444210      0.816348
  H       4.336841      0.726063     -2.145263
  H       5.467861     -0.538694     -1.574988
  H       5.825282      1.201222     -1.268344
35
Coordinates from ORCA-job TMP_m2_shell2_cation_opt E -1531.349895743302
  C       1.161274     -2.524160     -0.415228
  O       1.200208     -1.106428     -0.069716
  P       0.007370     -0.147484     -0.614813
  O      -0.269055     -0.163716     -2.058013
  O      -1.212874     -0.407466      0.361647
  C      -2.564991     -0.663272     -0.143510
  O       0.753250      1.166299     -0.008382
  C       0.134167      2.469913     -0.242025
  H       2.095723     -2.952094     -0.053089
  H       1.083633     -2.637613     -1.499471
  H       0.314113     -3.000304      0.086107
  H      -2.856676     -1.656285      0.201530
  H      -2.582574     -0.610730     -1.234079
  H      -3.217715      0.094567      0.291948
  H      -0.014658      2.619206     -1.314315
  H       0.825472      3.213408      0.153280
  H      -0.817183      2.523030      0.294365
  Li      2.429371      0.299423      0.606709
  C       3.823416      0.115665      3.575043
  O       3.714863      0.182559      2.118181
  P       5.095833      0.167860      1.256315
  O       6.122722      1.162528      1.591596
  O       5.553127     -1.353347      1.235314
  C       6.911771     -1.751070      1.614037
  O       4.263583      0.352040     -0.128848
  C       5.032489      0.441039     -1.370804
  H       2.820340      0.283178      3.965831
  H       4.503242      0.894996      3.927904
  H       4.179063     -0.875644      3.869183
  H       6.851094     -2.284036      2.564712
  H       7.555774     -0.874080      1.705075
  H       7.271300     -2.418263      0.829915
  H       4.319150      0.698760     -2.153032
  H       5.491610     -0.527848     -1.584796
  H       5.791004      1.222072     -1.277148
35
Coordinates from ORCA-job TMP_m2_shell2_cation_opt E -1531.349961737161
  C       1.145454     -2.531870     -0.411409
  O       1.187960     -1.114686     -0.066607
  P       0.004343     -0.147483     -0.616354
  O      -0.268801     -0.160130     -2.060889
  O      -1.221866     -0.400780      0.355214
  C      -2.573968     -0.644974     -0.151075
  O       0.756315      1.160335     -0.003606
  C       0.150354      2.469906     -0.234043
  H       2.075836     -2.963700     -0.043324
  H       1.074196     -2.646609     -1.495972
  H       0.293559     -3.004561      0.085173
  H      -2.872951     -1.638339      0.186946
  H      -2.592234     -0.585901     -1.241422
  H      -3.222826      0.113922      0.288481
  H       0.006261      2.625788     -1.306061
  H       0.846888      3.205735      0.166542
  H      -0.802150      2.529937      0.299586
  Li      2.427941      0.283990      0.605538
  C       3.818690      0.098016      3.571908
  O       3.711965      0.149011      2.115290
  P       5.093047      0.158968      1.251782
  O       6.098437      1.178415      1.580971
  O       5.581044     -1.352442      1.237955
  C       6.942313     -1.726458      1.625033
  O       4.258719      0.317564     -0.135713
  C       5.021779      0.430627     -1.378163
  H       2.809892      0.238089      3.958869
  H       4.473759      0.899976      3.921019
  H       4.202954     -0.879687      3.875567
  H       6.886393     -2.257080      2.577396
  H       7.572549     -0.839283      1.716083
  H       7.317884     -2.390288      0.845501
  H       4.298139      0.659335     -2.160037
  H       5.515623     -0.521578     -1.589615
  H       5.751735      1.238938     -1.289141
35
Coordinates from ORCA-job TMP_m2_shell2_cation_opt E -1531.350004987438
  C       1.128638     -2.539326     -0.411273
  O       1.176582     -1.123081     -0.062477
  P       0.002115     -0.146571     -0.616001
  O      -0.267501     -0.155531     -2.061797
  O      -1.229324     -0.393259      0.350889
  C      -2.580895     -0.626993     -0.158059
  O       0.759254      1.156121      0.002373
  C       0.163525      2.470415     -0.228090
  H       2.055875     -2.975238     -0.040297
  H       1.061378     -2.649980     -1.496427
  H       0.272459     -3.008106      0.081307
  H      -2.886668     -1.620474      0.173528
  H      -2.597201     -0.562212     -1.248160
  H      -3.226392      0.133269      0.284037
  H       0.024089      2.628069     -1.300401
  H       0.865113      3.199672      0.175523
  H      -0.789679      2.535860      0.303381
  Li      2.426595      0.269426      0.606110
  C       3.815850      0.080321      3.570610
  O       3.709620      0.117423      2.113947
  P       5.090393      0.149372      1.249044
  O       6.074399      1.192156      1.572420
  O       5.606400     -1.352100      1.243202
  C       6.971876     -1.700928      1.634787
  O       4.254540      0.284892     -0.139959
  C       5.011183      0.417791     -1.383679
  H       2.802333      0.192411      3.954180
  H       4.446011      0.904281      3.914272
  H       4.228966     -0.883219      3.881246
  H       6.923861     -2.226009      2.590608
  H       7.587327     -0.802826      1.720780
  H       7.360375     -2.363048      0.860191
  H       4.277966      0.615688     -2.164991
  H       5.538201     -0.517531     -1.589769
  H       5.711970      1.251967     -1.299633
35
Coordinates from ORCA-job TMP_m2_shell2_cation_opt E -1531.350031783044
  C       1.114602     -2.545374     -0.413847
  O       1.167531     -1.130360     -0.058307
  P       0.000491     -0.145613     -0.613828
  O      -0.265897     -0.151213     -2.060400
  O      -1.234653     -0.386428      0.349523
  C      -2.585722     -0.612080     -0.163086
  O       0.762386      1.152689      0.008179
  C       0.174611      2.470646     -0.224678
  H       2.040225     -2.984789     -0.043303
  H       1.048420     -2.649254     -1.499639
  H       0.255766     -3.011708      0.076055
  H      -2.897010     -1.605385      0.163761
  H      -2.598579     -0.543250     -1.252971
  H      -3.228657      0.149680      0.280025
  H       0.037845      2.626432     -1.297528
  H       0.881197      3.194993      0.178792
  H      -0.778453      2.541340      0.306054
  Li      2.425247      0.256681      0.607924
  C       3.813835      0.066337      3.570385
  O       3.707463      0.091448      2.113324
  P       5.087643      0.139971      1.247754
  O       6.053570      1.200941      1.567354
  O       5.625798     -1.352967      1.248184
  C       6.995947     -1.679164      1.642035
  O       4.250751      0.258303     -0.141537
  C       5.001559      0.406564     -1.387006
  H       2.797194      0.154966      3.951546
  H       4.422981      0.908401      3.907857
  H       4.251141     -0.884489      3.886625
  H       6.955721     -2.198916      2.601042
  H       7.597601     -0.771249      1.722466
  H       7.394502     -2.339720      0.871306
  H       4.261001      0.576681     -2.167823
  H       5.556643     -0.513504     -1.587434
  H       5.676533      1.262093     -1.307379
35
Coordinates from ORCA-job TMP_m2_shell2_cation_opt E -1531.350048986763
  C       1.105724     -2.549303     -0.417947
  O       1.161936     -1.135671     -0.054932
  P      -0.000139     -0.144958     -0.610735
  O      -0.264075     -0.148025     -2.057561
  O      -1.237370     -0.381197      0.350590
  C      -2.588247     -0.601835     -0.165479
  O       0.765904      1.149868      0.012748
  C       0.183896      2.470413     -0.223433
  H       2.031358     -2.991299     -0.050746
  H       1.037769     -2.646250     -1.504220
  H       0.246394     -3.015516      0.070986
  H      -2.903256     -1.594705      0.158992
  H      -2.597783     -0.531081     -1.255234
  H      -3.229515      0.161350      0.277474
  H       0.046778      2.622497     -1.296724
  H       0.895151      3.191833      0.176857
  H      -0.767999      2.546417      0.308460
  Li      2.424108      0.246719      0.610254
  C       3.811667      0.057726      3.570660
  O       3.705335      0.073481      2.113062
  P       5.084906      0.132387      1.247549
  O       6.038270      1.204799      1.565976
  O       5.637806     -1.354584      1.251403
  C       7.011906     -1.664070      1.646573
  O       4.247600      0.240595     -0.141134
  C       4.993237      0.398941     -1.388756
  H       2.793263      0.130106      3.950331
  H       4.406036      0.912283      3.902862
  H       4.265706     -0.883580      3.891521
  H       6.977166     -2.180917      2.607301
  H       7.602793     -0.748897      1.723896
  H       7.417705     -2.322549      0.877918
  H       4.247517      0.546999     -2.169044
  H       5.569147     -0.509212     -1.584461
  H       5.648539      1.269937     -1.313583
35
Coordinates from ORCA-job TMP_m2_shell2_cation_opt E -1531.350059239289
  C       1.101704     -2.550901     -0.422189
  O       1.159548     -1.138564     -0.053040
  P      -0.000052     -0.144569     -0.608030
  O      -0.262465     -0.146231     -2.054816
  O      -1.238093     -0.377832      0.352622
  C      -2.589088     -0.596633     -0.165760
  O       0.769093      1.147983      0.015383
  C       0.190366      2.469926     -0.223459
  H       2.028241     -2.994748     -0.059585
  H       1.030405     -2.642840     -1.508687
  H       0.243459     -3.018677      0.067134
  H      -2.905829     -1.588919      0.158737
  H      -2.596523     -0.526027     -1.255499
  H      -3.229566      0.167711      0.276279
  H       0.050609      2.618620     -1.296891
  H       0.905072      3.190366      0.172376
  H      -0.759807      2.550330      0.310840
  Li      2.423257      0.240349      0.612247
  C       3.809625      0.054115      3.570896
  O       3.703589      0.064144      2.112896
  P       5.082858      0.127932      1.248028
  O       6.029991      1.205321      1.566958
  O       5.643388     -1.355986      1.252839
  C       7.020072     -1.656127      1.648915
  O       4.245444      0.232185     -0.139741
  C       4.987337      0.394939     -1.389275
  H       2.790443      0.117843      3.949993
  H       4.396069      0.915266      3.900050
  H       4.272450     -0.881792      3.894992
  H       6.987891     -2.172626      2.609891
  H       7.604526     -0.736876      1.725897
  H       7.430079     -2.312532      0.880753
  H       4.238629      0.528705     -2.169251
  H       5.575537     -0.506063     -1.581654
  H       5.630972      1.274912     -1.318427
35
Coordinates from ORCA-job TMP_m2_shell2_cation_opt E -1531.350065202956
  C       1.099658     -2.551309     -0.425448
  O       1.158565     -1.140017     -0.052369
  P       0.000212     -0.144326     -0.606497
  O      -0.261241     -0.145412     -2.053268
  O      -1.238223     -0.375519      0.354037
  C      -2.589435     -0.594147     -0.165492
  O       0.771574      1.146836      0.016522
  C       0.194426      2.469405     -0.223428
  H       2.026992     -2.996784     -0.066823
  H       1.025170     -2.640573     -1.511985
  H       0.242774     -3.020763      0.064755
  H      -2.906810     -1.585809      0.160277
  H      -2.595930     -0.524743     -1.255290
  H      -3.229547      0.171158      0.275413
  H       0.051488      2.616308     -1.296716
  H       0.911273      3.189806      0.168642
  H      -0.754084      2.552780      0.313441
  Li      2.422578      0.236298      0.613476
  C       3.808060      0.052709      3.570773
  O       3.702344      0.059711      2.112619
  P       5.081687      0.126002      1.248629
  O       6.026347      1.205150      1.568214
  O       5.646278     -1.356457      1.253484
  C       7.024394     -1.651907      1.650271
  O       4.244071      0.228841     -0.138495
  C       4.983758      0.392658     -1.389201
  H       2.788580      0.111816      3.949883
  H       4.390340      0.917116      3.898765
  H       4.275322     -0.880349      3.896859
  H       6.993079     -2.169129      2.610894
  H       7.605452     -0.730630      1.728095
  H       7.436686     -2.306725      0.881978
  H       4.233633      0.517780     -2.169274
  H       5.578635     -0.504539     -1.579173
  H       5.621132      1.277464     -1.322145
35
Coordinates from ORCA-job TMP_m2_shell2_cation_opt E -1531.350069968091
  C       1.098618     -2.551376     -0.427714
  O       1.158510     -1.140872     -0.052427
  P       0.000899     -0.144185     -0.606021
  O      -0.259954     -0.145334     -2.052877
  O      -1.237807     -0.373596      0.354630
  C      -2.589198     -0.592980     -0.165204
  O       0.773857      1.146178      0.016674
  C       0.197060      2.468904     -0.222855
  H       2.026673     -2.998210     -0.072526
  H       1.021075     -2.639472     -1.514169
  H       0.243170     -3.022127      0.063885
  H      -2.906657     -1.583943      0.162608
  H      -2.595387     -0.525518     -1.255115
  H      -3.229150      0.173283      0.274281
  H       0.050522      2.615226     -1.295767
  H       0.915394      3.189622      0.165992
  H      -0.749682      2.553969      0.316955
  Li      2.422037      0.233344      0.614168
  C       3.806572      0.052361      3.570521
  O       3.701365      0.058231      2.112358
  P       5.081080      0.125993      1.249302
  O       6.025415      1.205190      1.569663
  O       5.647616     -1.355947      1.253745
  C       7.026347     -1.649661      1.650923
  O       4.243271      0.228652     -0.137526
  C       4.981455      0.391173     -1.389097
  H       2.786930      0.108817      3.949701
  H       4.386532      0.918270      3.898675
  H       4.276025     -0.879299      3.897629
  H       6.995026     -2.168117      2.610897
  H       7.605945     -0.727613      1.730096
  H       7.439666     -2.303239      0.882111
  H       4.230573      0.510751     -2.169361
  H       5.579737     -0.504283     -1.576923
  H       5.615702      1.278509     -1.325810
35
Coordinates from ORCA-job TMP_m2_shell2_cation_opt E -1531.350075398326
  C       1.096672     -2.551975     -0.429328
  O       1.158313     -1.142130     -0.052866
  P       0.001856     -0.144107     -0.606457
  O      -0.258331     -0.145705     -2.053551
  O      -1.237405     -0.370966      0.354183
  C      -2.588845     -0.591376     -0.165658
  O       0.776589      1.145447      0.016266
  C       0.199614      2.468259     -0.221119
  H       2.025247     -3.000395     -0.077370
  H       1.015985     -2.639647     -1.515619
  H       0.242525     -3.023243      0.064155
  H      -2.906466     -1.581404      0.164808
  H      -2.594759     -0.526572     -1.255729
  H      -3.228614      0.176190      0.271824
  H       0.048783      2.615103     -1.293393
  H       0.919509      3.189099      0.164708
  H      -0.744959      2.554205      0.322415
  Li      2.421322      0.229508      0.614619
  C       3.804943      0.051701      3.570081
  O       3.700399      0.057061      2.112002
  P       5.080794      0.127021      1.250054
  O       6.025007      1.206267      1.571185
  O       5.649452     -1.354367      1.254155
  C       7.028567     -1.646737      1.651359
  O       4.242586      0.229144     -0.136764
  C       4.979495      0.389189     -1.389041
  H       2.785067      0.104831      3.949213
  H       4.382013      0.919278      3.898948
  H       4.277024     -0.878465      3.897808
  H       6.997400     -2.166407      2.610698
  H       7.607018     -0.724092      1.731742
  H       7.442647     -2.299133      0.881936
  H       4.228059      0.503282     -2.169650
  H       5.580702     -0.504934     -1.574131
  H       5.611025      1.278775     -1.330062
35
Coordinates from ORCA-job TMP_m2_shell2_cation_opt E -1531.350081961702
  C       1.092640     -2.553937     -0.430050
  O       1.157285     -1.144528     -0.053502
  P       0.002993     -0.144194     -0.607896
  O      -0.256288     -0.146572     -2.055362
  O      -1.237342     -0.367032      0.352368
  C      -2.588611     -0.588213     -0.167474
  O       0.780149      1.144146      0.015337
  C       0.202901      2.467292     -0.217759
  H       2.021391     -3.004252     -0.080881
  H       1.008893     -2.641700     -1.516118
  H       0.239332     -3.024375      0.065728
  H      -2.906944     -1.577014      0.165960
  H      -2.593946     -0.526629     -1.257744
  H      -3.228043      0.181159      0.267316
  H       0.047092      2.615914     -1.289101
  H       0.924893      3.187541      0.165323
  H      -0.738985      2.553360      0.330425
  Li      2.420251      0.223467      0.614976
  C       3.803077      0.049984      3.569532
  O       3.699402      0.054783      2.111567
  P       5.080706      0.128678      1.250844
  O       6.023666      1.209065      1.572788
  O       5.652790     -1.351569      1.254855
  C       7.032329     -1.641660      1.651560
  O       4.241864      0.229046     -0.136238
  C       4.977579      0.386241     -1.389121
  H       2.782770      0.097772      3.948272
  H       4.375401      0.920413      3.899163
  H       4.279627     -0.877745      3.897764
  H       7.002185     -2.162229      2.610449
  H       7.609117     -0.718037      1.732634
  H       7.447458     -2.292719      0.881556
  H       4.225593      0.493772     -2.170176
  H       5.582438     -0.506176     -1.570654
  H       5.605571      1.278648     -1.334915
35
Coordinates from ORCA-job TMP_m2_shell2_cation_opt E -1531.350090365910
  C       1.085156     -2.558130     -0.429518
  O       1.154497     -1.148795     -0.054113
  P       0.003939     -0.144683     -0.610337
  O      -0.254034     -0.148061     -2.058234
  O      -1.238208     -0.361493      0.348958
  C      -2.589057     -0.582444     -0.171235
  O       0.784641      1.141615      0.013881
  C       0.207648      2.465703     -0.212728
  H       2.013384     -3.010811     -0.082033
  H       0.999047     -2.646397     -1.515349
  H       0.231642     -3.025752      0.068511
  H      -2.909123     -1.569809      0.164760
  H      -2.593292     -0.524008     -1.261694
  H      -3.227840      0.189175      0.260481
  H       0.046724      2.617492     -1.282880
  H       0.932508      3.184151      0.168315
  H      -0.731231      2.551269      0.340612
  Li      2.418614      0.213985      0.615410
  C       3.801260      0.046577      3.569018
  O       3.698456      0.049821      2.111132
  P       5.080644      0.130279      1.251544
  O       6.019763      1.214054      1.574205
  O       5.658622     -1.347654      1.255883
  C       7.038984     -1.633084      1.651426
  O       4.240912      0.226832     -0.136001
  C       4.975820      0.382347     -1.389169
  H       2.780334      0.086246      3.947036
  H       4.366190      0.921813      3.898672
  H       4.285110     -0.877063      3.898072
  H       7.011480     -2.153858      2.610278
  H       7.612731     -0.707524      1.732215
  H       7.456003     -2.282510      0.881053
  H       4.223401      0.482249     -2.170842
  H       5.585775     -0.507397     -1.566753
  H       5.598734      1.278570     -1.339153
35
Coordinates from ORCA-job TMP_m2_shell2_cation_opt E -1531.350102011739
  C       1.072325     -2.565713     -0.427622
  O       1.148932     -1.156043     -0.054629
  P       0.004534     -0.145942     -0.613953
  O      -0.251533     -0.150696     -2.062269
  O      -1.240432     -0.353491      0.343631
  C      -2.590626     -0.572691     -0.177528
  O       0.790852      1.136855      0.011453
  C       0.215256      2.462904     -0.205908
  H       1.999032     -3.021752     -0.080588
  H       0.984583     -2.654810     -1.513223
  H       0.217158     -3.027867      0.072517
  H      -2.913915     -1.558342      0.160418
  H      -2.593107     -0.517196     -1.268166
  H      -3.228253      0.201769      0.250753
  H       0.048698      2.619545     -1.274501
  H       0.944343      3.177840      0.173604
  H      -0.720036      2.547647      0.353471
  Li      2.416031      0.198796      0.616310
  C       3.799505      0.040720      3.568823
  O       3.697621      0.040677      2.110919
  P       5.080392      0.131603      1.252281
  O       6.011555      1.222087      1.575764
  O       5.668124     -1.342189      1.257187
  C       7.050106     -1.619060      1.650716
  O       4.239576      0.221661     -0.135808
  C       4.974070      0.377439     -1.388960
  H       2.777808      0.068421      3.945754
  H       4.353344      0.923433      3.897310
  H       4.294534     -0.876368      3.899434
  H       7.027591     -2.139444      2.609894
  H       7.618422     -0.690009      1.730299
  H       7.470527     -2.265999      0.880090
  H       4.221337      0.468293     -2.171418
  H       5.591119     -0.508206     -1.562348
  H       5.589763      1.278828     -1.342287
35
Coordinates from ORCA-job TMP_m2_shell2_cation_opt E -1531.350117141787
  C       1.053667     -2.576709     -0.424716
  O       1.139985     -1.166416     -0.054813
  P       0.004195     -0.148286     -0.618200
  O      -0.249468     -0.154672     -2.066790
  O      -1.244415     -0.343499      0.337090
  C      -2.593941     -0.558859     -0.185793
  O       0.798460      1.129343      0.007937
  C       0.226247      2.458572     -0.198892
  H       1.977500     -3.037443     -0.076442
  H       0.965658     -2.666682     -1.510178
  H       0.195031     -3.030936      0.076528
  H      -2.921904     -1.542842      0.152569
  H      -2.594282     -0.504957     -1.276538
  H      -3.229755      0.218566      0.239764
  H       0.054555      2.621136     -1.265785
  H       0.960738      3.168296      0.179850
  H      -0.705448      2.543018      0.366336
  Li      2.412451      0.177747      0.618066
  C       3.798468      0.032160      3.569353
  O       3.697208      0.026572      2.111316
  P       5.079663      0.131866      1.253038
  O       5.998075      1.232709      1.577298
  O       5.681539     -1.335679      1.258497
  C       7.066195     -1.599232      1.649526
  O       4.237799      0.212880     -0.135423
  C       4.972512      0.372409     -1.388077
  H       2.776139      0.045050      3.945263
  H       4.338395      0.924468      3.894994
  H       4.307714     -0.876107      3.902538
  H       7.050985     -2.118761      2.609298
  H       7.626044     -0.664849      1.727284
  H       7.491967     -2.242525      0.878775
  H       4.219778      0.454527     -2.171453
  H       5.597960     -0.507890     -1.558379
  H       5.579519      1.279727     -1.342417
35
Coordinates from ORCA-job TMP_m2_shell2_cation_opt E -1531.350137935637
  C       1.022410     -2.593998     -0.421224
  O       1.123826     -1.183246     -0.054211
  P       0.002037     -0.152567     -0.623295
  O      -0.247914     -0.160872     -2.072112
  O      -1.251965     -0.328600      0.328562
  C      -2.600978     -0.535809     -0.197543
  O       0.809579      1.116254      0.002814
  C       0.245509      2.451143     -0.191579
  H       1.940663     -3.063199     -0.069802
  H       0.935823     -2.684267     -1.506724
  H       0.157288     -3.036267      0.079334
  H      -2.936572     -1.517959      0.138805
  H      -2.598414     -0.481212     -1.288274
  H      -3.233286      0.245231      0.226595
  H       0.068814      2.621402     -1.256454
  H       0.988237      3.152356      0.186783
  H      -0.682060      2.537756      0.379891
  Li      2.406741      0.144035      0.621656
  C       3.798253      0.016503      3.570802
  O       3.697185      0.000172      2.112571
  P       5.077598      0.129416      1.253988
  O       5.972901      1.248543      1.578760
  O       5.704927     -1.326646      1.260392
  C       7.094446     -1.565178      1.648856
  O       4.234627      0.194909     -0.134586
  C       4.969670      0.365348     -1.386089
  H       2.775736      0.006514      3.946166
  H       4.316489      0.923673      3.890452
  H       4.329642     -0.877067      3.908963
  H       7.091045     -2.083000      2.609656
  H       7.638124     -0.621025      1.723936
  H       7.530581     -2.201891      0.878424
  H       4.217156      0.435343     -2.170783
  H       5.609026     -0.505269     -1.554311
  H       5.562091      1.282176     -1.338997
35
Coordinates from ORCA-job TMP_m2_shell2_cation_opt E -1531.350159939567
  C       0.994912     -2.609472     -0.418679
  O       1.109208     -1.198646     -0.053262
  P      -0.000576     -0.157574     -0.626963
  O      -0.247951     -0.167968     -2.075774
  O      -1.258561     -0.316875      0.322730
  C      -2.607765     -0.515909     -0.205956
  O       0.819028      1.103259     -0.002965
  C       0.263974      2.443381     -0.190092
  H       1.907438     -3.086843     -0.063536
  H       0.910841     -2.699832     -1.504339
  H       0.123518     -3.041790      0.079626
  H      -2.949502     -1.497281      0.126638
  H      -2.603611     -0.457994     -1.296515
  H      -3.236589      0.267075      0.219778
  H       0.084798      2.618675     -1.253741
  H       1.013607      3.137313      0.188001
  H      -0.661002      2.534204      0.384856
  Li      2.401734      0.114069      0.626307
  C       3.799472      0.002427      3.574003
  O       3.698106     -0.022335      2.115608
  P       5.075147      0.127261      1.255335
  O       5.950560      1.261359      1.580924
  O       5.724378     -1.318774      1.260707
  C       7.118189     -1.535278      1.647564
  O       4.232030      0.181379     -0.132731
  C       4.967049      0.362584     -1.383415
  H       2.777335     -0.022212      3.949721
  H       4.303696      0.919128      3.888768
  H       4.345080     -0.881034      3.916098
  H       7.124320     -2.052942      2.608436
  H       7.646986     -0.582655      1.722023
  H       7.563600     -2.165013      0.876703
  H       4.214531      0.429242     -2.168359
  H       5.613475     -0.502339     -1.553981
  H       5.551781      1.284115     -1.332095
35
Coordinates from ORCA-job TMP_m2_shell2_cation_opt E -1531.350186626622
  C       0.958741     -2.628092     -0.418094
  O       1.089211     -1.218537     -0.051382
  P      -0.005330     -0.164317     -0.629923
  O      -0.249700     -0.176710     -2.078885
  O      -1.267632     -0.302752      0.317724
  C      -2.617787     -0.490108     -0.214251
  O       0.830321      1.085846     -0.009615
  C       0.290077      2.432966     -0.192957
  H       1.862956     -3.117740     -0.058460
  H       0.878790     -2.717053     -1.504185
  H       0.079170     -3.049521      0.075276
  H      -2.966728     -1.471271      0.111627
  H      -2.612163     -0.425084     -1.304379
  H      -3.241504      0.294229      0.216462
  H       0.110242      2.612215     -1.255852
  H       1.048375      3.117746      0.184567
  H      -0.632673      2.533285      0.384034
  Li      2.395441      0.075851      0.633447
  C       3.802495     -0.018307      3.578640
  O       3.699770     -0.054176      2.120367
  P       5.071203      0.122749      1.257283
  O       5.920731      1.276156      1.583077
  O       5.751509     -1.308873      1.261096
  C       7.150716     -1.493733      1.648264
  O       4.227917      0.161719     -0.129726
  C       4.961462      0.359191     -1.379470
  H       2.781546     -0.059385      3.956240
  H       4.290995      0.908983      3.887080
  H       4.364136     -0.889786      3.925657
  H       7.168067     -2.011500      2.608957
  H       7.657529     -0.529298      1.723020
  H       7.609776     -2.113355      0.877227
  H       4.208402      0.422998     -2.164136
  H       5.616647     -0.498051     -1.555424
  H       5.536524      1.286418     -1.321883
35
Coordinates from ORCA-job TMP_m2_shell2_cation_opt E -1531.350209079994
  C       0.932687     -2.641264     -0.419740
  O       1.074627     -1.233790     -0.049747
  P      -0.009109     -0.169919     -0.631188
  O      -0.252002     -0.183690     -2.080466
  O      -1.273658     -0.293250      0.316006
  C      -2.625144     -0.471690     -0.217687
  O       0.838778      1.072336     -0.014395
  C       0.312347      2.424726     -0.199460
  H       1.830371     -3.141093     -0.057600
  H       0.855834     -2.728196     -1.506243
  H       0.047480     -3.056384      0.069126
  H      -2.978305     -1.453414      0.101990
  H      -2.619200     -0.399307     -1.307306
  H      -3.244673      0.312582      0.219084
  H       0.133113      2.604454     -1.262393
  H       1.077538      3.102787      0.176408
  H      -0.608918      2.535960      0.378020
  Li      2.391112      0.047553      0.640076
  C       3.805294     -0.035212      3.583166
  O       3.701247     -0.077381      2.125193
  P       5.067563      0.120264      1.259407
  O       5.899849      1.286395      1.585745
  O       5.771518     -1.300357      1.260550
  C       7.173948     -1.461741      1.650157
  O       4.224167      0.149240     -0.126562
  C       4.954175      0.358020     -1.376693
  H       2.785342     -0.083778      3.962725
  H       4.286634      0.896895      3.888378
  H       4.374292     -0.900911      3.932853
  H       7.197643     -1.981366      2.609715
  H       7.663494     -0.488727      1.727602
  H       7.643964     -2.072357      0.878561
  H       4.199313      0.422401     -2.159628
  H       5.613261     -0.494929     -1.558957
  H       5.524655      1.287847     -1.315275
35
Coordinates from ORCA-job TMP_m2_shell2_cation_opt E -1531.350231101888
  C       0.906113     -2.653860     -0.422957
  O       1.059652     -1.249469     -0.048011
  P      -0.013010     -0.175289     -0.631932
  O      -0.254670     -0.189714     -2.081837
  O      -1.279297     -0.283554      0.315122
  C      -2.632245     -0.453145     -0.219770
  O       0.847478      1.059031     -0.017557
  C       0.337664      2.416778     -0.207312
  H       1.797025     -3.164615     -0.059090
  H       0.832335     -2.737765     -1.509942
  H       0.015567     -3.063480      0.061112
  H      -2.989006     -1.435763      0.093104
  H      -2.626100     -0.372498     -1.308754
  H      -3.247437      0.330582      0.223920
  H       0.160075      2.595441     -1.270713
  H       1.110627      3.087418      0.166134
  H      -0.581984      2.541983      0.370003
  Li      2.387196      0.018974      0.647056
  C       3.808052     -0.054895      3.587167
  O       3.702568     -0.102448      2.129717
  P       5.063614      0.118014      1.261844
  O       5.878640      1.296876      1.588925
  O       5.793493     -1.290104      1.260205
  C       7.198056     -1.426679      1.654364
  O       4.219341      0.135484     -0.123211
  C       4.943165      0.355377     -1.374648
  H       2.789212     -0.110773      3.968835
  H       4.282298      0.881681      3.889862
  H       4.384247     -0.915092      3.938748
  H       7.227080     -1.948345      2.612667
  H       7.668974     -0.444890      1.735273
  H       7.680458     -2.027474      0.882731
  H       4.185219      0.417088     -2.154877
  H       5.608242     -0.491602     -1.562832
  H       5.506593      1.289428     -1.311921
35
Coordinates from ORCA-job TMP_m2_shell2_cation_opt E -1531.350249836940
  C       0.888391     -2.663333     -0.424934
  O       1.050033     -1.261434     -0.046619
  P      -0.015033     -0.179684     -0.632537
  O      -0.256484     -0.194615     -2.082990
  O      -1.281877     -0.277323      0.314973
  C      -2.635903     -0.441632     -0.219781
  O       0.854199      1.049486     -0.019289
  C       0.358944      2.410986     -0.216260
  H       1.774409     -3.181642     -0.059625
  H       0.817196     -2.745176     -1.512252
  H      -0.005875     -3.069070      0.055696
  H      -2.993965     -1.425542      0.087419
  H      -2.630176     -0.354065     -1.308191
  H      -3.248431      0.340701      0.229840
  H       0.183990      2.586541     -1.280614
  H       1.138346      3.075686      0.154559
  H      -0.559657      2.549316      0.359782
  Li      2.385117     -0.001170      0.653376
  C       3.810039     -0.069979      3.591277
  O       3.703514     -0.117419      2.134129
  P       5.060659      0.119474      1.264728
  O       5.866108      1.305176      1.593725
  O       5.807408     -1.280314      1.258450
  C       7.212192     -1.402703      1.656855
  O       4.214808      0.130680     -0.119395
  C       4.931365      0.356319     -1.373327
  H       2.791560     -0.125673      3.973997
  H       4.284381      0.866460      3.894360
  H       4.386376     -0.930364      3.942107
  H       7.243307     -1.927524      2.613346
  H       7.671625     -0.415934      1.742243
  H       7.702993     -1.995788      0.884594
  H       4.169279      0.418753     -2.149502
  H       5.597730     -0.488223     -1.567574
  H       5.492668      1.291732     -1.311142
35
Coordinates from ORCA-job TMP_m2_shell2_cation_opt E -1531.350269046424
  C       0.861907     -2.677053     -0.424817
  O       1.035825     -1.277861     -0.043733
  P      -0.017287     -0.185043     -0.633335
  O      -0.257129     -0.199966     -2.084436
  O      -1.285828     -0.267324      0.313083
  C      -2.640400     -0.424149     -0.222480
  O       0.863621      1.036492     -0.019582
  C       0.388653      2.403195     -0.225997
  H       1.740787     -3.205012     -0.056061
  H       0.795203     -2.756777     -1.512555
  H      -0.038387     -3.074933      0.051126
  H      -3.001587     -1.409247      0.077118
  H      -2.634125     -0.328288     -1.310167
  H      -3.249776      0.356967      0.233291
  H       0.218970      2.574906     -1.291828
  H       1.176779      3.058732      0.142779
  H      -0.529105      2.558618      0.346998
  Li      2.382512     -0.029210      0.661309
  C       3.812653     -0.092574      3.595332
  O       3.704527     -0.142083      2.138479
  P       5.056793      0.119394      1.268184
  O       5.844730      1.316805      1.599364
  O       5.828254     -1.266906      1.256646
  C       7.233048     -1.367866      1.659372
  O       4.207856      0.118863     -0.114595
  C       4.914833      0.356576     -1.370979
  H       2.795047     -0.154385      3.979393
  H       4.280875      0.847421      3.897023
  H       4.395369     -0.948782      3.945608
  H       7.269459     -1.893948      2.614959
  H       7.676420     -0.374056      1.747571
  H       7.735397     -1.951665      0.887501
  H       4.147811      0.413304     -2.142741
  H       5.589718     -0.479612     -1.571466
  H       5.465813      1.298169     -1.308938
35
Coordinates from ORCA-job TMP_m2_shell2_cation_opt E -1531.350289380090
  C       0.849110     -2.686302     -0.420918
  O       1.030087     -1.287845     -0.040817
  P      -0.016745     -0.189080     -0.633469
  O      -0.255783     -0.203998     -2.084767
  O      -1.286026     -0.263477      0.312119
  C      -2.640381     -0.418503     -0.223243
  O       0.869299      1.028901     -0.018606
  C       0.409906      2.398375     -0.238903
  H       1.723543     -3.218540     -0.047859
  H       0.786663     -2.766457     -1.508842
  H      -0.055443     -3.077946      0.051993
  H      -3.001357     -1.405503      0.070306
  H      -2.634542     -0.316376     -1.310372
  H      -3.249796      0.359842      0.237044
  H       0.248214      2.562878     -1.307097
  H       1.203169      3.048205      0.128983
  H      -0.509328      2.568122      0.327548
  Li      2.382815     -0.043216      0.668896
  C       3.814862     -0.105926      3.601173
  O       3.705217     -0.149135      2.144000
  P       5.054823      0.124471      1.272308
  O       5.837304      1.324543      1.606787
  O       5.834538     -1.256799      1.252051
  C       7.238148     -1.354026      1.656348
  O       4.201760      0.122629     -0.108405
  C       4.899935      0.366095     -1.368154
  H       2.796995     -0.161308      3.985418
  H       4.289519      0.829969      3.905640
  H       4.392099     -0.967487      3.947047
  H       7.275916     -1.882330      2.610655
  H       7.678240     -0.358967      1.747514
  H       7.744123     -1.933564      0.883652
  H       4.127493      0.426670     -2.134195
  H       5.573789     -0.468829     -1.576818
  H       5.451068      1.307619     -1.305595
35
Coordinates from ORCA-job TMP_m2_shell2_cation_opt E -1531.350310092512
  C       0.819273     -2.703488     -0.412241
  O       1.016575     -1.305958     -0.035165
  P      -0.015469     -0.195558     -0.634257
  O      -0.250468     -0.211479     -2.085844
  O      -1.288224     -0.251639      0.307445
  C      -2.641512     -0.402109     -0.230228
  O       0.881875      1.013848     -0.017882
  C       0.445463      2.388492     -0.252789
  H       1.685101     -3.244997     -0.032745
  H       0.762031     -2.785125     -1.500300
  H      -0.093074     -3.081150      0.056878
  H      -3.005548     -1.390093      0.056384
  H      -2.634286     -0.293695     -1.316777
  H      -3.250279      0.374723      0.233367
  H       0.293455      2.546042     -1.323440
  H       1.246984      3.028268      0.114756
  H      -0.474713      2.577161      0.305980
  Li      2.381246     -0.073370      0.679697
  C       3.818654     -0.130649      3.607541
  O       3.706313     -0.171409      2.150060
  P       5.050440      0.127595      1.277710
  O       5.814265      1.337919      1.616280
  O       5.850341     -1.240957      1.246773
  C       7.254088     -1.322007      1.650693
  O       4.191654      0.117845     -0.099644
  C       4.879526      0.376740     -1.361910
  H       2.801671     -0.191558      3.993140
  H       4.288794      0.807436      3.912281
  H       4.401290     -0.989883      3.949796
  H       7.299621     -1.849665      2.605060
  H       7.683180     -0.322052      1.741802
  H       7.767358     -1.894918      0.877857
  H       4.101819      0.432416     -2.122957
  H       5.562372     -0.448641     -1.578883
  H       5.419420      1.324617     -1.297015
35
Coordinates from ORCA-job TMP_m2_shell2_cation_opt E -1531.350325341760
  C       0.811887     -2.708138     -0.403658
  O       1.014731     -1.309543     -0.031321
  P      -0.013437     -0.197331     -0.632813
  O      -0.245506     -0.212329     -2.084418
  O      -1.288520     -0.251008      0.305834
  C      -2.640222     -0.403264     -0.234043
  O       0.884441      1.010011     -0.014797
  C       0.457866      2.385747     -0.263790
  H       1.674178     -3.251542     -0.019007
  H       0.758067     -2.793180     -1.491629
  H      -0.104078     -3.078978      0.063767
  H      -3.002860     -1.393192      0.047890
  H      -2.632444     -0.290736     -1.320218
  H      -3.252016      0.370089      0.231436
  H       0.317019      2.536164     -1.336980
  H       1.259474      3.023407      0.107191
  H      -0.466866      2.583089      0.284344
  Li      2.383313     -0.077502      0.685758
  C       3.821583     -0.137685      3.612893
  O       3.707093     -0.170902      2.154968
  P       5.050025      0.131382      1.280469
  O       5.811951      1.341605      1.620723
  O       5.849139     -1.236847      1.242081
  C       7.253072     -1.320939      1.643416
  O       4.186593      0.124716     -0.094227
  C       4.870233      0.390399     -1.357793
  H       2.804735     -0.194216      3.999484
  H       4.297462      0.796408      3.920987
  H       4.399907     -1.001824      3.950037
  H       7.300208     -1.846301      2.599030
  H       7.685783     -0.322183      1.731556
  H       7.763700     -1.896704      0.870933
  H       4.089993      0.449325     -2.116001
  H       5.552875     -0.433503     -1.580963
  H       5.409860      1.338206     -1.289718
35
Coordinates from ORCA-job TMP_m2_shell2_cation_opt E -1531.350338425832
  C       0.795744     -2.716221     -0.393290
  O       1.009687     -1.317068     -0.027161
  P      -0.010072     -0.200646     -0.632944
  O      -0.237505     -0.217041     -2.084897
  O      -1.289096     -0.244948      0.301252
  C      -2.639054     -0.397437     -0.242543
  O       0.892282      1.002422     -0.014430
  C       0.474558      2.380419     -0.269444
  H       1.653350     -3.264827     -0.005631
  H       0.741838     -2.805612     -1.480924
  H      -0.123759     -3.077149      0.074997
  H      -3.002588     -1.387858      0.036841
  H      -2.629129     -0.283170     -1.328549
  H      -3.252668      0.374747      0.222578
  H       0.339913      2.528602     -1.343745
  H       1.277689      3.014621      0.104130
  H      -0.452096      2.584117      0.273138
  Li      2.383064     -0.091456      0.691659
  C       3.824458     -0.148670      3.616817
  O       3.708066     -0.176865      2.158810
  P       5.047635      0.134931      1.283209
  O       5.802400      1.348390      1.625533
  O       5.851912     -1.229782      1.238024
  C       7.257568     -1.309193      1.635477
  O       4.180889      0.128647     -0.088887
  C       4.861786      0.400264     -1.353229
  H       2.808490     -0.211487      4.004814
  H       4.296647      0.786291      3.927939
  H       4.406966     -1.011548      3.950177
  H       7.309482     -1.831683      2.592468
  H       7.688364     -0.309248      1.719790
  H       7.767133     -1.885899      0.862993
  H       4.080484      0.455129     -2.110672
  H       5.549087     -0.419296     -1.578395
  H       5.395712      1.351227     -1.284481
35
Coordinates from ORCA-job TMP_m2_shell2_cation_opt E -1531.350349288670
  C       0.785282     -2.719004     -0.383083
  O       1.006928     -1.319211     -0.023312
  P      -0.008030     -0.201683     -0.631629
  O      -0.230274     -0.217067     -2.084384
  O      -1.291233     -0.243706      0.297601
  C      -2.639015     -0.396532     -0.251746
  O       0.894653      0.998970     -0.011202
  C       0.482329      2.377819     -0.272600
  H       1.639178     -3.271207      0.007656
  H       0.731435     -2.813440     -1.470319
  H      -0.136648     -3.072652      0.086115
  H      -3.002064     -1.388664      0.022399
  H      -2.625955     -0.277606     -1.337224
  H      -3.255603      0.372472      0.214781
  H       0.357602      2.524346     -1.348311
  H       1.283053      3.011122      0.107629
  H      -0.448949      2.584510      0.260938
  Li      2.384272     -0.095928      0.695722
  C       3.828518     -0.155464      3.619942
  O       3.709672     -0.177410      2.162265
  P       5.047121      0.136867      1.284015
  O       5.799644      1.351632      1.625896
  O       5.852561     -1.227203      1.235374
  C       7.260074     -1.304693      1.629285
  O       4.177234      0.132105     -0.086272
  C       4.857339      0.407768     -1.350527
  H       2.813660     -0.224012      4.009987
  H       4.298094      0.779510      3.934971
  H       4.414530     -1.017821      3.948802
  H       7.314688     -1.821270      2.589367
  H       7.691565     -0.304467      1.706212
  H       7.766200     -1.886837      0.858659
  H       4.076203      0.458333     -2.108485
  H       5.548836     -0.408282     -1.575825
  H       5.386337      1.361407     -1.281272
35
Coordinates from ORCA-job TMP_m2_shell2_cation_opt E -1531.350358803834
  C       0.758365     -2.730338     -0.368318
  O       0.996763     -1.331312     -0.016836
  P      -0.005304     -0.206519     -0.631834
  O      -0.219852     -0.222972     -2.086031
  O      -1.294591     -0.235151      0.290134
  C      -2.639896     -0.382956     -0.267167
  O       0.904151      0.987272     -0.009417
  C       0.505837      2.369258     -0.276302
  H       1.604732     -3.291387      0.026226
  H       0.703989     -2.831028     -1.454989
  H      -0.168096     -3.070226      0.102272
  H      -3.005792     -1.376483     -0.001803
  H      -2.621354     -0.256094     -1.351643
  H      -3.257378      0.383504      0.202306
  H       0.391895      2.515440     -1.353243
  H       1.308144      2.996431      0.110733
  H      -0.428402      2.584663      0.248602
  Li      2.383125     -0.118018      0.703098
  C       3.834676     -0.175443      3.624140
  O       3.712146     -0.191351      2.167162
  P       5.043063      0.139828      1.286400
  O       5.783796      1.361871      1.629056
  O       5.862760     -1.215856      1.231508
  C       7.272670     -1.278570      1.622206
  O       4.169760      0.130795     -0.081568
  C       4.845199      0.414242     -1.346642
  H       2.821967     -0.258886      4.016970
  H       4.293619      0.763357      3.943464
  H       4.431756     -1.032363      3.947544
  H       7.334211     -1.788986      2.585159
  H       7.695242     -0.274073      1.691890
  H       7.780518     -1.861368      0.853285
  H       4.062885      0.453265     -2.104112
  H       5.547236     -0.392801     -1.571948
  H       5.361396      1.374957     -1.278877
35
Coordinates from ORCA-job TMP_m2_shell2_cation_opt E -1531.350366603835
  C       0.754560     -2.729499     -0.360016
  O       0.996585     -1.330248     -0.013912
  P      -0.003924     -0.205868     -0.630701
  O      -0.213184     -0.219918     -2.086156
  O      -1.296805     -0.237546      0.286311
  C      -2.639718     -0.384473     -0.277500
  O       0.902816      0.987903     -0.003997
  C       0.505433      2.369698     -0.271653
  H       1.600195     -3.291509      0.034803
  H       0.698040     -2.834194     -1.446220
  H      -0.171577     -3.066060      0.113627
  H      -3.004754     -1.380229     -0.019519
  H      -2.616491     -0.250982     -1.361046
  H      -3.260086      0.378181      0.194284
  H       0.399952      2.517629     -1.349198
  H       1.303866      2.996999      0.123139
  H      -0.433063      2.583553      0.246280
  Li      2.384263     -0.116307      0.704604
  C       3.838244     -0.177166      3.625334
  O       3.713469     -0.187073      2.169010
  P       5.043452      0.141475      1.285456
  O       5.787524      1.362358      1.626874
  O       5.861674     -1.215593      1.230647
  C       7.272588     -1.278449      1.619024
  O       4.168527      0.133768     -0.082182
  C       4.843448      0.414437     -1.347865
  H       2.826606     -0.266571      4.019654
  H       4.293841      0.762011      3.948352
  H       4.439402     -1.032901      3.944369
  H       7.334756     -1.782720      2.585140
  H       7.696759     -0.274194      1.681101
  H       7.776847     -1.867547      0.852613
  H       4.061513      0.445771     -2.106094
  H       5.549726     -0.390059     -1.568952
  H       5.354751      1.378025     -1.284189
35
Coordinates from ORCA-job TMP_m2_shell2_cation_opt E -1531.350372866098
  C       0.735523     -2.737129     -0.348709
  O       0.988483     -1.338818     -0.008399
  P      -0.003219     -0.208690     -0.630608
  O      -0.205151     -0.221715     -2.087450
  O      -1.300843     -0.233464      0.279654
  C      -2.641247     -0.373914     -0.292048
  O       0.906832      0.980512      0.000621
  C       0.520048      2.364375     -0.269379
  H       1.576810     -3.304255      0.048090
  H       0.678204     -2.845834     -1.434489
  H      -0.192965     -3.064604      0.126647
  H      -3.008777     -1.371585     -0.045354
  H      -2.611937     -0.230346     -1.374108
  H      -3.262423      0.385336      0.183978
  H       0.425088      2.513722     -1.347699
  H       1.318738      2.986472      0.133085
  H      -0.421547      2.583627      0.240588
  Li      2.383200     -0.130931      0.709312
  C       3.844324     -0.191002      3.627580
  O       3.715701     -0.197459      2.171886
  P       5.041046      0.142555      1.286020
  O       5.777455      1.368716      1.626871
  O       5.870787     -1.207555      1.228778
  C       7.282502     -1.258212      1.615758
  O       4.163845      0.129263     -0.080558
  C       4.834308      0.414272     -1.347233
  H       2.834755     -0.292924      4.024121
  H       4.290132      0.752239      3.952450
  H       4.455878     -1.040925      3.942245
  H       7.349550     -1.756360      2.584693
  H       7.699274     -0.250524      1.671147
  H       7.789390     -1.848234      0.851854
  H       4.051429      0.433405     -2.104890
  H       5.550665     -0.381769     -1.566300
  H       5.333379      1.384457     -1.286731
35
Coordinates from ORCA-job TMP_m2_shell2_cation_opt E -1531.350377170929
  C       0.727644     -2.740284     -0.342239
  O       0.984958     -1.342207     -0.004807
  P      -0.003087     -0.209575     -0.629962
  O      -0.199686     -0.220723     -2.087530
  O      -1.303654     -0.233729      0.275599
  C      -2.642155     -0.370347     -0.301513
  O       0.906846      0.977804      0.005532
  C       0.525239      2.362523     -0.266037
  H       1.567799     -3.308834      0.054886
  H       0.669450     -2.850769     -1.427804
  H      -0.201426     -3.063906      0.134532
  H      -3.010514     -1.369807     -0.063509
  H      -2.608900     -0.219102     -1.382398
  H      -3.264723      0.385585      0.177859
  H       0.437807      2.512815     -1.344868
  H       1.322934      2.982234      0.142038
  H      -0.419093      2.583820      0.237912
  Li      2.382797     -0.136063      0.711835
  C       3.848548     -0.195261      3.628969
  O       3.717004     -0.200220      2.173454
  P       5.040469      0.143004      1.285813
  O       5.774705      1.370735      1.625861
  O       5.874013     -1.204612      1.227794
  C       7.285780     -1.251231      1.613738
  O       4.161908      0.127110     -0.080046
  C       4.829778      0.413844     -1.347530
  H       2.840197     -0.302796      4.027040
  H       4.289995      0.749987      3.953941
  H       4.465322     -1.042312      3.941005
  H       7.355053     -1.745428      2.584534
  H       7.700761     -0.242577      1.664784
  H       7.793246     -1.843038      0.851604
  H       4.046296      0.426414     -2.104677
  H       5.551401     -0.377738     -1.565345
  H       5.322523      1.387386     -1.289041
35
Coordinates from ORCA-job TMP_m2_shell2_cation_opt E -1531.350382607892
  C       0.720157     -2.743443     -0.334713
  O       0.981507     -1.345448      0.000000
  P      -0.003021     -0.210449     -0.628599
  O      -0.191763     -0.218373     -2.086973
  O      -1.307613     -0.236257      0.270339
  C      -2.643431     -0.368306     -0.314143
  O       0.905271      0.975160      0.013279
  C       0.529251      2.360791     -0.260416
  H       1.560003     -3.312992      0.061585
  H       0.660026     -2.855443     -1.420048
  H      -0.208910     -3.063618      0.144280
  H      -3.012065     -1.370534     -0.088534
  H      -2.605276     -0.206021     -1.393256
  H      -3.268624      0.382190      0.170231
  H       0.451859      2.512371     -1.339853
  H       1.324787      2.978221      0.155257
  H      -0.419067      2.583843      0.235179
  Li      2.382135     -0.140526      0.715092
  C       3.854940     -0.196356      3.630871
  O       3.718807     -0.200299      2.175432
  P       5.040364      0.143920      1.285227
  O       5.774020      1.372220      1.623674
  O       5.875720     -1.202315      1.226409
  C       7.287358     -1.247215      1.610998
  O       4.160041      0.125832     -0.079317
  C       4.825002      0.414061     -1.347965
  H       2.848167     -0.308685      4.031493
  H       4.292994      0.750776      3.954891
  H       4.476785     -1.040776      3.939778
  H       7.358565     -1.736925      2.583952
  H       7.702666     -0.238428      1.657068
  H       7.794470     -1.842091      0.850994
  H       4.040699      0.420525     -2.104310
  H       5.551434     -0.373345     -1.564874
  H       5.311977      1.390635     -1.291602
35
Coordinates from ORCA-job TMP_m2_shell2_cation_opt E -1531.350387190815
  C       0.715194     -2.745388     -0.329755
  O       0.978943     -1.347528      0.004216
  P      -0.003217     -0.211026     -0.626645
  O      -0.184524     -0.215255     -2.085687
  O      -1.311529     -0.239880      0.266243
  C      -2.644943     -0.368319     -0.324731
  O       0.902789      0.973119      0.021312
  C       0.531429      2.359444     -0.255217
  H       1.555264     -3.315765      0.064859
  H       0.653004     -2.857645     -1.414986
  H      -0.213482     -3.064003      0.150996
  H      -3.013069     -1.373269     -0.110612
  H      -2.602971     -0.195538     -1.402077
  H      -3.272979      0.376481      0.164685
  H       0.463027      2.511553     -1.335210
  H       1.324572      2.975491      0.167045
  H      -0.420585      2.584105      0.232535
  Li      2.381417     -0.143372      0.718037
  C       3.861396     -0.194147      3.632440
  O       3.720630     -0.198577      2.177050
  P       5.040744      0.144664      1.284362
  O       5.774873      1.372975      1.620620
  O       5.876029     -1.201470      1.225271
  C       7.287444     -1.246883      1.609316
  O       4.158760      0.124997     -0.078681
  C       4.821323      0.414917     -1.348340
  H       2.856067     -0.308688      4.035991
  H       4.298303      0.754133      3.954575
  H       4.486254     -1.037079      3.939281
  H       7.359225     -1.733284      2.583936
  H       7.704482     -0.238611      1.651803
  H       7.793763     -1.844852      0.851180
  H       4.036179      0.418165     -2.103827
  H       5.550421     -0.369941     -1.565602
  H       5.305006      1.393180     -1.292959
35
Coordinates from ORCA-job TMP_m2_shell2_cation_opt E -1531.350387560036
  C       0.693329     -2.753486     -0.314645
  O       0.969302     -1.356725      0.013997
  P      -0.002418     -0.214166     -0.623314
  O      -0.169576     -0.213466     -2.083968
  O      -1.318933     -0.240285      0.257170
  C      -2.647276     -0.359711     -0.347294
  O       0.903628      0.964286      0.034587
  C       0.547629      2.352690     -0.251236
  H       1.528938     -3.329677      0.080971
  H       0.629299     -2.869392     -1.399435
  H      -0.237603     -3.062198      0.168187
  H      -3.016086     -1.368980     -0.155718
  H      -2.596585     -0.166475     -1.420773
  H      -3.279941      0.374925      0.151324
  H       0.499751      2.503297     -1.332555
  H       1.337408      2.963724      0.184444
  H      -0.411386      2.585471      0.218709
  Li      2.380481     -0.158418      0.725882
  C       3.873549     -0.204495      3.636433
  O       3.724526     -0.206649      2.181695
  P       5.038957      0.145753      1.284380
  O       5.765616      1.379287      1.617362
  O       5.883772     -1.194228      1.222400
  C       7.295961     -1.229944      1.604010
  O       4.152631      0.119749     -0.075728
  C       4.808375      0.418460     -1.346942
  H       2.871862     -0.331494      4.045224
  H       4.301561      0.747858      3.958454
  H       4.509592     -1.041155      3.937415
  H       7.372636     -1.706284      2.583262
  H       7.709110     -0.219654      1.635562
  H       7.802908     -1.833303      0.850597
  H       4.021901      0.408471     -2.101000
  H       5.549251     -0.355159     -1.564696
  H       5.277067      1.404076     -1.293338
35
Coordinates from ORCA-job TMP_m2_shell2_cation_opt E -1531.350391291575
  C       0.695292     -2.752676     -0.317442
  O       0.969721     -1.356109      0.013526
  P      -0.002584     -0.213954     -0.622745
  O      -0.170140     -0.212646     -2.083422
  O      -1.318952     -0.241115      0.258162
  C      -2.647493     -0.360886     -0.345754
  O       0.903065      0.964588      0.035282
  C       0.546643      2.353062     -0.250405
  H       1.531439     -3.328797      0.077172
  H       0.631151     -2.866980     -1.402393
  H      -0.235247     -3.063318      0.164943
  H      -3.015780     -1.370385     -0.154317
  H      -2.597573     -0.167146     -1.419178
  H      -3.280291      0.373215      0.153526
  H       0.497258      2.503452     -1.331677
  H       1.336859      2.964302      0.184186
  H      -0.411764      2.585836      0.220788
  Li      2.380127     -0.157978      0.725550
  C       3.873221     -0.201595      3.636010
  O       3.724573     -0.205618      2.181221
  P       5.039261      0.145596      1.283977
  O       5.766246      1.379130      1.616378
  O       5.883140     -1.195142      1.223084
  C       7.295265     -1.231866      1.605410
  O       4.153323      0.119113     -0.076125
  C       4.808926      0.417499     -1.347583
  H       2.871364     -0.326940      4.044958
  H       4.302430      0.750552      3.957036
  H       4.508039     -1.038727      3.938364
  H       7.370978     -1.709031      2.584338
  H       7.708896     -0.221810      1.637951
  H       7.802194     -1.835038      0.851833
  H       4.022034      0.409487     -2.101241
  H       5.548049     -0.357532     -1.566317
  H       5.279568      1.402158     -1.293676
35
Coordinates from ORCA-job TMP_m2_shell2_cation_opt E -1531.350399102654
  C       0.721871     -2.741448     -0.339919
  O       0.978956     -1.345154      0.006983
  P      -0.004029     -0.209659     -0.619621
  O      -0.177526     -0.203473     -2.079918
  O      -1.316945     -0.250960      0.266893
  C      -2.647530     -0.378864     -0.330402
  O       0.894853      0.973318      0.039213
  C       0.527779      2.360501     -0.242694
  H       1.564973     -3.312256      0.047657
  H       0.657528     -2.844567     -1.425961
  H      -0.204204     -3.069676      0.139542
  H      -3.009676     -1.389658     -0.133943
  H      -2.604658     -0.187595     -1.404618
  H      -3.282060      0.353076      0.170052
  H       0.465076      2.510485     -1.323291
  H       1.319067      2.976379      0.183286
  H      -0.426517      2.587644      0.239495
  Li      2.378844     -0.142460      0.720670
  C       3.868529     -0.171948      3.632112
  O       3.723649     -0.186356      2.176949
  P       5.043936      0.145820      1.280560
  O       5.783726      1.372843      1.609124
  O       5.870672     -1.206492      1.227839
  C       7.281490     -1.261141      1.615084
  O       4.160493      0.122148     -0.080052
  C       4.818611      0.410941     -1.352851
  H       2.863888     -0.275935      4.040426
  H       4.314540      0.774572      3.946751
  H       4.486746     -1.018189      3.943802
  H       7.347190     -1.746619      2.590651
  H       7.705663     -0.255791      1.656871
  H       7.784685     -1.864488      0.859130
  H       4.029325      0.424625     -2.103982
  H       5.537866     -0.380962     -1.577487
  H       5.312427      1.384041     -1.296925
35
Coordinates from ORCA-job TMP_m2_shell2_cation_opt E -1531.350402206145
  C       0.716948     -2.743558     -0.336812
  O       0.976434     -1.347603      0.009496
  P      -0.004262     -0.210176     -0.618272
  O      -0.174253     -0.201819     -2.078948
  O      -1.319121     -0.251355      0.264994
  C      -2.648259     -0.377450     -0.335956
  O       0.894283      0.971260      0.043955
  C       0.532125      2.358793     -0.241729
  H       1.558756     -3.315555      0.051792
  H       0.653537     -2.847006     -1.422882
  H      -0.210173     -3.069580      0.142090
  H      -3.010155     -1.389502     -0.145602
  H      -2.602832     -0.180804     -1.409078
  H      -3.284332      0.351576      0.166720
  H       0.475796      2.507475     -1.322858
  H       1.322642      2.973161      0.187854
  H      -0.424252      2.588944      0.234889
  Li      2.378545     -0.146075      0.723130
  C       3.871871     -0.173851      3.633334
  O       3.724607     -0.187928      2.178450
  P       5.043621      0.145879      1.280430
  O       5.782499      1.373821      1.607532
  O       5.872518     -1.204957      1.226946
  C       7.283317     -1.257241      1.613948
  O       4.158455      0.120555     -0.079305
  C       4.814568      0.411823     -1.352456
  H       2.867820     -0.278076      4.042989
  H       4.317937      0.772913      3.947194
  H       4.490968     -1.019881      3.943736
  H       7.350085     -1.740351      2.590615
  H       7.706443     -0.251347      1.653225
  H       7.786975     -1.861665      0.859176
  H       4.024389      0.424538     -2.102647
  H       5.535421     -0.378211     -1.578465
  H       5.306316      1.385955     -1.296060
35
Coordinates from ORCA-job TMP_m2_shell2_cation_opt E -1531.350406231765
  C       0.700905     -2.750216     -0.329195
  O       0.968226     -1.355424      0.015494
  P      -0.004504     -0.211747     -0.615572
  O      -0.166165     -0.199287     -2.077183
  O      -1.324392     -0.248492      0.259675
  C      -2.649964     -0.369791     -0.350183
  O       0.895402      0.964463      0.054351
  C       0.546021      2.353695     -0.237353
  H       1.538251     -3.326403      0.062747
  H       0.640336     -2.854657     -1.415334
  H      -0.229581     -3.069200      0.147795
  H      -3.012644     -1.383838     -0.172387
  H      -2.597779     -0.162558     -1.420969
  H      -3.288948      0.354136      0.155987
  H       0.502891      2.500919     -1.319290
  H       1.336205      2.962877      0.200171
  H      -0.413917      2.591282      0.228287
  Li      2.376900     -0.159771      0.728737
  C       3.878376     -0.182316      3.635407
  O       3.726822     -0.197136      2.181217
  P       5.041846      0.144954      1.280013
  O       5.773793      1.378037      1.603587
  O       5.880622     -1.199436      1.225703
  C       7.291919     -1.240168      1.611451
  O       4.153191      0.112523     -0.077954
  C       4.804294      0.410387     -1.351863
  H       2.876009     -0.292422      4.047537
  H       4.319229      0.767469      3.947584
  H       4.503713     -1.024365      3.943928
  H       7.363403     -1.716717      2.590987
  H       7.708369     -0.231266      1.643845
  H       7.798565     -1.845688      0.859598
  H       4.012546      0.416271     -2.100455
  H       5.532347     -0.372503     -1.579414
  H       5.286948      1.389087     -1.295525
35
Coordinates from ORCA-job TMP_m2_shell2_cation_opt E -1531.350409503366
  C       0.699163     -2.750712     -0.329976
  O       0.966449     -1.356692      0.017952
  P      -0.004224     -0.210995     -0.612347
  O      -0.161061     -0.193573     -2.074540
  O      -1.327138     -0.250315      0.258092
  C      -2.650265     -0.371939     -0.356921
  O       0.893412      0.963130      0.064339
  C       0.549341      2.353108     -0.230359
  H       1.535577     -3.327927      0.062422
  H       0.640619     -2.852845     -1.416439
  H      -0.232291     -3.070086      0.144811
  H      -3.010500     -1.388249     -0.187231
  H      -2.595114     -0.157330     -1.426097
  H      -3.293022      0.346643      0.152029
  H       0.512554      2.499554     -1.312626
  H       1.338726      2.960383      0.211236
  H      -0.412486      2.593461      0.229882
  Li      2.375641     -0.163264      0.731702
  C       3.881393     -0.177571      3.636321
  O       3.728060     -0.194255      2.182497
  P       5.042054      0.145558      1.278610
  O       5.775060      1.379037      1.598422
  O       5.880241     -1.199308      1.226086
  C       7.291784     -1.239508      1.611269
  O       4.151391      0.110401     -0.078001
  C       4.799562      0.407348     -1.353571
  H       2.879217     -0.284079      4.049879
  H       4.325189      0.771515      3.946510
  H       4.504718     -1.020835      3.945596
  H       7.363526     -1.713144      2.592183
  H       7.708587     -0.230666      1.640334
  H       7.797648     -1.847478      0.860889
  H       4.005739      0.414874     -2.099957
  H       5.525630     -0.376759     -1.583211
  H       5.284054      1.385217     -1.298362
35
Coordinates from ORCA-job TMP_m2_shell2_cation_opt E -1531.350413619294
  C       0.694451     -2.751775     -0.332714
  O       0.962531     -1.359359      0.021194
  P      -0.003790     -0.209490     -0.607559
  O      -0.153495     -0.184691     -2.070519
  O      -1.331317     -0.251034      0.255724
  C      -2.650827     -0.373713     -0.366727
  O       0.891573      0.960267      0.079361
  C       0.556443      2.351990     -0.218348
  H       1.527960     -3.331714      0.061815
  H       0.640903     -2.850036     -1.419779
  H      -0.239750     -3.071010      0.136701
  H      -3.007203     -1.393229     -0.208379
  H      -2.591699     -0.148702     -1.433547
  H      -3.299261      0.337014      0.145985
  H       0.528706      2.498368     -1.300875
  H       1.345197      2.955473      0.229522
  H      -0.407769      2.596733      0.234443
  Li      2.373314     -0.171160      0.736244
  C       3.884814     -0.171723      3.637528
  O       3.729880     -0.192348      2.184156
  P       5.041732      0.145914      1.276341
  O       5.773348      1.381854      1.589918
  O       5.881775     -1.197988      1.227672
  C       7.294071     -1.234196      1.611281
  O       4.148300      0.104279     -0.078330
  C       4.792163      0.399529     -1.356438
  H       2.882902     -0.274286      4.052774
  H       4.331301      0.777126      3.944652
  H       4.506325     -1.015579      3.948870
  H       7.367574     -1.702442      2.594633
  H       7.709464     -0.224636      1.634273
  H       7.799539     -1.845590      0.863446
  H       3.995605      0.407666     -2.099921
  H       5.516390     -0.385654     -1.588166
  H       5.278086      1.376842     -1.303806
35
Coordinates from ORCA-job TMP_m2_shell2_cation_opt E -1531.350416684672
  C       0.688584     -2.753334     -0.335306
  O       0.958784     -1.362400      0.022863
  P      -0.003302     -0.208600     -0.605069
  O      -0.148664     -0.179889     -2.068408
  O      -1.333621     -0.249164      0.254047
  C      -2.651092     -0.372535     -0.372567
  O       0.892258      0.957219      0.087767
  C       0.563752      2.350671     -0.210097
  H       1.518536     -3.336437      0.062051
  H       0.639887     -2.849191     -1.422814
  H      -0.248706     -3.071067      0.128953
  H      -3.005282     -1.393795     -0.220520
  H      -2.589935     -0.141646     -1.438018
  H      -3.302701      0.333727      0.142269
  H       0.541177      2.498284     -1.292569
  H       1.352812      2.950683      0.241878
  H      -0.401482      2.598459      0.238798
  Li      2.371548     -0.179361      0.739320
  C       3.885851     -0.170440      3.638455
  O       3.730793     -0.194066      2.185225
  P       5.040456      0.145941      1.275162
  O       5.767966      1.385302      1.584709
  O       5.884903     -1.195302      1.229368
  C       7.298031     -1.225551      1.610959
  O       4.145689      0.098053     -0.078420
  C       4.787081      0.391860     -1.358114
  H       2.884117     -0.272603      4.054268
  H       4.331918      0.779176      3.943876
  H       4.507852     -1.013328      3.951461
  H       7.374406     -1.689615      2.596071
  H       7.710336     -0.214642      1.629265
  H       7.804111     -1.838468      0.864792
  H       3.989347      0.397728     -2.100384
  H       5.511909     -0.392833     -1.589670
  H       5.271917      1.369866     -1.308177
35
Coordinates from ORCA-job TMP_m2_shell2_cation_opt E -1531.350421521255
  C       0.677831     -2.755877     -0.340703
  O       0.952451     -1.367625      0.024323
  P      -0.002751     -0.207265     -0.602433
  O      -0.142802     -0.173951     -2.066123
  O      -1.336263     -0.244386      0.252047
  C      -2.651584     -0.367918     -0.379110
  O       0.894927      0.952027      0.097385
  C       0.575490      2.348301     -0.198270
  H       1.500938     -3.344946      0.062081
  H       0.637841     -2.848232     -1.428874
  H      -0.265173     -3.070240      0.114261
  H      -3.003519     -1.391106     -0.234716
  H      -2.588454     -0.129670     -1.442834
  H      -3.306495      0.333081      0.138712
  H       0.559011      2.499235     -1.280390
  H       1.365442      2.942785      0.259408
  H      -0.390676      2.599823      0.246482
  Li      2.369174     -0.193135      0.743277
  C       3.885857     -0.171331      3.639683
  O       3.731590     -0.200398      2.186464
  P       5.037580      0.144912      1.273747
  O       5.755360      1.391303      1.577525
  O       5.892119     -1.190013      1.232953
  C       7.306635     -1.207766      1.610661
  O       4.141777      0.085403     -0.078733
  C       4.780724      0.377263     -1.360147
  H       2.884483     -0.276235      4.055710
  H       4.327980      0.780982      3.942489
  H       4.511313     -1.010587      3.955574
  H       7.389038     -1.664993      2.598490
  H       7.711902     -0.193918      1.621473
  H       7.814802     -1.821990      0.866986
  H       3.982623      0.375674     -2.102080
  H       5.509594     -0.404527     -1.588941
  H       5.260470      1.358020     -1.314950
35
Coordinates from ORCA-job TMP_m2_shell2_cation_opt E -1531.350425685795
  C       0.667829     -2.758386     -0.345964
  O       0.947173     -1.372665      0.024710
  P      -0.002323     -0.206721     -0.601399
  O      -0.139016     -0.170766     -2.065246
  O      -1.337496     -0.239733      0.250722
  C      -2.651873     -0.361946     -0.382762
  O       0.898426      0.947186      0.102439
  C       0.585334      2.345732     -0.189656
  H       1.484513     -3.353161      0.061516
  H       0.635268     -2.848027     -1.434621
  H      -0.280252     -3.069116      0.100968
  H      -3.002972     -1.386239     -0.244084
  H      -2.587917     -0.118007     -1.445150
  H      -3.308127      0.335615      0.137986
  H       0.572521      2.500342     -1.271309
  H       1.376269      2.935656      0.272204
  H      -0.381165      2.599555      0.253067
  Li      2.367704     -0.205248      0.746125
  C       3.885380     -0.173872      3.640766
  O       3.731803     -0.207545      2.187447
  P       5.034493      0.143973      1.273138
  O       5.742603      1.396906      1.572484
  O       5.899109     -1.184447      1.236249
  C       7.314599     -1.190462      1.610450
  O       4.138520      0.073951     -0.078736
  C       4.776436      0.363998     -1.361134
  H       2.884445     -0.282914      4.056772
  H       4.322564      0.781430      3.941329
  H       4.515166     -1.009082      3.958744
  H       7.402773     -1.642445      2.600207
  H       7.712849     -0.173791      1.615672
  H       7.825243     -1.804653      0.868433
  H       3.978965      0.353854     -2.103692
  H       5.510389     -0.414216     -1.585931
  H       5.250007      1.347948     -1.320320
35
Coordinates from ORCA-job TMP_m2_shell2_cation_opt E -1531.350430132955
  C       0.658568     -2.760487     -0.353216
  O       0.942380     -1.377672      0.024385
  P      -0.002084     -0.206299     -0.600593
  O      -0.135607     -0.166895     -2.064561
  O      -1.338478     -0.236409      0.249679
  C      -2.652187     -0.355533     -0.385898
  O       0.901639      0.942282      0.107439
  C       0.593537      2.342927     -0.179672
  H       1.468640     -3.361293      0.058627
  H       0.633795     -2.846543     -1.442380
  H      -0.294609     -3.068000      0.085128
  H      -3.002676     -1.381096     -0.255137
  H      -2.587620     -0.103659     -1.446399
  H      -3.309381      0.337633      0.139486
  H       0.584180      2.502133     -1.260697
  H       1.384971      2.928537      0.286798
  H      -0.373450      2.597871      0.261365
  Li      2.366775     -0.216865      0.748917
  C       3.885507     -0.174672      3.641887
  O       3.731932     -0.213880      2.188513
  P       5.031407      0.143048      1.272340
  O       5.730024      1.402575      1.566260
  O       5.905926     -1.178858      1.240175
  C       7.322112     -1.173312      1.610950
  O       4.135413      0.061419     -0.078866
  C       4.772801      0.348400     -1.362280
  H       2.885175     -0.287729      4.058227
  H       4.317759      0.783886      3.939171
  H       4.519827     -1.005576      3.962054
  H       7.416008     -1.620176      2.602523
  H       7.713317     -0.153885      1.610842
  H       7.835414     -1.787238      0.870530
  H       3.976292      0.328652     -2.105682
  H       5.512097     -0.426252     -1.581868
  H       5.239830      1.335668     -1.326626
35
Coordinates from ORCA-job TMP_m2_shell2_cation_opt E -1531.350435016324
  C       0.651280     -2.762262     -0.362367
  O       0.938439     -1.382504      0.023460
  P      -0.001959     -0.206114     -0.599541
  O      -0.132191     -0.161686     -2.063657
  O      -1.339561     -0.235434      0.248694
  C      -2.652479     -0.349733     -0.389484
  O       0.903906      0.937396      0.113822
  C       0.599661      2.339982     -0.167169
  H       1.455436     -3.368722      0.052796
  H       0.633975     -2.843576     -1.452045
  H      -0.306397     -3.067730      0.067594
  H      -3.002163     -1.376964     -0.270048
  H      -2.587086     -0.086661     -1.447208
  H      -3.310789      0.337221      0.142566
  H       0.593702      2.504539     -1.247423
  H       1.391140      2.921471      0.304359
  H      -0.367974      2.595039      0.272417
  Li      2.366232     -0.227699      0.751778
  C       3.886888     -0.171717      3.642802
  O       3.732230     -0.217572      2.189570
  P       5.028773      0.142612      1.270933
  O       5.719715      1.407992      1.557976
  O       5.911401     -1.173908      1.244379
  C       7.327904     -1.158485      1.612628
  O       4.132516      0.048950     -0.079286
  C       4.769153      0.331227     -1.364174
  H       2.887252     -0.286938      4.060164
  H       4.315729      0.789780      3.935468
  H       4.524664     -0.998947      3.965507
  H       7.426395     -1.601032      2.605702
  H       7.712944     -0.136697      1.608181
  H       7.843864     -1.771956      0.873662
  H       3.973099      0.302961     -2.107784
  H       5.512334     -0.441151     -1.578583
  H       5.231204      1.321020     -1.334261
35
Coordinates from ORCA-job TMP_m2_shell2_cation_opt E -1531.350441491668
  C       0.646624     -2.763110     -0.377448
  O       0.935043     -1.387183      0.020846
  P      -0.002366     -0.205497     -0.597742
  O      -0.129068     -0.152067     -2.061968
  O      -1.341309     -0.237824      0.247977
  C      -2.653199     -0.343384     -0.393845
  O       0.904537      0.932154      0.123759
  C       0.602111      2.336822     -0.147356
  H       1.445066     -3.375391      0.040192
  H       0.638184     -2.836495     -1.467786
  H      -0.315543     -3.068708      0.042314
  H      -3.001997     -1.372864     -0.292588
  H      -2.586568     -0.062502     -1.446892
  H      -3.312835      0.333770      0.148930
  H       0.599259      2.509483     -1.226364
  H       1.392886      2.914002      0.330630
  H      -0.366447      2.589582      0.291577
  Li      2.366270     -0.238477      0.754766
  C       3.889685     -0.161948      3.643104
  O       3.732811     -0.218912      2.190385
  P       5.026762      0.141214      1.267795
  O       5.710280      1.413140      1.544038
  O       5.917019     -1.170204      1.250858
  C       7.333530     -1.144152      1.617323
  O       4.130075      0.031488     -0.080938
  C       4.765515      0.306106     -1.368144
  H       2.891086     -0.278322      4.062559
  H       4.315041      0.803497      3.927729
  H       4.531319     -0.984330      3.970400
  H       7.436106     -1.581902      2.612100
  H       7.711829     -0.119845      1.608251
  H       7.852975     -1.757123      0.880376
  H       3.969537      0.267841     -2.111377
  H       5.512366     -0.464536     -1.575840
  H       5.222652      1.298375     -1.346198
35
Coordinates from ORCA-job TMP_m2_shell2_cation_opt E -1531.350448740398
  C       0.646133     -2.764172     -0.393380
  O       0.933771     -1.391445      0.016783
  P      -0.002361     -0.205691     -0.596280
  O      -0.126849     -0.142478     -2.060462
  O      -1.342405     -0.243119      0.247223
  C      -2.653371     -0.338488     -0.398013
  O       0.904590      0.927234      0.133521
  C       0.601681      2.333608     -0.126497
  H       1.441579     -3.380317      0.024303
  H       0.643776     -2.829223     -1.484251
  H      -0.318544     -3.071865      0.018982
  H      -3.001446     -1.369975     -0.316743
  H      -2.585624     -0.038208     -1.445591
  H      -3.314100      0.327867      0.156569
  H       0.599543      2.514859     -1.204106
  H       1.392008      2.907218      0.356498
  H      -0.367158      2.582714      0.313931
  Li      2.367027     -0.247431      0.757302
  C       3.893535     -0.147289      3.642824
  O       3.733374     -0.215665      2.190970
  P       5.025650      0.141003      1.264192
  O       5.705954      1.417149      1.529232
  O       5.919238     -1.168214      1.256779
  C       7.335401     -1.135838      1.623481
  O       4.128199      0.017485     -0.082666
  C       4.761524      0.283044     -1.372862
  H       2.895912     -0.261422      4.065197
  H       4.318443      0.820878      3.918703
  H       4.536565     -0.966577      3.975026
  H       7.439376     -1.571736      2.618902
  H       7.709286     -0.109925      1.612933
  H       7.857964     -1.747470      0.887616
  H       3.964162      0.239275     -2.114274
  H       5.508344     -0.488798     -1.575892
  H       5.218058      1.275714     -1.358527
35
Coordinates from ORCA-job TMP_m2_shell2_cation_opt E -1531.350457133776
  C       0.646033     -2.765879     -0.411344
  O       0.932137     -1.396483      0.011621
  P      -0.002100     -0.205796     -0.594263
  O      -0.124269     -0.130899     -2.058247
  O      -1.343963     -0.248870      0.245984
  C      -2.653479     -0.333424     -0.403580
  O       0.904671      0.921197      0.145690
  C       0.601912      2.329626     -0.101950
  H       1.439092     -3.385529      0.005657
  H       0.649461     -2.821661     -1.502692
  H      -0.320792     -3.076376     -0.006279
  H      -3.000387     -1.366820     -0.344583
  H      -2.584237     -0.011765     -1.444667
  H      -3.315994      0.320424      0.163527
  H       0.599951      2.520448     -1.177918
  H       1.392337      2.898866      0.386051
  H      -0.366845      2.575090      0.340713
  Li      2.367729     -0.258532      0.760167
  C       3.898014     -0.129284      3.641904
  O       3.734261     -0.211155      2.191305
  P       5.024848      0.140560      1.259660
  O       5.702062      1.421030      1.511720
  O       5.921391     -1.166692      1.263648
  C       7.337269     -1.127497      1.631295
  O       4.126150      0.001819     -0.084769
  C       4.755679      0.258061     -1.378725
  H       2.901568     -0.240267      4.067916
  H       4.322700      0.841775      3.907837
  H       4.542348     -0.945020      3.980265
  H       7.441931     -1.561734      2.627327
  H       7.706439     -0.099893      1.619519
  H       7.863396     -1.737602      0.896701
  H       3.955665      0.210822     -2.117051
  H       5.500835     -0.516097     -1.578813
  H       5.213424      1.250260     -1.372199
35
Coordinates from ORCA-job TMP_m2_shell2_cation_opt E -1531.350469281092
  C       0.635552     -2.772100     -0.434544
  O       0.924579     -1.408651      0.006178
  P      -0.000864     -0.206193     -0.590328
  O      -0.116450     -0.114820     -2.054013
  O      -1.347427     -0.250781      0.242335
  C      -2.653419     -0.321235     -0.415879
  O       0.908319      0.907959      0.166079
  C       0.613727      2.320783     -0.065256
  H       1.421633     -3.399950     -0.016647
  H       0.649010     -2.815624     -1.526341
  H      -0.336487     -3.081902     -0.041721
  H      -2.998107     -1.356734     -0.388751
  H      -2.580372      0.030306     -1.446966
  H      -3.320055      0.314193      0.167002
  H       0.615834      2.524996     -1.138778
  H       1.405890      2.879771      0.431727
  H      -0.354866      2.565969      0.377908
  Li      2.366996     -0.285218      0.765865
  C       3.903651     -0.110557      3.640614
  O       3.735842     -0.212349      2.191963
  P       5.021184      0.139082      1.253740
  O       5.686496      1.429433      1.486294
  O       5.929612     -1.159766      1.274367
  C       7.345574     -1.101942      1.640684
  O       4.120981     -0.026123     -0.086991
  C       4.743088      0.220707     -1.386332
  H       2.909455     -0.222458      4.071688
  H       4.322601      0.866640      3.892949
  H       4.554285     -0.917586      3.987729
  H       7.455154     -1.529616      2.638974
  H       7.702608     -0.070174      1.622787
  H       7.878446     -1.709892      0.909171
  H       3.939282      0.165241     -2.119970
  H       5.489525     -0.552970     -1.583329
  H       5.197963      1.214263     -1.390784
35
Coordinates from ORCA-job TMP_m2_shell2_cation_opt E -1531.350482710591
  C       0.633333     -2.777237     -0.455948
  O       0.921607     -1.417313     -0.002649
  P       0.002070     -0.206153     -0.587824
  O      -0.110268     -0.098634     -2.050736
  O      -1.348850     -0.255219      0.238121
  C      -2.651496     -0.314637     -0.427572
  O       0.911275      0.897245      0.183181
  C       0.617900      2.313182     -0.031012
  H       1.420191     -3.407676     -0.043524
  H       0.646970     -2.810153     -1.548077
  H      -0.338576     -3.090567     -0.065838
  H      -2.994469     -1.351095     -0.424703
  H      -2.575082      0.059208     -1.450512
  H      -3.321844      0.306453      0.166380
  H       0.617162      2.530147     -1.102036
  H       1.412296      2.865491      0.469885
  H      -0.349099      2.554085      0.417872
  Li      2.367845     -0.305245      0.770715
  C       3.908555     -0.084018      3.639842
  O       3.736368     -0.203119      2.193391
  P       5.020432      0.138143      1.248496
  O       5.683418      1.432484      1.464105
  O       5.930345     -1.159505      1.285835
  C       7.347756     -1.092506      1.649034
  O       4.118289     -0.045132     -0.088293
  C       4.731456      0.193072     -1.393348
  H       2.916835     -0.195712      4.076797
  H       4.323414      0.897897      3.880532
  H       4.564397     -0.883532      3.994701
  H       7.459972     -1.515980      2.648748
  H       7.698997     -0.058938      1.625923
  H       7.882260     -1.700751      0.918964
  H       3.921498      0.140363     -2.120435
  H       5.471797     -0.585695     -1.593218
  H       5.192482      1.183750     -1.405372
35
Coordinates from ORCA-job TMP_m2_shell2_cation_opt E -1531.350469278643
  C       0.591582     -2.796703     -0.488646
  O       0.899038     -1.450532     -0.007747
  P       0.007690     -0.206521     -0.578972
  O      -0.084491     -0.070972     -2.040875
  O      -1.354977     -0.243458      0.228477
  C      -2.648301     -0.283745     -0.456632
  O       0.926070      0.863355      0.223052
  C       0.663601      2.289103      0.033275
  H       1.359010     -3.449341     -0.074177
  H       0.622068     -2.811834     -1.580852
  H      -0.392583     -3.097090     -0.119635
  H      -2.985005     -1.321272     -0.504921
  H      -2.562341      0.136133     -1.460768
  H      -3.329668      0.305703      0.156584
  H       0.679971      2.527431     -1.033080
  H       1.463012      2.815148      0.554097
  H      -0.303661      2.540174      0.475874
  Li      2.362904     -0.374541      0.782783
  C       3.913936     -0.067105      3.636951
  O       3.738128     -0.217146      2.193795
  P       5.006932      0.135444      1.242152
  O       5.634941      1.452055      1.424257
  O       5.951412     -1.135907      1.308106
  C       7.370048     -1.020599      1.656578
  O       4.105071     -0.100812     -0.088687
  C       4.704852      0.129652     -1.401167
  H       2.927636     -0.195275      4.081644
  H       4.305205      0.929009      3.858180
  H       4.591387     -0.843230      4.003020
  H       7.501969     -1.418481      2.664332
  H       7.691334      0.021695      1.607360
  H       7.915183     -1.629939      0.935326
  H       3.890633      0.055816     -2.121726
  H       5.455570     -0.640312     -1.596551
  H       5.151081      1.126801     -1.429982
35
Coordinates from ORCA-job TMP_m2_shell2_cation_opt E -1531.350502001679
  C       0.610575     -2.783029     -0.471320
  O       0.908922     -1.430667     -0.003287
  P       0.005951     -0.203950     -0.582185
  O      -0.091193     -0.081475     -2.044811
  O      -1.353443     -0.248177      0.230382
  C      -2.649384     -0.303990     -0.448699
  O       0.916901      0.882223      0.208614
  C       0.637596      2.303228      0.005797
  H       1.389846     -3.424912     -0.062127
  H       0.628143     -2.805799     -1.563729
  H      -0.365969     -3.091549     -0.088904
  H      -2.987850     -1.341897     -0.465355
  H      -2.565713      0.086668     -1.464783
  H      -3.328030      0.304437      0.148960
  H       0.646887      2.530646     -1.063020
  H       1.432972      2.843668      0.517945
  H      -0.330879      2.547673      0.449463
  Li      2.363970     -0.338112      0.779311
  C       3.910778     -0.072278      3.642085
  O       3.736510     -0.206821      2.196940
  P       5.015254      0.134953      1.245859
  O       5.663066      1.439950      1.441809
  O       5.940653     -1.150826      1.301449
  C       7.361312     -1.060187      1.647480
  O       4.112523     -0.075786     -0.087102
  C       4.718653      0.160116     -1.395689
  H       2.922896     -0.199408      4.083464
  H       4.307665      0.919267      3.873353
  H       4.583318     -0.855850      4.001286
  H       7.489134     -1.462793      2.653924
  H       7.699949     -0.023264      1.600750
  H       7.894821     -1.676591      0.923523
  H       3.906967      0.095647     -2.119984
  H       5.465374     -0.613082     -1.593924
  H       5.171059      1.154668     -1.416050
35
Coordinates from ORCA-job TMP_m2_shell2_cation_opt E -1531.350511016995
  C       0.601163     -2.787130     -0.463672
  O       0.906089     -1.434623     -0.001243
  P       0.007619     -0.205895     -0.583906
  O      -0.088404     -0.088361     -2.046956
  O      -1.351635     -0.241664      0.229319
  C      -2.647898     -0.301927     -0.448795
  O       0.922144      0.879025      0.203655
  C       0.649662      2.300571     -0.005326
  H       1.379863     -3.430765     -0.056132
  H       0.613831     -2.813754     -1.556104
  H      -0.374817     -3.091330     -0.076278
  H      -2.987669     -1.339519     -0.455916
  H      -2.564011      0.079689     -1.468313
  H      -3.325632      0.312726      0.143502
  H       0.660627      2.523290     -1.075117
  H       1.447404      2.839232      0.505016
  H      -0.317886      2.551444      0.436759
  Li      2.363422     -0.344720      0.780621
  C       3.908632     -0.083745      3.645589
  O       3.735228     -0.212107      2.199560
  P       5.012692      0.136775      1.249424
  O       5.657910      1.442513      1.449364
  O       5.941593     -1.146571      1.300165
  C       7.362837     -1.053770      1.642060
  O       4.110546     -0.071552     -0.084068
  C       4.715720      0.172323     -1.391579
  H       2.920906     -0.216641      4.085540
  H       4.301841      0.908196      3.881307
  H       4.583946     -0.866604      4.001029
  H       7.494479     -1.454371      2.648838
  H       7.700170     -0.016515      1.592788
  H       7.894888     -1.670809      0.917581
  H       3.904114      0.109010     -2.116092
  H       5.464454     -0.597910     -1.593829
  H       5.165411      1.168189     -1.407366
35
Coordinates from ORCA-job TMP_m2_shell2_cation_opt E -1531.350530021153
  C       0.568560     -2.800609     -0.460669
  O       0.892552     -1.452335     -0.001284
  P       0.012255     -0.210393     -0.587439
  O      -0.077461     -0.095041     -2.051002
  O      -1.348425     -0.223663      0.224121
  C      -2.644052     -0.286400     -0.454923
  O       0.938842      0.861244      0.200964
  C       0.686622      2.286465     -0.010348
  H       1.345555     -3.453308     -0.064358
  H       0.566881     -2.827311     -1.553289
  H      -0.405629     -3.095756     -0.061718
  H      -2.990258     -1.321853     -0.446763
  H      -2.556157      0.079795     -1.479792
  H      -3.318994      0.341332      0.126721
  H       0.698874      2.506463     -1.080682
  H       1.493405      2.814082      0.497319
  H      -0.276463      2.551890      0.432854
  Li      2.361051     -0.379770      0.785777
  C       3.905069     -0.100543      3.652002
  O       3.732427     -0.230066      2.205467
  P       5.004680      0.134931      1.254541
  O       5.632351      1.449927      1.451530
  O       5.952120     -1.134148      1.309070
  C       7.374759     -1.020271      1.635872
  O       4.104965     -0.087786     -0.078188
  C       4.702574      0.179919     -1.384360
  H       2.921555     -0.260974      4.092037
  H       4.272499      0.901013      3.888286
  H       4.601691     -0.866066      4.003881
  H       7.521975     -1.407591      2.645727
  H       7.698683      0.020505      1.572267
  H       7.907234     -1.638862      0.913026
  H       3.890202      0.111603     -2.107629
  H       5.462492     -0.576441     -1.597079
  H       5.136805      1.182720     -1.390515
35
Coordinates from ORCA-job TMP_m2_shell2_cation_opt E -1531.350537762168
  C       0.555057     -2.806742     -0.467777
  O       0.886626     -1.461934     -0.004311
  P       0.014516     -0.212483     -0.588845
  O      -0.072092     -0.093122     -2.052354
  O      -1.347070     -0.218725      0.221261
  C      -2.642104     -0.277192     -0.459145
  O       0.946426      0.850937      0.203882
  C       0.701745      2.278380     -0.001217
  H       1.332448     -3.464251     -0.080263
  H       0.545802     -2.828525     -1.560504
  H      -0.417373     -3.100519     -0.063543
  H      -2.992455     -1.311241     -0.450281
  H      -2.551473      0.087639     -1.484275
  H      -3.315316      0.353899      0.120860
  H       0.712165      2.502279     -1.070775
  H       1.513177      2.799316      0.505952
  H      -0.258540      2.547488      0.445776
  Li      2.360261     -0.399233      0.788598
  C       3.905908     -0.099348      3.653121
  O       3.732021     -0.234189      2.207149
  P       5.001195      0.133948      1.254302
  O       5.620312      1.454344      1.443319
  O       5.956905     -1.128361      1.317238
  C       7.379607     -1.003261      1.638367
  O       4.102615     -0.102005     -0.076898
  C       4.694643      0.172368     -1.384320
  H       2.925760     -0.273909      4.095225
  H       4.258858      0.908084      3.886327
  H       4.614672     -0.853638      4.004975
  H       7.533037     -1.384485      2.649615
  H       7.696215      0.039406      1.568770
  H       7.914018     -1.621678      0.916789
  H       3.880957      0.098206     -2.105550
  H       5.460172     -0.577479     -1.599858
  H       5.120539      1.178730     -1.390186
35
Coordinates from ORCA-job TMP_m2_shell2_cation_opt E -1531.350550739388
  C       0.542305     -2.812048     -0.482318
  O       0.880403     -1.471982     -0.010032
  P       0.016019     -0.215448     -0.590903
  O      -0.069087     -0.089465     -2.054159
  O      -1.345526     -0.216301      0.219221
  C      -2.640824     -0.265631     -0.461112
  O       0.954525      0.838915      0.207219
  C       0.717122      2.268703      0.011257
  H       1.322176     -3.474596     -0.108558
  H       0.522727     -2.824226     -1.575076
  H      -0.426588     -3.107803     -0.071132
  H      -2.999680     -1.296705     -0.449496
  H      -2.546779      0.095662     -1.487205
  H      -3.309104      0.372717      0.116659
  H       0.721941      2.498050     -1.057206
  H       1.535088      2.782058      0.515666
  H      -0.238626      2.541178      0.465830
  Li      2.359861     -0.420641      0.792061
  C       3.908575     -0.094508      3.653703
  O       3.732489     -0.238030      2.209016
  P       4.998167      0.131079      1.251919
  O       5.606485      1.458754      1.426613
  O       5.963362     -1.122988      1.329300
  C       7.385169     -0.984164      1.647012
  O       4.100971     -0.124926     -0.076569
  C       4.684341      0.159053     -1.386186
  H       2.933541     -0.287217      4.099519
  H       4.242354      0.920568      3.881775
  H       4.633127     -0.833319      4.006260
  H       7.543776     -1.360972      2.659103
  H       7.692336      0.061147      1.574143
  H       7.924372     -1.599581      0.926408
  H       3.868734      0.074844     -2.104118
  H       5.458770     -0.580459     -1.605250
  H       5.096714      1.170984     -1.391941
35
Coordinates from ORCA-job TMP_m2_shell2_cation_opt E -1531.350562889619
  C       0.535141     -2.815075     -0.497686
  O       0.876238     -1.479254     -0.014661
  P       0.016677     -0.218058     -0.590813
  O      -0.067534     -0.084593     -2.053596
  O      -1.345070     -0.217750      0.218853
  C      -2.640454     -0.256123     -0.461900
  O       0.959551      0.829435      0.213241
  C       0.729964      2.261047      0.022880
  H       1.315879     -3.481626     -0.132926
  H       0.511598     -2.817403     -1.590404
  H      -0.432254     -3.113451     -0.084958
  H      -3.007432     -1.284322     -0.450580
  H      -2.543035      0.104593     -1.487887
  H      -3.303956      0.387511      0.115539
  H       0.731874      2.493979     -1.044833
  H       1.552993      2.767943      0.525628
  H      -0.222310      2.537846      0.482118
  Li      2.359359     -0.436722      0.796339
  C       3.911669     -0.089349      3.654188
  O       3.733478     -0.240299      2.210940
  P       4.995389      0.128205      1.248467
  O       5.594050      1.462319      1.407793
  O       5.968561     -1.118695      1.339159
  C       7.389183     -0.967629      1.656191
  O       4.098901     -0.147076     -0.076805
  C       4.673458      0.143995     -1.389181
  H       2.940432     -0.292486      4.103681
  H       4.233630      0.930515      3.877875
  H       4.645924     -0.817954      4.008023
  H       7.550694     -1.342881      2.668388
  H       7.687588      0.080233      1.583126
  H       7.934063     -1.578396      0.935872
  H       3.856037      0.048210     -2.103583
  H       5.456807     -0.585328     -1.610403
  H       5.072143      1.161341     -1.396661
35
Coordinates from ORCA-job TMP_m2_shell2_cation_opt E -1531.350575151923
  C       0.521554     -2.821873     -0.517253
  O       0.868709     -1.492753     -0.018607
  P       0.018861     -0.221094     -0.587390
  O      -0.059589     -0.074454     -2.049215
  O      -1.345790     -0.218791      0.217191
  C      -2.639060     -0.240723     -0.468410
  O       0.966289      0.813498      0.228908
  C       0.754589      2.248281      0.042855
  H       1.298411     -3.496213     -0.158562
  H       0.500087     -2.811621     -1.609924
  H      -0.447926     -3.119539     -0.109036
  H      -3.015167     -1.265671     -0.465005
  H      -2.534819      0.125832     -1.491649
  H      -3.298800      0.405091      0.110928
  H       0.760640      2.484999     -1.024018
  H       1.583123      2.743522      0.548255
  H      -0.194757      2.535380      0.501842
  Li      2.356859     -0.464655      0.804941
  C       3.915815     -0.084318      3.655162
  O       3.734583     -0.245251      2.213921
  P       4.988770      0.124497      1.244364
  O       5.570652      1.468397      1.381573
  O       5.976500     -1.109394      1.352472
  C       7.395988     -0.936617      1.664411
  O       4.093020     -0.179933     -0.075763
  C       4.654487      0.119982     -1.392177
  H       2.949079     -0.297116      4.109929
  H       4.225650      0.940635      3.872824
  H       4.660304     -0.801627      4.010852
  H       7.564881     -1.305493      2.677724
  H       7.679358      0.115044      1.586102
  H       7.948039     -1.542414      0.945325
  H       3.835018      0.006174     -2.101593
  H       5.451030     -0.594055     -1.615981
  H       5.032845      1.144976     -1.403574
35
Coordinates from ORCA-job TMP_m2_shell2_cation_opt E -1531.350589564883
  C       0.504257     -2.830089     -0.548204
  O       0.858110     -1.511376     -0.023128
  P       0.022381     -0.227630     -0.579617
  O      -0.045423     -0.059329     -2.039427
  O      -1.348065     -0.226320      0.214318
  C      -2.636957     -0.214374     -0.480241
  O       0.974281      0.788905      0.258095
  C       0.796249      2.227817      0.071614
  H       1.273389     -3.515833     -0.194594
  H       0.492407     -2.799594     -1.640519
  H      -0.470628     -3.126162     -0.152177
  H      -3.035003     -1.230942     -0.484836
  H      -2.517606      0.155453     -1.500623
  H      -3.286223      0.442637      0.098405
  H       0.813114      2.465760     -0.994898
  H       1.633089      2.704287      0.581574
  H      -0.148561      2.536614      0.525918
  Li      2.351126     -0.505411      0.823326
  C       3.922597     -0.081559      3.660515
  O       3.735541     -0.255264      2.222732
  P       4.976943      0.116104      1.236752
  O       5.529442      1.475479      1.333859
  O       5.989775     -1.094177      1.373711
  C       7.407061     -0.883206      1.674802
  O       4.082472     -0.239173     -0.072311
  C       4.618299      0.079764     -1.395533
  H       2.962160     -0.304127      4.124046
  H       4.218926      0.949109      3.870479
  H       4.679021     -0.785527      4.017994
  H       7.590326     -1.244061      2.688432
  H       7.663011      0.174982      1.590124
  H       7.970878     -1.477178      0.954896
  H       3.797857     -0.073647     -2.096358
  H       5.443571     -0.599394     -1.623638
  H       4.951420      1.120165     -1.414066
35
Coordinates from ORCA-job TMP_m2_shell2_cation_opt E -1531.350599310805
  C       0.485747     -2.841194     -0.558477
  O       0.850539     -1.528763     -0.024953
  P       0.028419     -0.230097     -0.576334
  O      -0.028059     -0.049263     -2.035019
  O      -1.347171     -0.223994      0.208404
  C      -2.631548     -0.197526     -0.494236
  O       0.982599      0.770759      0.274847
  C       0.825544      2.212575      0.091528
  H       1.248249     -3.535772     -0.207845
  H       0.475957     -2.803917     -1.650616
  H      -0.492563     -3.130613     -0.166029
  H      -3.037960     -1.210714     -0.506463
  H      -2.502672      0.176581     -1.511897
  H      -3.278880      0.461912      0.083823
  H       0.851790      2.453485     -0.974137
  H       1.666092      2.675939      0.607548
  H      -0.117485      2.533057      0.541405
  Li      2.346188     -0.537761      0.833991
  C       3.925939     -0.081403      3.662697
  O       3.734581     -0.259484      2.226036
  P       4.967210      0.115555      1.236594
  O       5.503656      1.482309      1.317516
  O       5.994908     -1.080527      1.386453
  C       7.412086     -0.848770      1.673016
  O       4.074352     -0.263974     -0.067272
  C       4.597295      0.061917     -1.393896
  H       2.969525     -0.311802      4.130680
  H       4.213348      0.952441      3.869560
  H       4.690643     -0.777361      4.018203
  H       7.608304     -1.198157      2.688204
  H       7.653840      0.211753      1.576606
  H       7.977323     -1.442133      0.953684
  H       3.776418     -0.108697     -2.090300
  H       5.434145     -0.601967     -1.624965
  H       4.910875      1.108309     -1.416935
35
Coordinates from ORCA-job TMP_m2_shell2_cation_opt E -1531.350636779132
  C       0.476528     -2.847824     -0.545221
  O       0.851124     -1.533926     -0.023148
  P       0.035549     -0.232359     -0.576230
  O      -0.011948     -0.051840     -2.035091
  O      -1.344528     -0.224437      0.200304
  C      -2.625297     -0.194315     -0.509019
  O       0.985846      0.765967      0.279487
  C       0.841296      2.208474      0.089822
  H       1.230231     -3.545791     -0.182734
  H       0.473379     -2.821582     -1.637765
  H      -0.507170     -3.123732     -0.156471
  H      -3.036925     -1.205419     -0.517875
  H      -2.489121      0.173700     -1.527947
  H      -3.271892      0.471492      0.062545
  H       0.880769      2.445617     -0.976273
  H       1.679836      2.667265      0.613303
  H      -0.104029      2.537272      0.528746
  Li      2.342062     -0.546331      0.843013
  C       3.925065     -0.096253      3.672955
  O       3.729129     -0.258335      2.234447
  P       4.960431      0.124180      1.242536
  O       5.496380      1.490620      1.328387
  O       5.991711     -1.069805      1.386777
  C       7.412171     -0.835476      1.655147
  O       4.067122     -0.252479     -0.059276
  C       4.584973      0.069278     -1.388312
  H       2.965020     -0.314392      4.139300
  H       4.229239      0.931062      3.888392
  H       4.678995     -0.807790      4.020227
  H       7.621121     -1.179908      2.669432
  H       7.651704      0.224761      1.550674
  H       7.968564     -1.432216      0.931702
  H       3.763758     -0.109137     -2.082473
  H       5.425022     -0.590850     -1.619144
  H       4.893121      1.117211     -1.418794
35
Coordinates from ORCA-job TMP_m2_shell2_cation_opt E -1531.350684465335
  C       0.449373     -2.859417     -0.550356
  O       0.840785     -1.553182     -0.022339
  P       0.046246     -0.236883     -0.569671
  O       0.020921     -0.038258     -2.026780
  O      -1.344524     -0.227534      0.187203
  C      -2.615519     -0.171100     -0.537909
  O       0.993448      0.742362      0.308758
  C       0.881710      2.187375      0.114733
  H       1.182066     -3.571929     -0.173569
  H       0.466402     -2.833697     -1.642799
  H      -0.547029     -3.115182     -0.180543
  H      -3.045572     -1.174396     -0.553856
  H      -2.459693      0.196070     -1.554349
  H      -3.256835      0.505438      0.027033
  H       0.945102      2.421738     -0.950807
  H       1.719728      2.629962      0.652934
  H      -0.064720      2.535696      0.535807
  Li      2.332661     -0.586916      0.864454
  C       3.933591     -0.105781      3.681427
  O       3.725720     -0.274605      2.245123
  P       4.945188      0.119313      1.242337
  O       5.453015      1.497703      1.305177
  O       6.002361     -1.049439      1.402643
  C       7.422103     -0.781641      1.642960
  O       4.052702     -0.293674     -0.049252
  C       4.549788      0.046686     -1.381103
  H       2.976118     -0.317518      4.155878
  H       4.242641      0.921707      3.889372
  H       4.687883     -0.818374      4.025413
  H       7.655501     -1.111289      2.656737
  H       7.636539      0.282420      1.523938
  H       7.978353     -1.374055      0.915805
  H       3.730777     -0.159489     -2.070307
  H       5.410397     -0.583896     -1.618982
  H       4.822004      1.104489     -1.413684
35
Coordinates from ORCA-job TMP_m2_shell2_cation_opt E -1531.350788192709
  C       0.400650     -2.879929     -0.563462
  O       0.825197     -1.590262     -0.022582
  P       0.071797     -0.249202     -0.558932
  O       0.093003     -0.011393     -2.010759
  O      -1.340595     -0.242982      0.156018
  C      -2.588991     -0.119790     -0.599079
  O       1.009332      0.692902      0.366735
  C       0.958269      2.141552      0.173113
  H       1.087325     -3.621049     -0.156625
  H       0.461360     -2.857565     -1.654433
  H      -0.619870     -3.093070     -0.234417
  H      -3.063784     -1.102144     -0.633412
  H      -2.390579      0.245855     -1.608653
  H      -3.212788      0.581815     -0.045069
  H       1.066383      2.374280     -0.889151
  H       1.793288      2.551482      0.741179
  H       0.011337      2.523956      0.562123
  Li      2.314602     -0.667619      0.912161
  C       3.957295     -0.119912      3.698817
  O       3.719036     -0.305787      2.268663
  P       4.911189      0.108958      1.238666
  O       5.359042      1.509862      1.249881
  O       6.019783     -1.005211      1.432655
  C       7.433340     -0.671366      1.619524
  O       4.023014     -0.380418     -0.028459
  C       4.472610     -0.008093     -1.368341
  H       3.005778     -0.311249      4.193408
  H       4.282762      0.906540      3.886557
  H       4.708881     -0.838283      4.035929
  H       7.714586     -0.981228      2.627187
  H       7.594431      0.400314      1.485776
  H       7.991130     -1.244761      0.878284
  H       3.660179     -0.275188     -2.044493
  H       5.372917     -0.574748     -1.619791
  H       4.667326      1.066435     -1.407595
35
Coordinates from ORCA-job TMP_m2_shell2_cation_opt E -1531.350901140345
  C       0.350112     -2.902285     -0.556198
  O       0.811930     -1.624699     -0.019048
  P       0.095495     -0.264425     -0.557605
  O       0.151112     -0.009941     -2.006266
  O      -1.330633     -0.246298      0.128608
  C      -2.561402     -0.072835     -0.645035
  O       1.031504      0.651369      0.393878
  C       1.035662      2.100278      0.193966
  H       1.001806     -3.664487     -0.131151
  H       0.430759     -2.892046     -1.646085
  H      -0.683245     -3.075410     -0.243991
  H      -3.078240     -1.033733     -0.676604
  H      -2.331857      0.272686     -1.655119
  H      -3.161684      0.661609     -0.107741
  H       1.174648      2.323696     -0.866658
  H       1.872316      2.482251      0.778962
  H       0.094539      2.517136      0.560844
  Li      2.301437     -0.735301      0.947530
  C       3.977507     -0.156948      3.715299
  O       3.714524     -0.341656      2.288588
  P       4.879445      0.105155      1.241779
  O       5.273461      1.522887      1.225904
  O       6.031408     -0.961033      1.448736
  C       7.434627     -0.572858      1.599502
  O       3.999572     -0.433391     -0.010530
  C       4.406924     -0.028478     -1.354914
  H       3.033303     -0.345377      4.224728
  H       4.307900      0.868961      3.897717
  H       4.732840     -0.877797      4.037753
  H       7.751880     -0.872292      2.599518
  H       7.549931      0.504584      1.464744
  H       7.996821     -1.122811      0.843860
  H       3.603818     -0.343980     -2.021278
  H       5.337740     -0.536056     -1.620725
  H       4.533274      1.056226     -1.391542
35
Coordinates from ORCA-job TMP_m2_shell2_cation_opt E -1531.350992677235
  C       0.280384     -2.932431     -0.555172
  O       0.792071     -1.678031     -0.009655
  P       0.136154     -0.286672     -0.546316
  O       0.251725     -0.000342     -1.985929
  O      -1.313192     -0.251790      0.087510
  C      -2.509740     -0.001829     -0.718048
  O       1.063157      0.583222      0.451299
  C       1.158476      2.026927      0.234264
  H       0.878861     -3.725180     -0.108416
  H       0.393631     -2.931543     -1.642218
  H      -0.769669     -3.049834     -0.274224
  H      -3.085034     -0.928478     -0.757317
  H      -2.232124      0.320702     -1.723697
  H      -3.076076      0.773261     -0.201175
  H       1.347592      2.226404     -0.823327
  H       1.994585      2.367819      0.845163
  H       0.230340      2.501885      0.561219
  Li      2.278632     -0.843774      1.010147
  C       4.010589     -0.196681      3.736225
  O       3.708780     -0.386278      2.317314
  P       4.826515      0.097107      1.246355
  O       5.138480      1.534446      1.183987
  O       6.039790     -0.893868      1.472194
  C       7.423843     -0.427036      1.562553
  O       3.959182     -0.519568      0.021788
  C       4.295345     -0.063812     -1.326399
  H       3.079945     -0.381520      4.271224
  H       4.345127      0.830144      3.906356
  H       4.774611     -0.916745      4.038536
  H       7.795654     -0.702364      2.550480
  H       7.472729      0.654436      1.419691
  H       7.986419     -0.948978      0.787440
  H       3.510183     -0.447001     -1.978653
  H       5.263383     -0.478125     -1.619443
  H       4.318887      1.028229     -1.352333
35
Coordinates from ORCA-job TMP_m2_shell2_cation_opt E -1531.351217212309
  C       0.206618     -2.965929     -0.490894
  O       0.781728     -1.720685      0.009687
  P       0.173041     -0.324594     -0.558304
  O       0.322333     -0.062576     -2.000387
  O      -1.285880     -0.247436      0.048716
  C      -2.457808      0.060018     -0.772441
  O       1.107843      0.536963      0.442656
  C       1.302956      1.961957      0.167114
  H       0.770115     -3.772325     -0.023192
  H       0.312290     -3.007736     -1.577933
  H      -0.844920     -3.024941     -0.197472
  H      -3.106893     -0.817025     -0.759171
  H      -2.154693      0.299642     -1.793873
  H      -2.958234      0.908655     -0.305031
  H       1.515047      2.101929     -0.895497
  H       2.154621      2.269432      0.774672
  H       0.405620      2.510609      0.462676
  Li      2.269075     -0.913913      1.051694
  C       4.039672     -0.317025      3.777034
  O       3.701943     -0.463415      2.359713
  P       4.777946      0.105077      1.268103
  O       5.011965      1.559591      1.232619
  O       6.042727     -0.825785      1.459950
  C       7.401827     -0.290476      1.533350
  O       3.926447     -0.522448      0.044097
  C       4.179568     -0.006345     -1.302918
  H       3.118848     -0.502017      4.328695
  H       4.392530      0.699998      3.967956
  H       4.798953     -1.056893      4.039596
  H       7.815662     -0.591494      2.496859
  H       7.389139      0.797887      1.443797
  H       7.970760     -0.741519      0.719326
  H       3.402425     -0.432105     -1.937890
  H       5.165930     -0.336769     -1.637356
  H       4.120034      1.084390     -1.294526
35
Coordinates from ORCA-job TMP_m2_shell2_cation_opt E -1531.351454019639
  C       0.231595     -2.967304     -0.511784
  O       0.778169     -1.715032      0.009140
  P       0.162258     -0.319907     -0.557847
  O       0.313070     -0.050749     -1.998072
  O      -1.300243     -0.256348      0.042905
  C      -2.465641      0.073128     -0.779155
  O       1.092884      0.543144      0.455338
  C       1.260011      1.982212      0.231417
  H       0.821366     -3.767262     -0.065517
  H       0.329084     -2.986095     -1.600144
  H      -0.814370     -3.059833     -0.208295
  H      -3.119992     -0.799989     -0.783431
  H      -2.156963      0.328563     -1.795047
  H      -2.963796      0.917219     -0.300845
  H       1.435083      2.168449     -0.830872
  H       2.128174      2.279522      0.821041
  H       0.364206      2.504048      0.575968
  Li      2.262616     -0.912399      1.047594
  C       4.034242     -0.278943      3.765607
  O       3.706787     -0.445465      2.348465
  P       4.789143      0.101674      1.258815
  O       5.020248      1.556546      1.217323
  O       6.050101     -0.831290      1.467719
  C       7.408968     -0.293419      1.547957
  O       3.944305     -0.532203      0.030329
  C       4.203245     -0.076661     -1.339543
  H       3.117993     -0.480592      4.319426
  H       4.363691      0.746835      3.951272
  H       4.810086     -0.997334      4.040146
  H       7.825759     -0.619875      2.501926
  H       7.393297      0.796936      1.486705
  H       7.978786     -0.718950      0.720786
  H       3.398913     -0.488147     -1.949419
  H       5.170488     -0.463017     -1.669555
  H       4.195671      1.015239     -1.368931
35
Coordinates from ORCA-job TMP_m2_shell2_cation_opt E -1531.351489376623
  C       0.184168     -2.987480     -0.549661
  O       0.747075     -1.764783      0.025124
  P       0.205438     -0.336450     -0.532190
  O       0.432480     -0.021525     -1.952823
  O      -1.282881     -0.258476     -0.001530
  C      -2.393236      0.169395     -0.853933
  O       1.116991      0.464202      0.544882
  C       1.368840      1.894185      0.336677
  H       0.734021     -3.815842     -0.104297
  H       0.322493     -2.980208     -1.633669
  H      -0.874718     -3.055511     -0.288194
  H      -3.104352     -0.656807     -0.897143
  H      -2.034192      0.421985     -1.853823
  H      -2.849711      1.036986     -0.375683
  H       1.562971      2.081010     -0.722307
  H       2.248639      2.136670      0.934666
  H       0.500307      2.462186      0.677718
  Li      2.231003     -1.042354      1.122526
  C       4.057619     -0.266594      3.769650
  O       3.708151     -0.489361      2.366326
  P       4.732334      0.066187      1.251687
  O       4.851323      1.530520      1.132173
  O       6.058278     -0.760890      1.494555
  C       7.378691     -0.127878      1.501627
  O       3.916402     -0.681214      0.059956
  C       4.095995     -0.188413     -1.310588
  H       3.166565     -0.496893      4.352847
  H       4.338992      0.779205      3.920533
  H       4.876713     -0.934880      4.045424
  H       7.863598     -0.423781      2.432794
  H       7.283713      0.958529      1.441775
  H       7.935689     -0.513105      0.646179
  H       3.296589     -0.640004     -1.898204
  H       5.073329     -0.507270     -1.680417
  H       4.019920      0.901359     -1.321234
35
Coordinates from ORCA-job TMP_m2_shell2_cation_opt E -1531.351637271053
  C       0.220881     -2.963736     -0.555621
  O       0.753689     -1.730421      0.023623
  P       0.181821     -0.321450     -0.534328
  O       0.386795     -0.014597     -1.959853
  O      -1.300438     -0.260031      0.015790
  C      -2.428613      0.131634     -0.830430
  O       1.095759      0.503797      0.527896
  C       1.308822      1.937388      0.308484
  H       0.800481     -3.779172     -0.124514
  H       0.345222     -2.942979     -1.641200
  H      -0.831978     -3.066463     -0.281289
  H      -3.115486     -0.715077     -0.868902
  H      -2.083467      0.393799     -1.832711
  H      -2.907896      0.985709     -0.350347
  H       1.476557      2.124276     -0.755150
  H       2.194460      2.203926      0.886314
  H       0.434428      2.486189      0.665793
  Li      2.245758     -0.984141      1.107938
  C       4.037842     -0.258536      3.787019
  O       3.709704     -0.478803      2.379268
  P       4.763384      0.061250      1.251284
  O       4.916422      1.521841      1.126340
  O       6.069981     -0.795307      1.492836
  C       7.403709     -0.191517      1.502822
  O       3.938971     -0.668412      0.056458
  C       4.141542     -0.180569     -1.310967
  H       3.143153     -0.507679      4.356589
  H       4.300552      0.791061      3.945048
  H       4.864775     -0.914029      4.070595
  H       7.877325     -0.487486      2.439587
  H       7.332580      0.895784      1.430275
  H       7.955913     -0.598943      0.654597
  H       3.318186     -0.587282     -1.897940
  H       5.099632     -0.549182     -1.685131
  H       4.118769      0.911859     -1.318750
35
Coordinates from ORCA-job TMP_m2_shell2_cation_opt E -1531.351664852611
  C       0.196940     -2.989137     -0.501173
  O       0.762118     -1.750875      0.029187
  P       0.188725     -0.327437     -0.551541
  O       0.385720     -0.057492     -1.985759
  O      -1.286976     -0.239067      0.011973
  C      -2.420710      0.137580     -0.833635
  O       1.110841      0.510059      0.483139
  C       1.321596      1.943237      0.260224
  H       0.780068     -3.801477     -0.069003
  H       0.286396     -2.997652     -1.590562
  H      -0.847915     -3.072101     -0.191240
  H      -3.115691     -0.703356     -0.839407
  H      -2.082825      0.365380     -1.846772
  H      -2.886905      1.010506     -0.375132
  H       1.481345      2.127867     -0.804999
  H       2.211742      2.209740      0.830352
  H       0.449959      2.491767      0.624565
  Li      2.252013     -0.975216      1.085966
  C       4.035635     -0.319315      3.789697
  O       3.705191     -0.492125      2.374857
  P       4.759111      0.092689      1.272386
  O       4.925286      1.556047      1.209088
  O       6.062421     -0.776911      1.482908
  C       7.398923     -0.182623      1.504040
  O       3.935541     -0.588548      0.054055
  C       4.147304     -0.125429     -1.319350
  H       3.140153     -0.590017      4.347668
  H       4.296046      0.725222      3.980968
  H       4.863158     -0.983850      4.048592
  H       7.869416     -0.488889      2.439044
  H       7.334588      0.905723      1.442848
  H       7.949992     -0.586350      0.653321
  H       3.322581     -0.532894     -1.904014
  H       5.102759     -0.509168     -1.685125
  H       4.134694      0.966811     -1.345744
35
Coordinates from ORCA-job TMP_m2_shell2_cation_opt E -1531.351871321390
  C       0.217097     -2.976329     -0.543420
  O       0.765799     -1.749056      0.029626
  P       0.208206     -0.327947     -0.534601
  O       0.431508     -0.025449     -1.958471
  O      -1.279672     -0.258988     -0.000221
  C      -2.395901      0.144472     -0.857051
  O       1.113184      0.491244      0.533541
  C       1.323175      1.928367      0.331891
  H       0.791928     -3.797249     -0.116319
  H       0.332400     -2.957918     -1.630196
  H      -0.835192     -3.068018     -0.262505
  H      -3.095682     -0.691710     -0.892504
  H      -2.039720      0.392147     -1.859169
  H      -2.864714      1.010064     -0.387229
  H       1.477170      2.129707     -0.731146
  H       2.216730      2.187294      0.900696
  H       0.452637      2.470496      0.708263
  Li      2.244181     -1.004980      1.122423
  C       4.039400     -0.262246      3.788222
  O       3.699814     -0.473289      2.381502
  P       4.742963      0.082733      1.263504
  O       4.900166      1.544621      1.161947
  O       6.049914     -0.776641      1.494270
  C       7.386215     -0.177631      1.482503
  O       3.916824     -0.632623      0.068580
  C       4.108820     -0.183653     -1.312721
  H       3.150288     -0.523596      4.360801
  H       4.295538      0.788003      3.952288
  H       4.872285     -0.915344      4.059169
  H       7.876955     -0.484200      2.406833
  H       7.316531      0.910404      1.422596
  H       7.918559     -0.580241      0.619389
  H       3.270595     -0.588027     -1.880421
  H       5.054212     -0.580043     -1.690943
  H       4.107022      0.908328     -1.349705
35
Coordinates from ORCA-job TMP_m2_shell2_cation_opt E -1531.351935050298
  C       0.214041     -2.981835     -0.547659
  O       0.756494     -1.756588      0.036800
  P       0.209360     -0.329357     -0.528431
  O       0.444143     -0.026536     -1.950317
  O      -1.281841     -0.251793     -0.004527
  C      -2.388772      0.164422     -0.867327
  O       1.113386      0.482304      0.546997
  C       1.333827      1.917842      0.344290
  H       0.787404     -3.804105     -0.121222
  H       0.337014     -2.956973     -1.633479
  H      -0.840007     -3.076947     -0.274810
  H      -3.097494     -0.664020     -0.906234
  H      -2.024725      0.408028     -1.867608
  H      -2.850601      1.035239     -0.400195
  H       1.481936      2.119065     -0.719675
  H       2.233893      2.169707      0.906309
  H       0.470319      2.466389      0.727340
  Li      2.242501     -1.022955      1.130956
  C       4.035959     -0.259090      3.788689
  O       3.705539     -0.493067      2.383973
  P       4.739942      0.064071      1.259551
  O       4.871308      1.527051      1.138549
  O       6.060172     -0.770965      1.499608
  C       7.387341     -0.151713      1.473749
  O       3.920695     -0.678555      0.069547
  C       4.100381     -0.200154     -1.303487
  H       3.155498     -0.545242      4.362933
  H       4.257603      0.800223      3.944393
  H       4.889408     -0.881956      4.067047
  H       7.890521     -0.449523      2.394182
  H       7.300468      0.935026      1.412374
  H       7.917946     -0.547811      0.606561
  H       3.248461     -0.578292     -1.868886
  H       5.034656     -0.601707     -1.703004
  H       4.112457      0.892518     -1.315567
35
Coordinates from ORCA-job TMP_m2_shell2_cation_opt E -1531.352006046389
  C       0.208633     -2.983274     -0.542326
  O       0.757351     -1.762073      0.043822
  P       0.224171     -0.333720     -0.526050
  O       0.481432     -0.030863     -1.944308
  O      -1.274685     -0.254103     -0.024995
  C      -2.365307      0.180899     -0.899373
  O       1.117007      0.472811      0.562728
  C       1.338789      1.910340      0.374488
  H       0.769541     -3.809995     -0.108013
  H       0.342049     -2.963350     -1.627082
  H      -0.848958     -3.067444     -0.279650
  H      -3.087669     -0.635335     -0.943326
  H      -1.986913      0.415363     -1.896511
  H      -2.816569      1.060770     -0.438855
  H       1.485263      2.122534     -0.687615
  H       2.240791      2.155427      0.936450
  H       0.476457      2.455065      0.765399
  Li      2.241183     -1.041361      1.150875
  C       4.039967     -0.266200      3.799830
  O       3.704318     -0.500677      2.396249
  P       4.727867      0.067339      1.262786
  O       4.843213      1.531369      1.135870
  O       6.058100     -0.751094      1.503778
  C       7.379497     -0.121425      1.447597
  O       3.911488     -0.687459      0.080112
  C       4.079673     -0.225221     -1.299915
  H       3.168153     -0.570396      4.378024
  H       4.243806      0.796280      3.957874
  H       4.905694     -0.875379      4.070265
  H       7.905784     -0.418515      2.355162
  H       7.282027      0.964760      1.392873
  H       7.892977     -0.510317      0.566901
  H       3.209266     -0.585017     -1.849119
  H       4.996990     -0.653789     -1.710318
  H       4.117851      0.866750     -1.322201
35
Coordinates from ORCA-job TMP_m2_shell2_cation_opt E -1531.352059107567
  C       0.225805     -2.979568     -0.535403
  O       0.763738     -1.757259      0.056950
  P       0.226650     -0.327782     -0.514343
  O       0.501043     -0.027136     -1.929961
  O      -1.278484     -0.253971     -0.032606
  C      -2.359012      0.176885     -0.922102
  O       1.103451      0.484618      0.584485
  C       1.299377      1.926565      0.402289
  H       0.787358     -3.804152     -0.097955
  H       0.366696     -2.957332     -1.619248
  H      -0.833551     -3.069295     -0.281637
  H      -3.074524     -0.644443     -0.980688
  H      -1.966631      0.417961     -1.912204
  H      -2.823351      1.051174     -0.464085
  H       1.438259      2.146770     -0.659278
  H       2.199407      2.184936      0.960773
  H       0.429124      2.453226      0.800329
  Li      2.249152     -1.028525      1.155481
  C       4.035837     -0.255933      3.801736
  O       3.706889     -0.496211      2.397568
  P       4.732874      0.071152      1.264523
  O       4.861583      1.534347      1.146092
  O       6.056725     -0.758050      1.503821
  C       7.383969     -0.142189      1.427804
  O       3.907972     -0.674072      0.082397
  C       4.085634     -0.237992     -1.304605
  H       3.173361     -0.589599      4.377621
  H       4.207529      0.811675      3.962315
  H       4.918734     -0.840565      4.070768
  H       7.919922     -0.445064      2.327684
  H       7.296369      0.944917      1.375660
  H       7.880128     -0.536734      0.539725
  H       3.190339     -0.551225     -1.842585
  H       4.971960     -0.724251     -1.718687
  H       4.184904      0.849827     -1.341210
35
Coordinates from ORCA-job TMP_m2_shell2_cation_opt E -1531.352090305966
  C       0.227593     -2.982082     -0.539523
  O       0.764899     -1.761598      0.057464
  P       0.234294     -0.331543     -0.517461
  O       0.505823     -0.040426     -1.935773
  O      -1.268419     -0.246107     -0.030858
  C      -2.350005      0.189151     -0.917213
  O       1.118297      0.478444      0.573967
  C       1.312178      1.922948      0.409622
  H       0.783372     -3.808702     -0.098489
  H       0.376214     -2.959358     -1.622264
  H      -0.833875     -3.068937     -0.293722
  H      -3.082509     -0.618458     -0.948861
  H      -1.964198      0.400147     -1.916734
  H      -2.790839      1.082841     -0.473567
  H       1.434126      2.158593     -0.650698
  H       2.221968      2.172510      0.956227
  H       0.449023      2.444133      0.829741
  Li      2.248478     -1.041737      1.157256
  C       4.022533     -0.254861      3.800685
  O       3.705145     -0.512492      2.396668
  P       4.724379      0.063993      1.263743
  O       4.836989      1.528523      1.144269
  O       6.056453     -0.750836      1.507370
  C       7.378056     -0.124355      1.421577
  O       3.907610     -0.691240      0.083293
  C       4.083617     -0.251375     -1.303524
  H       3.164736     -0.602744      4.375128
  H       4.171537      0.817146      3.953946
  H       4.915899     -0.819431      4.077705
  H       7.928348     -0.439892      2.308324
  H       7.282384      0.962954      1.390644
  H       7.864890     -0.498902      0.519718
  H       3.186047     -0.559561     -1.840768
  H       4.967467     -0.740176     -1.719657
  H       4.186726      0.836132     -1.336811
35
Coordinates from ORCA-job TMP_m2_shell2_cation_opt E -1531.352115329857
  C       0.223570     -2.982329     -0.536411
  O       0.759915     -1.764026      0.066945
  P       0.237374     -0.332792     -0.510221
  O       0.518181     -0.043602     -1.927232
  O      -1.267233     -0.240544     -0.032592
  C      -2.342396      0.197793     -0.925448
  O       1.119270      0.474692      0.585460
  C       1.324252      1.916590      0.412880
  H       0.773390     -3.811264     -0.092240
  H       0.381290     -2.958135     -1.617798
  H      -0.839957     -3.066236     -0.298784
  H      -3.083571     -0.602071     -0.949350
  H      -1.952429      0.393571     -1.926453
  H      -2.773901      1.101220     -0.492430
  H       1.450812      2.145274     -0.648467
  H       2.234679      2.162358      0.960446
  H       0.463989      2.446715      0.827570
  Li      2.247121     -1.051005      1.162714
  C       4.021000     -0.260761      3.800916
  O       3.707997     -0.528112      2.397657
  P       4.718750      0.057380      1.263916
  O       4.817844      1.522955      1.145050
  O       6.058458     -0.745858      1.505328
  C       7.373845     -0.107881      1.414442
  O       3.905206     -0.702804      0.084903
  C       4.074771     -0.257131     -1.301739
  H       3.170265     -0.622328      4.377408
  H       4.150872      0.814147      3.951153
  H       4.924812     -0.808045      4.078868
  H       7.935201     -0.432031      2.291100
  H       7.270045      0.979075      1.400281
  H       7.855837     -0.464493      0.502664
  H       3.179392     -0.573297     -1.837997
  H       4.963350     -0.735722     -1.719484
  H       4.167234      0.831397     -1.331630
35
Coordinates from ORCA-job TMP_m2_shell2_cation_opt E -1531.352150555653
  C       0.218798     -2.981890     -0.527216
  O       0.752654     -1.762305      0.077003
  P       0.232555     -0.332992     -0.506071
  O       0.512239     -0.054679     -1.925792
  O      -1.270140     -0.229072     -0.027595
  C      -2.346368      0.200449     -0.923624
  O       1.118221      0.478133      0.582671
  C       1.330579      1.916838      0.397033
  H       0.762302     -3.810622     -0.074940
  H       0.387335     -2.961421     -1.606985
  H      -0.846876     -3.062626     -0.298332
  H      -3.100266     -0.587664     -0.915794
  H      -1.962353      0.359006     -1.933477
  H      -2.759039      1.123925     -0.515135
  H       1.464388      2.134943     -0.665718
  H       2.239067      2.163510      0.947717
  H       0.470849      2.455692      0.801431
  Li      2.249008     -1.051157      1.158986
  C       4.015833     -0.274588      3.800068
  O       3.714832     -0.553499      2.396453
  P       4.719473      0.048150      1.266679
  O       4.809404      1.515337      1.158680
  O       6.065234     -0.748012      1.501663
  C       7.374862     -0.100010      1.413000
  O       3.909564     -0.705701      0.083241
  C       4.082522     -0.248214     -1.300448
  H       3.173828     -0.657296      4.375695
  H       4.116690      0.803760      3.948034
  H       4.933597     -0.796390      4.081660
  H       7.949830     -0.450356      2.270557
  H       7.266154      0.986349      1.436781
  H       7.848544     -0.421142      0.483643
  H       3.192534     -0.569869     -1.841964
  H       4.978408     -0.715209     -1.715510
  H       4.164973      0.841325     -1.320974
35
Coordinates from ORCA-job TMP_m2_shell2_cation_opt E -1531.352172599520
  C       0.214761     -2.982216     -0.514681
  O       0.748821     -1.760205      0.084499
  P       0.230327     -0.332982     -0.504159
  O       0.515039     -0.058741     -1.923920
  O      -1.274000     -0.226992     -0.032189
  C      -2.347264      0.197242     -0.934125
  O       1.112139      0.481515      0.585190
  C       1.325231      1.919108      0.392188
  H       0.754031     -3.809432     -0.054625
  H       0.388663     -2.968718     -1.593702
  H      -0.852070     -3.058949     -0.289901
  H      -3.108104     -0.583813     -0.911207
  H      -1.962936      0.334496     -1.946974
  H      -2.751181      1.131635     -0.541937
  H       1.472497      2.129804     -0.670267
  H       2.225918      2.171021      0.953025
  H       0.459650      2.460038      0.781174
  Li      2.251085     -1.048558      1.159351
  C       4.018108     -0.282115      3.801921
  O       3.719625     -0.563317      2.398145
  P       4.721761      0.047038      1.271146
  O       4.814058      1.515095      1.174706
  O       6.067771     -0.751532      1.498848
  C       7.376978     -0.104302      1.406432
  O       3.910463     -0.696321      0.083504
  C       4.086481     -0.235089     -1.298850
  H       3.183094     -0.679318      4.377869
  H       4.102061      0.797476      3.951503
  H       4.944575     -0.789531      4.081319
  H       7.962889     -0.475901      2.247402
  H       7.271293      0.981414      1.457200
  H       7.838156     -0.403470      0.463425
  H       3.194751     -0.550757     -1.840859
  H       4.980362     -0.705043     -1.714852
  H       4.174202      0.854121     -1.315179
35
Coordinates from ORCA-job TMP_m2_shell2_cation_opt E -1531.352194205050
  C       0.208630     -2.983307     -0.500505
  O       0.744519     -1.758607      0.091500
  P       0.228902     -0.333447     -0.504428
  O       0.519011     -0.062703     -1.923955
  O      -1.277583     -0.226903     -0.039099
  C      -2.347338      0.194184     -0.946198
  O       1.106304      0.484123      0.585769
  C       1.322288      1.920627      0.386034
  H       0.740951     -3.808829     -0.029462
  H       0.389519     -2.980004     -1.578434
  H      -0.859898     -3.053177     -0.281695
  H      -3.118747     -0.575515     -0.903643
  H      -1.964457      0.304566     -1.962877
  H      -2.737411      1.142547     -0.573800
  H       1.487680      2.123086     -0.675303
  H       2.212534      2.177332      0.960847
  H       0.449674      2.464127      0.755423
  Li      2.252693     -1.047388      1.161251
  C       4.019808     -0.292371      3.806790
  O       3.723831     -0.573278      2.402142
  P       4.723597      0.047621      1.278435
  O       4.816689      1.516694      1.195432
  O       6.070573     -0.752131      1.497396
  C       7.379104     -0.105570      1.395679
  O       3.911482     -0.685639      0.085247
  C       4.090728     -0.221031     -1.295390
  H       3.191785     -0.705114      4.381854
  H       4.087028      0.787898      3.959786
  H       4.954588     -0.785911      4.083224
  H       7.980789     -0.503058      2.213210
  H       7.277408      0.978407      1.480085
  H       7.820753     -0.377568      0.435128
  H       3.197526     -0.530662     -1.838498
  H       4.982393     -0.694090     -1.712623
  H       4.183880      0.867796     -1.307897
35
Coordinates from ORCA-job TMP_m2_shell2_cation_opt E -1531.352212173484
  C       0.206322     -2.985437     -0.490345
  O       0.742481     -1.758638      0.097198
  P       0.229604     -0.335253     -0.505279
  O       0.523971     -0.066363     -1.924254
  O      -1.279118     -0.230622     -0.045287
  C      -2.345203      0.191812     -0.955527
  O       1.102652      0.484962      0.585988
  C       1.321768      1.920643      0.381225
  H       0.732796     -3.809374     -0.010117
  H       0.393882     -2.989649     -1.567109
  H      -0.863830     -3.050155     -0.278021
  H      -3.128953     -0.563902     -0.893709
  H      -1.965332      0.275937     -1.975840
  H      -2.718460      1.153991     -0.601475
  H       1.502660      2.116281     -0.678802
  H       2.203020      2.180690      0.967983
  H       0.443596      2.466219      0.734148
  Li      2.253593     -1.048117      1.165010
  C       4.017905     -0.297355      3.812571
  O       3.725551     -0.578949      2.406993
  P       4.724050      0.049449      1.286309
  O       4.818782      1.518993      1.213828
  O       6.070807     -0.752596      1.497840
  C       7.379639     -0.108471      1.382804
  O       3.910828     -0.675922      0.088233
  C       4.092020     -0.208005     -1.290340
  H       3.195606     -0.723459      4.386056
  H       4.070439      0.783360      3.967742
  H       4.959341     -0.778640      4.087949
  H       7.998200     -0.534033      2.172961
  H       7.284636      0.972692      1.503001
  H       7.797038     -0.352273      0.403929
  H       3.196365     -0.509390     -1.834193
  H       4.979683     -0.685929     -1.710669
  H       4.192899      0.880205     -1.299380
35
Coordinates from ORCA-job TMP_m2_shell2_cation_opt E -1531.352229473182
  C       0.208489     -2.988481     -0.487013
  O       0.743158     -1.760632      0.100083
  P       0.231072     -0.338450     -0.506045
  O       0.527645     -0.068436     -1.924116
  O      -1.279586     -0.239466     -0.049187
  C      -2.342210      0.191764     -0.958974
  O       1.100220      0.483681      0.586612
  C       1.323074      1.918470      0.378103
  H       0.730990     -3.811498     -0.000989
  H       0.401879     -2.996000     -1.562709
  H      -0.863017     -3.050661     -0.280875
  H      -3.137470     -0.550646     -0.885094
  H      -1.965864      0.259030     -1.981830
  H      -2.699196      1.163733     -0.614713
  H       1.516509      2.108724     -0.680639
  H       2.197340      2.180066      0.974470
  H       0.441295      2.466352      0.718263
  Li      2.253270     -1.050079      1.169530
  C       4.013209     -0.296035      3.818114
  O       3.724418     -0.577706      2.411536
  P       4.723543      0.052705      1.292596
  O       4.820849      1.522057      1.224287
  O       6.068715     -0.752582      1.500455
  C       7.378637     -0.112131      1.371163
  O       3.908729     -0.668924      0.091690
  C       4.091158     -0.199565     -1.285212
  H       3.193005     -0.728868      4.389528
  H       4.058585      0.784780      3.974332
  H       4.957333     -0.771587      4.094228
  H       8.011082     -0.561588      2.136534
  H       7.291551      0.965935      1.521029
  H       7.773024     -0.333039      0.377396
  H       3.194559     -0.495960     -1.830484
  H       4.976294     -0.680497     -1.707635
  H       4.196948      0.888237     -1.293010
35
Coordinates from ORCA-job TMP_m2_shell2_cation_opt E -1531.352249964402
  C       0.217046     -2.994378     -0.489041
  O       0.746708     -1.765731      0.101718
  P       0.233075     -0.345004     -0.506620
  O       0.529887     -0.072756     -1.923864
  O      -1.279263     -0.255496     -0.051364
  C      -2.337756      0.196306     -0.955864
  O       1.098654      0.479970      0.586826
  C       1.325982      1.913572      0.374997
  H       0.737763     -3.816578      0.000202
  H       0.416695     -3.001179     -1.563576
  H      -0.855665     -3.057542     -0.289707
  H      -3.149151     -0.526998     -0.870134
  H      -1.968147      0.247439     -1.982097
  H      -2.670126      1.178945     -0.616907
  H       1.528660      2.099440     -0.682748
  H       2.195663      2.175164      0.978122
  H       0.442737      2.464558      0.706205
  Li      2.252098     -1.054122      1.174453
  C       4.002957     -0.287567      3.822896
  O       3.720643     -0.572849      2.415486
  P       4.721973      0.056324      1.297881
  O       4.822575      1.525059      1.230141
  O       6.064358     -0.753226      1.505831
  C       7.375696     -0.117366      1.359971
  O       3.905422     -0.663807      0.095126
  C       4.088792     -0.193306     -1.280117
  H       3.183209     -0.724513      4.391814
  H       4.042180      0.793668      3.977240
  H       4.948457     -0.757946      4.103173
  H       8.023456     -0.597278      2.093173
  H       7.300039      0.955531      1.547878
  H       7.742073     -0.307764      0.349278
  H       3.191666     -0.485183     -1.827194
  H       4.971743     -0.676788     -1.704475
  H       4.199138      0.894103     -1.287279
35
Coordinates from ORCA-job TMP_m2_shell2_cation_opt E -1531.352270028424
  C       0.229623     -3.002622     -0.494665
  O       0.751885     -1.773137      0.101803
  P       0.233717     -0.354075     -0.506506
  O       0.529677     -0.078035     -1.922952
  O      -1.279987     -0.277577     -0.052405
  C      -2.333890      0.204856     -0.946618
  O       1.095702      0.474621      0.587448
  C       1.329261      1.905981      0.369668
  H       0.751094     -3.823935     -0.004743
  H       0.434735     -3.005931     -1.568164
  H      -0.843837     -3.069970     -0.301061
  H      -3.163717     -0.495762     -0.850941
  H      -1.973732      0.243387     -1.976741
  H      -2.635857      1.197080     -0.606807
  H       1.539228      2.086037     -0.687634
  H       2.196102      2.167364      0.977171
  H       0.446492      2.462299      0.693142
  Li      2.250419     -1.058795      1.178163
  C       3.990589     -0.274938      3.825641
  O       3.715533     -0.565533      2.417780
  P       4.720261      0.059802      1.300947
  O       4.825338      1.527737      1.231134
  O       6.059056     -0.754851      1.512579
  C       7.371747     -0.123588      1.353122
  O       3.901802     -0.659516      0.097461
  C       4.086098     -0.187854     -1.276514
  H       3.169020     -0.711474      4.392252
  H       4.027406      0.806865      3.976139
  H       4.935418     -0.743030      4.112034
  H       8.033139     -0.637138      2.050309
  H       7.309965      0.941720      1.584028
  H       7.710637     -0.277304      0.326645
  H       3.189312     -0.477620     -1.825398
  H       4.968524     -0.671756     -1.701713
  H       4.198475      0.899395     -1.283180
35
Coordinates from ORCA-job TMP_m2_shell2_cation_opt E -1531.352289167701
  C       0.244123     -3.011104     -0.503729
  O       0.758267     -1.780680      0.098288
  P       0.232511     -0.363215     -0.507005
  O       0.525732     -0.082166     -1.923021
  O      -1.281651     -0.301548     -0.052473
  C      -2.332388      0.214697     -0.931888
  O       1.092036      0.469556      0.586784
  C       1.328910      1.899238      0.365323
  H       0.770741     -3.831237     -0.017284
  H       0.450161     -3.008478     -1.577043
  H      -0.828949     -3.086127     -0.311156
  H      -3.178692     -0.464662     -0.828849
  H      -1.983591      0.246857     -1.966123
  H      -2.604309      1.213182     -0.584904
  H       1.538674      2.076994     -0.692416
  H       2.196878      2.160228      0.971620
  H       0.448365      2.459275      0.688481
  Li      2.248744     -1.061687      1.178144
  C       3.978546     -0.259424      3.824564
  O       3.709513     -0.555510      2.416827
  P       4.719495      0.062617      1.300344
  O       4.830802      1.529652      1.225348
  O       6.053892     -0.757605      1.520516
  C       7.368296     -0.131378      1.353986
  O       3.899675     -0.656969      0.097434
  C       4.086528     -0.186128     -1.276445
  H       3.152929     -0.690633      4.389399
  H       4.017950      0.822929      3.970328
  H       4.920488     -0.729246      4.117633
  H       8.037599     -0.672271      2.022244
  H       7.319716      0.926374      1.619907
  H       7.688290     -0.253855      0.317208
  H       3.190829     -0.476146     -1.826971
  H       4.969922     -0.669923     -1.699841
  H       4.199205      0.901097     -1.283804
35
Coordinates from ORCA-job TMP_m2_shell2_cation_opt E -1531.352305714619
  C       0.253185     -3.017372     -0.510630
  O       0.763040     -1.786109      0.093104
  P       0.229979     -0.369317     -0.507188
  O       0.521719     -0.082274     -1.922556
  O      -1.284346     -0.320421     -0.053084
  C      -2.333103      0.221455     -0.919763
  O       1.087349      0.466353      0.587329
  C       1.327827      1.894079      0.360027
  H       0.786829     -3.836361     -0.029842
  H       0.454731     -3.010064     -1.584787
  H      -0.818470     -3.099441     -0.313437
  H      -3.189916     -0.443989     -0.813662
  H      -1.992464      0.252984     -1.956743
  H      -2.584548      1.222267     -0.564022
  H       1.533796      2.068371     -0.699054
  H       2.199003      2.155184      0.961781
  H       0.450694      2.458520      0.684873
  Li      2.247550     -1.061831      1.175790
  C       3.973315     -0.250412      3.822285
  O       3.704748     -0.545903      2.414666
  P       4.719263      0.065392      1.297935
  O       4.836671      1.531812      1.217778
  O       6.050160     -0.759096      1.526735
  C       7.365931     -0.136770      1.360405
  O       3.898617     -0.653928      0.096310
  C       4.087383     -0.184118     -1.278392
  H       3.142186     -0.672315      4.386107
  H       4.022436      0.831758      3.966871
  H       4.910192     -0.728544      4.118150
  H       8.036706     -0.689425      2.017474
  H       7.324406      0.917442      1.641103
  H       7.681065     -0.245374      0.320525
  H       3.192762     -0.476734     -1.829145
  H       4.972745     -0.666415     -1.699265
  H       4.197797      0.903295     -1.286254
35
Coordinates from ORCA-job TMP_m2_shell2_cation_opt E -1531.352317698517
  C       0.261805     -3.023516     -0.517123
  O       0.767997     -1.790622      0.085864
  P       0.227715     -0.374821     -0.509425
  O       0.518202     -0.081005     -1.924045
  O      -1.286870     -0.339654     -0.056340
  C      -2.333954      0.227112     -0.909156
  O       1.082444      0.463705      0.585859
  C       1.323861      1.890802      0.356704
  H       0.803129     -3.840476     -0.041408
  H       0.457357     -3.013087     -1.592377
  H      -0.808117     -3.112432     -0.313895
  H      -3.203767     -0.418842     -0.790200
  H      -2.006419      0.248545     -1.950620
  H      -2.558198      1.233910     -0.551860
  H       1.521930      2.065180     -0.703890
  H       2.199871      2.151457      0.951609
  H       0.450173      2.456989      0.687792
  Li      2.247071     -1.061309      1.172754
  C       3.968371     -0.242235      3.820367
  O       3.699651     -0.537100      2.413017
  P       4.718672      0.068326      1.296907
  O       4.841962      1.534343      1.212602
  O       6.046562     -0.759353      1.535356
  C       7.363548     -0.142227      1.365733
  O       3.898821     -0.650434      0.095754
  C       4.091535     -0.182830     -1.280240
  H       3.132990     -0.656680      4.383483
  H       4.025225      0.839712      3.964284
  H       4.901277     -0.726795      4.118268
  H       8.036971     -0.707221      2.009435
  H       7.331075      0.908246      1.661336
  H       7.671058     -0.236979      0.322103
  H       3.196165     -0.473787     -1.830505
  H       4.976272     -0.668443     -1.698341
  H       4.204851      0.904222     -1.288377
35
Coordinates from ORCA-job TMP_m2_shell2_cation_opt E -1531.352327872137
  C       0.257895     -3.024013     -0.513125
  O       0.767496     -1.789719      0.083473
  P       0.225998     -0.373973     -0.510622
  O       0.516599     -0.078796     -1.925124
  O      -1.288531     -0.340345     -0.057772
  C      -2.336092      0.224503     -0.910993
  O       1.080642      0.465397      0.584785
  C       1.324350      1.891807      0.351667
  H       0.802730     -3.839681     -0.039179
  H       0.446319     -3.016165     -1.589691
  H      -0.810606     -3.112961     -0.302614
  H      -3.208467     -0.416142     -0.782641
  H      -2.012376      0.235298     -1.953812
  H      -2.554526      1.235546     -0.562031
  H       1.517234      2.063491     -0.710316
  H       2.203734      2.152015      0.941699
  H       0.453214      2.460187      0.685668
  Li      2.247640     -1.057730      1.169525
  C       3.972113     -0.250326      3.820849
  O       3.699230     -0.537200      2.412810
  P       4.718606      0.070068      1.298003
  O       4.842659      1.536399      1.215812
  O       6.046799     -0.757318      1.536688
  C       7.363703     -0.140955      1.368665
  O       3.900077     -0.646181      0.095286
  C       4.094004     -0.176759     -1.280706
  H       3.135014     -0.661953      4.383492
  H       4.035618      0.830608      3.969864
  H       4.902656     -0.741542      4.115131
  H       8.035250     -0.699364      2.020096
  H       7.329465      0.912068      1.654992
  H       7.676285     -0.244230      0.327322
  H       3.198564     -0.467445     -1.830943
  H       4.979006     -0.662176     -1.698252
  H       4.206935      0.910291     -1.286585
35
Coordinates from ORCA-job TMP_m2_shell2_cation_opt E -1531.352341484206
  C       0.255387     -3.025304     -0.508607
  O       0.768122     -1.788511      0.079491
  P       0.224926     -0.373559     -0.513916
  O       0.516020     -0.075262     -1.927747
  O      -1.290206     -0.344841     -0.062334
  C      -2.337265      0.221078     -0.914922
  O       1.077689      0.466745      0.582082
  C       1.323545      1.893203      0.347811
  H       0.804234     -3.838534     -0.035145
  H       0.436097     -3.021556     -1.586527
  H      -0.811595     -3.114068     -0.290501
  H      -3.219519     -0.399428     -0.758844
  H      -2.027131      0.200803     -1.961680
  H      -2.533105      1.244598     -0.589276
  H       1.507941      2.064457     -0.715736
  H       2.208047      2.151000      0.931140
  H       0.455922      2.462742      0.688772
  Li      2.248880     -1.053595      1.166735
  C       3.973658     -0.259351      3.823583
  O       3.697412     -0.536881      2.414392
  P       4.717381      0.073315      1.302280
  O       4.841615      1.539974      1.223036
  O       6.046064     -0.753090      1.541884
  C       7.362867     -0.139581      1.366789
  O       3.901775     -0.640251      0.096569
  C       4.099320     -0.169350     -1.279087
  H       3.135789     -0.671034      4.385040
  H       4.041430      0.820433      3.979048
  H       4.902890     -0.755398      4.113740
  H       8.036428     -0.696957      2.017010
  H       7.331577      0.914425      1.650009
  H       7.671156     -0.246524      0.324463
  H       3.201360     -0.452396     -1.829273
  H       4.980342     -0.661410     -1.697016
  H       4.220182      0.916811     -1.281838
35
Coordinates from ORCA-job TMP_m2_shell2_cation_opt E -1531.352350980759
  C       0.253754     -3.027411     -0.503271
  O       0.769088     -1.787931      0.076929
  P       0.223587     -0.374494     -0.517228
  O       0.513076     -0.074488     -1.930831
  O      -1.291737     -0.350080     -0.064728
  C      -2.338493      0.217544     -0.916232
  O       1.075458      0.467676      0.578403
  C       1.326501      1.892988      0.339599
  H       0.807860     -3.837993     -0.031460
  H       0.425858     -3.026730     -1.582606
  H      -0.811383     -3.116813     -0.276670
  H      -3.230070     -0.381576     -0.732581
  H      -2.043357      0.166592     -1.966234
  H      -2.510934      1.252582     -0.614227
  H       1.504837      2.060793     -0.725491
  H       2.215566      2.147709      0.917387
  H       0.463230      2.466420      0.684889
  Li      2.249808     -1.048792      1.163128
  C       3.973773     -0.268478      3.826031
  O       3.695204     -0.535890      2.415209
  P       4.716543      0.076963      1.306361
  O       4.841841      1.543622      1.231129
  O       6.044406     -0.750772      1.544618
  C       7.361938     -0.139321      1.366556
  O       3.902630     -0.632694      0.096633
  C       4.101830     -0.157412     -1.277212
  H       3.133452     -0.677986      4.385385
  H       4.048693      0.809885      3.987857
  H       4.899805     -0.772244      4.112985
  H       8.035906     -0.698000      2.015212
  H       7.332518      0.914707      1.649911
  H       7.667404     -0.247003      0.323477
  H       3.203090     -0.435418     -1.828849
  H       4.980864     -0.651543     -1.696863
  H       4.226690      0.928290     -1.275794
35
Coordinates from ORCA-job TMP_m2_shell2_cation_opt E -1531.352357109841
  C       0.255256     -3.029250     -0.501619
  O       0.771433     -1.787732      0.073868
  P       0.222140     -0.376042     -0.520400
  O       0.508712     -0.074127     -1.933860
  O      -1.293144     -0.356857     -0.065811
  C      -2.339419      0.214751     -0.915240
  O       1.072829      0.467674      0.574582
  C       1.327239      1.892555      0.335097
  H       0.816020     -3.837624     -0.033961
  H       0.418465     -3.028528     -1.582344
  H      -0.807770     -3.121458     -0.266495
  H      -3.240681     -0.359611     -0.702677
  H      -2.061899      0.131536     -1.967949
  H      -2.485079      1.260906     -0.638063
  H       1.496615      2.060840     -0.731351
  H       2.222314      2.142922      0.905657
  H       0.469187      2.468262      0.689273
  Li      2.250695     -1.043739      1.159181
  C       3.972225     -0.273281      3.827108
  O       3.692319     -0.532004      2.414693
  P       4.716105      0.080747      1.308820
  O       4.843128      1.547009      1.234608
  O       6.042150     -0.749237      1.547621
  C       7.361221     -0.140300      1.367774
  O       3.903260     -0.626641      0.096254
  C       4.104509     -0.149055     -1.275906
  H       3.128475     -0.678851      4.384140
  H       4.055513      0.803707      3.993716
  H       4.894072     -0.785804      4.111963
  H       8.033929     -0.699236      2.017472
  H       7.333094      0.914259      1.649140
  H       7.665626     -0.251208      0.324774
  H       3.203946     -0.419184     -1.828713
  H       4.979547     -0.648434     -1.697793
  H       4.237205      0.935740     -1.272135
