35
Coordinates from ORCA-job TMP_m2_shell2_cation_opt E -1531.352357109841
  C           0.25525621710593     -3.02924955464051     -0.50161851265434
  O           0.77143270248815     -1.78773202370587      0.07386815693535
  P           0.22214046403673     -0.37604206942572     -0.52039960205077
  O           0.50871189224669     -0.07412672254912     -1.93386037692282
  O          -1.29314434896646     -0.35685741645555     -0.06581079443954
  C          -2.33941922816904      0.21475091369138     -0.91523969045427
  O           1.07282917376866      0.46767365866681      0.57458158024166
  C           1.32723920351797      1.89255488943835      0.33509651076009
  H           0.81601964799948     -3.83762407413274     -0.03396105745389
  H           0.41846488265572     -3.02852833667843     -1.58234350987080
  H          -0.80777030714230     -3.12145814709996     -0.26649469950550
  H          -3.24068080774951     -0.35961139087297     -0.70267690573385
  H          -2.06189935838590      0.13153581576730     -1.96794866716432
  H          -2.48507938076115      1.26090576720495     -0.63806347161340
  H           1.49661529622163      2.06083995670461     -0.73135148044700
  H           2.22231438771682      2.14292168073145      0.90565701241456
  H           0.46918662282559      2.46826190983322      0.68927344197342
  Li          2.25069453914821     -1.04373948064212      1.15918068157317
  C           3.97222540047620     -0.27328084678107      3.82710754563035
  O           3.69231888933118     -0.53200395176925      2.41469296299201
  P           4.71610490295128      0.08074742642493      1.30881994035565
  O           4.84312796581544      1.54700854901441      1.23460760495946
  O           6.04215019410082     -0.74923677356698      1.54762072929187
  C           7.36122082154289     -0.14029970528229      1.36777444313996
  O           3.90325974529359     -0.62664116030991      0.09625358513676
  C           4.10450940560301     -0.14905548226777     -1.27590571552017
  H           3.12847525779908     -0.67885117588241      4.38414036132822
  H           4.05551318940853      0.80370657757632      3.99371585431250
  H           4.89407222291623     -0.78580376637509      4.11196269267454
  H           8.03392942670889     -0.69923554604332      2.01747169033378
  H           7.33309357260341      0.91425876454870      1.64913999820366
  H           7.66562551468016     -0.25120780437849      0.32477377869940
  H           3.20394618714435     -0.41918425892774     -1.82871327983923
  H           4.97954726626092     -0.64843366709402     -1.69779252180590
  H           4.23720464790635      0.93573957427890     -1.27213476648070
