15
 energy: -24.978810886593 gnorm: 0.000849513668 xtb: 6.7.1pre (5071a88)
C           -2.42379345343205        0.18194302709599        0.63537632363729
C           -1.08809459265715       -0.57354069117603        0.61222119703323
O            0.00215325141068        0.26235031691554        0.78049664927806
C            0.49118655227162        0.89667461633768       -0.48703347382078
O            0.05579147248293        0.43842986858781       -1.58999259859502
O            1.88726295832535        1.09530467164589       -0.29040746762469
C            2.68143574538276       -0.03039249275132       -0.59862023656653
H           -2.43418007691078        0.88078728474945       -0.19635012866762
H           -3.25785510753973       -0.51353597940675        0.53782299624645
H           -2.52497486984135        0.73941369809602        1.56509882625264
H           -1.06575455473569       -1.31253667390282        1.43123272873378
H           -1.00531247330278       -1.10014021068061       -0.35225924136841
H            2.37042062561741       -0.45060089930965       -1.56356429067599
H            3.72654032586230        0.29363774603016       -0.65817550270994
H            2.58517417706714       -0.80779430223173        0.17415421884805
