15
Coordinates from ORCA-job EMC_anion_cpcm_20_default E -382.905085344858
  C          -2.31773959858856      0.54629471466987      0.56422265992234
  C          -1.53995602654914     -0.76005082675811      0.67115857908654
  O          -0.14649235850049     -0.56320793472985      0.89841165267695
  C           0.57455612829563     -0.09131332642834     -0.27615291748569
  O           0.34516208280881     -0.64844644068801     -1.39576238612730
  O           1.93318122235537     -0.10555895358110      0.24499719696823
  C           2.87668165395449      0.33585150632620     -0.71979969108892
  H          -1.99106018782639      1.12229960718557     -0.30741910427540
  H          -3.38944047431641      0.33918656702935      0.46067480635138
  H          -2.16998603162604      1.16020441919946      1.45948636809314
  H          -1.89897414050700     -1.33930836925041      1.53088188615274
  H          -1.69117006577770     -1.36566735387794     -0.23359243422758
  H           2.94325850446571     -0.34889894946684     -1.57624170972276
  H           2.62175062256771      1.33868109343254     -1.09914868474275
  H           3.85022864924403      0.37993422693757     -0.22171622158093
