12
GBL_neutral_moread_cpcm_14
O            2.32332920955851        1.16330179088092        0.32672200111456
C            1.22154930563754        0.73299987210886        0.16060542144622
C            0.68700617482707       -0.62563274660348        0.59601402120991
C           -0.59405367097931       -0.76909825684885       -0.21696726221114
C           -0.96763378024677        0.69371565906273       -0.48537926429884
O            0.25083747596504        1.42284835473556       -0.45637377952838
H            1.42398034723360       -1.40488938971763        0.41784577232590
H            0.49012061930919       -0.57809519526846        1.66911315108579
H           -0.39184781846714       -1.28463971286240       -1.15640421712820
H           -1.38462806117206       -1.29787954210665        0.30967202712254
H           -1.43197182729209        0.85497467112458       -1.45945667731807
H           -1.62668796437357        1.09239449549481        0.29460879617971
