10
Coordinates from ORCA-job neb_EC_cation_cpcm_20_initial_path E   0.000000000000
  C      -0.219549     -0.930365     -0.106423
  C      -0.869262      0.406650     -0.063458
  O       0.162153      1.318315      0.137936
  C       1.384091      0.665540      0.215210
  O       2.433931      1.170934      0.376299
  O       1.140521     -0.691919      0.065918
  H      -0.381491     -1.509646     -1.047067
  H      -0.571672     -1.648975      0.673646
  H      -1.437496      0.683286     -0.985005
  H      -1.641225      0.536180      0.732945
10
Coordinates from ORCA-job neb_EC_cation_cpcm_20_initial_path E   0.000000000000
  C      -0.219537     -0.930342     -0.106598
  C      -0.869316      0.406698     -0.063599
  O       0.162557      1.318616      0.134898
  C       1.383965      0.665583      0.215029
  O       2.433301      1.170415      0.380803
  O       1.140866     -0.691591      0.062522
  H      -0.382873     -1.510310     -1.046586
  H      -0.570306     -1.648425      0.674504
  H      -1.438586      0.682569     -0.984721
  H      -1.640071      0.536787      0.733750
10
Coordinates from ORCA-job neb_EC_cation_cpcm_20_initial_path E   0.000000000000
  C      -0.219524     -0.930318     -0.106774
  C      -0.869369      0.406745     -0.063740
  O       0.162961      1.318916      0.131860
  C       1.383839      0.665625      0.214849
  O       2.432671      1.169897      0.385306
  O       1.141211     -0.691262      0.059125
  H      -0.384254     -1.510974     -1.046105
  H      -0.568940     -1.647875      0.675362
  H      -1.439677      0.681852     -0.984437
  H      -1.638916      0.537394      0.734555
10
Coordinates from ORCA-job neb_EC_cation_cpcm_20_initial_path E   0.000000000000
  C      -0.219512     -0.930295     -0.106950
  C      -0.869423      0.406793     -0.063881
  O       0.163364      1.319217      0.128822
  C       1.383713      0.665667      0.214668
  O       2.432042      1.169378      0.389810
  O       1.141556     -0.690934      0.055729
  H      -0.385636     -1.511638     -1.045624
  H      -0.567574     -1.647325      0.676220
  H      -1.440768      0.681136     -0.984154
  H      -1.637762      0.538001      0.735359
10
Coordinates from ORCA-job neb_EC_cation_cpcm_20_initial_path E   0.000000000000
  C      -0.219499     -0.930272     -0.107125
  C      -0.869477      0.406841     -0.064022
  O       0.163768      1.319518      0.125784
  C       1.383587      0.665710      0.214488
  O       2.431412      1.168860      0.394313
  O       1.141901     -0.690606      0.052332
  H      -0.387017     -1.512303     -1.045142
  H      -0.566209     -1.646775      0.677078
  H      -1.441859      0.680419     -0.983870
  H      -1.636607      0.538608      0.736164
10
Coordinates from ORCA-job neb_EC_cation_cpcm_20_initial_path E   0.000000000000
  C      -0.219487     -0.930248     -0.107301
  C      -0.869530      0.406889     -0.064163
  O       0.164172      1.319819      0.122746
  C       1.383461      0.665752      0.214308
  O       2.430782      1.168341      0.398817
  O       1.142247     -0.690278      0.048935
  H      -0.388399     -1.512967     -1.044661
  H      -0.564843     -1.646225      0.677936
  H      -1.442949      0.679702     -0.983586
  H      -1.635453      0.539215      0.736969
10
Coordinates from ORCA-job neb_EC_cation_cpcm_20_initial_path E   0.000000000000
  C      -0.219474     -0.930225     -0.107477
  C      -0.869584      0.406937     -0.064304
  O       0.164576      1.320120      0.119708
  C       1.383335      0.665794      0.214127
  O       2.430152      1.167823      0.403321
  O       1.142592     -0.689950      0.045539
  H      -0.389780     -1.513631     -1.044180
  H      -0.563477     -1.645675      0.678794
  H      -1.444040      0.678985     -0.983302
  H      -1.634298      0.539822      0.737774
10
Coordinates from ORCA-job neb_EC_cation_cpcm_20_initial_path E   0.000000000000
  C      -0.219462     -0.930202     -0.107652
  C      -0.869637      0.406985     -0.064445
  O       0.164980      1.320421      0.116670
  C       1.383209      0.665837      0.213947
  O       2.429522      1.167305      0.407824
  O       1.142937     -0.689621      0.042142
  H      -0.391162     -1.514295     -1.043699
  H      -0.562112     -1.645125      0.679652
  H      -1.445131      0.678268     -0.983018
  H      -1.633144      0.540429      0.738578
10
Coordinates from ORCA-job neb_EC_cation_cpcm_20_initial_path E   0.000000000000
  C      -0.219449     -0.930178     -0.107828
  C      -0.869691      0.407032     -0.064586
  O       0.165384      1.320721      0.113632
  C       1.383083      0.665879      0.213766
  O       2.428893      1.166786      0.412328
  O       1.143282     -0.689293      0.038746
  H      -0.392543     -1.514959     -1.043217
  H      -0.560746     -1.644575      0.680510
  H      -1.446222      0.677551     -0.982734
  H      -1.631989      0.541036      0.739383
10
Coordinates from ORCA-job neb_EC_cation_cpcm_20_initial_path E   0.000000000000
  C      -0.219437     -0.930155     -0.108004
  C      -0.869744      0.407080     -0.064727
  O       0.165787      1.321022      0.110594
  C       1.382957      0.665921      0.213586
  O       2.428263      1.166268      0.416832
  O       1.143627     -0.688965      0.035349
  H      -0.393925     -1.515624     -1.042736
  H      -0.559380     -1.644025      0.681369
  H      -1.447312      0.676835     -0.982450
  H      -1.630835      0.541643      0.740188
