10
Coordinates from ORCA-job neb_EC_cation_cpcm_20_NEB-HEI_converged E -342.068339201282
  C          -0.21943688539918     -0.93015517172789     -0.10800375157790
  C          -0.86974447839678      0.40708022689242     -0.06472704409752
  O           0.16578734596994      1.32102224174366      0.11059407180696
  C           1.38295654230432      0.66592120123176      0.21358589243617
  O           2.42826280948814      1.16626759195273      0.41683150225625
  O           1.14362719412615     -0.68896501999127      0.03534932471958
  H          -0.39392496047716     -1.51562362621652     -1.04273601745907
  H          -0.55938040164917     -1.64402520578603      0.68136853222730
  H          -1.44731246987640      0.67683455412166     -0.98245019408263
  H          -1.63083469608986      0.54164320777948      0.74018768377085
