21
Coordinates from ORCA-job DMSO_m1_shell2_cation_opt E -1113.704612135255
  C      -1.310307      0.533191     -0.148041
  S      -0.391718     -0.823775      0.654371
  C       1.273519     -0.240808      0.192616
  O      -0.491056     -0.511228      2.119548
  H      -0.958969      1.489095      0.227524
  H      -1.167099      0.466023     -1.220730
  H      -2.364025      0.410213      0.083337
  H       2.002141     -0.898590      0.657233
  H       1.376246     -0.293036     -0.885639
  H       1.417948      0.776447      0.543481
  Li     -0.472049     -0.179503      3.759985
  C      -1.660451      1.776831      7.104665
  S      -0.506795      0.380940      6.883334
  C      -1.638759     -0.914747      7.488260
  O      -0.476338      0.168626      5.397122
  H      -2.582174      1.582745      6.565246
  H      -1.854750      1.904892      8.163639
  H      -1.186054      2.672119      6.714389
  H      -1.150513     -1.876515      7.359864
  H      -1.832720     -0.746919      8.542034
  H      -2.562633     -0.891434      6.918256
21
Coordinates from ORCA-job DMSO_m1_shell2_cation_opt E -1113.708856914729
  C      -1.304280      0.534414     -0.217296
  S      -0.374791     -0.796125      0.618035
  C       1.299682     -0.250327      0.139273
  O      -0.485879     -0.485390      2.104398
  H      -0.952253      1.504163      0.144195
  H      -1.159823      0.444612     -1.297787
  H      -2.362475      0.402964      0.020822
  H       2.018907     -0.918444      0.619122
  H       1.401505     -0.324450     -0.947260
  H       1.454851      0.778076      0.476190
  Li     -0.483609     -0.163080      3.756644
  C      -1.676871      1.789258      7.171276
  S      -0.544582      0.381047      6.913790
  C      -1.648233     -0.927862      7.546015
  O      -0.504410      0.174274      5.405766
  H      -2.614382      1.601675      6.641358
  H      -1.852305      1.912604      8.243851
  H      -1.191496      2.684917      6.776337
  H      -1.144022     -1.886943      7.404994
  H      -1.823887     -0.761733      8.612768
  H      -2.588204     -0.909082      6.988003
21
Coordinates from ORCA-job DMSO_m1_shell2_cation_opt E -1113.710239190934
  C      -1.296000      0.539430     -0.255818
  S      -0.367952     -0.786666      0.584752
  C       1.310655     -0.257158      0.106233
  O      -0.483185     -0.473129      2.087445
  H      -0.938714      1.511249      0.101491
  H      -1.151484      0.439854     -1.337337
  H      -2.353678      0.403742     -0.012494
  H       2.018904     -0.933741      0.593098
  H       1.410994     -0.340432     -0.981626
  H       1.470608      0.774275      0.438496
  Li     -0.490482     -0.154042      3.754533
  C      -1.691196      1.792592      7.207817
  S      -0.561991      0.385085      6.943674
  C      -1.651556     -0.931365      7.581499
  O      -0.520259      0.178505      5.418766
  H      -2.633357      1.601538      6.682934
  H      -1.857170      1.914404      8.283982
  H      -1.200834      2.685048      6.808559
  H      -1.134241     -1.883889      7.435133
  H      -1.818882     -0.764475      8.651318
  H      -2.596736     -0.916259      7.028040
21
Coordinates from ORCA-job DMSO_m1_shell2_cation_opt E -1113.710853370376
  C      -1.289436      0.547442     -0.277911
  S      -0.366969     -0.783495      0.558743
  C       1.316137     -0.265384      0.086858
  O      -0.482164     -0.465410      2.069961
  H      -0.925038      1.516690      0.077421
  H      -1.147130      0.443224     -1.358939
  H      -2.345618      0.412845     -0.029835
  H       2.013862     -0.948642      0.578435
  H       1.416603     -0.353752     -1.000241
  H       1.480770      0.765445      0.416752
  Li     -0.495952     -0.146839      3.752823
  C      -1.704608      1.794031      7.227650
  S      -0.570415      0.391225      6.967261
  C      -1.649247     -0.933615      7.603387
  O      -0.531590      0.183251      5.433196
  H      -2.647291      1.596032      6.707501
  H      -1.864712      1.917377      8.304173
  H      -1.214757      2.683731      6.823070
  H      -1.121198     -1.879080      7.453410
  H      -1.812105     -0.767119      8.673617
  H      -2.595700     -0.923390      7.053162
21
Coordinates from ORCA-job DMSO_m1_shell2_cation_opt E -1113.711296184829
  C      -1.281772      0.558396     -0.295804
  S      -0.369549     -0.782006      0.536083
  C       1.319097     -0.277238      0.070941
  O      -0.481804     -0.457861      2.049937
  H      -0.907090      1.523368      0.057033
  H      -1.144012      0.450473     -1.376321
  H      -2.336868      0.431066     -0.042653
  H       2.006503     -0.966291      0.567285
  H       1.420890     -0.370737     -1.014886
  H       1.490570      0.752192      0.397988
  Li     -0.501706     -0.138561      3.751022
  C      -1.720439      1.794101      7.243134
  S      -0.575576      0.399610      6.987661
  C      -1.642181     -0.935289      7.622211
  O      -0.542863      0.189547      5.450135
  H      -2.663082      1.585925      6.729271
  H      -1.874819      1.921273      8.319300
  H      -1.236773      2.682898      6.831265
  H      -1.104392     -1.873723      7.468102
  H      -1.800905     -0.770877      8.692678
  H      -2.589787     -0.931698      7.076114
21
Coordinates from ORCA-job DMSO_m1_shell2_cation_opt E -1113.711663958532
  C      -1.271407      0.571935     -0.314563
  S      -0.374750     -0.779712      0.516794
  C       1.320287     -0.293693      0.054023
  O      -0.481539     -0.448275      2.027598
  H      -0.883096      1.532119      0.034015
  H      -1.139864      0.459421     -1.394804
  H      -2.326437      0.458868     -0.056559
  H       1.998107     -0.987753      0.555456
  H       1.423676     -0.393780     -1.030500
  H       1.502103      0.734504      0.376521
  Li     -0.508375     -0.127787      3.748944
  C      -1.739956      1.792537      7.259632
  S      -0.580054      0.410079      7.004532
  C      -1.630622     -0.936163      7.642373
  O      -0.556010      0.197667      5.469017
  H      -2.683331      1.571436      6.754335
  H      -1.887483      1.924667      8.335576
  H      -1.268849      2.683301      6.838896
  H      -1.084142     -1.868141      7.483194
  H      -1.784037     -0.775237      8.713590
  H      -2.580780     -0.941428      7.102427
21
Coordinates from ORCA-job DMSO_m1_shell2_cation_opt E -1113.711874755877
  C      -1.260235      0.584184     -0.332061
  S      -0.380474     -0.775528      0.505812
  C       1.319799     -0.310662      0.038085
  O      -0.481239     -0.437587      2.010076
  H      -0.859060      1.540934      0.011358
  H      -1.133314      0.466268     -1.412177
  H      -2.316471      0.488122     -0.071864
  H       1.991389     -1.008318      0.543002
  H       1.423178     -0.417275     -1.045723
  H       1.513625      0.716989      0.355250
  Li     -0.514705     -0.116388      3.746980
  C      -1.758552      1.789584      7.275741
  S      -0.584418      0.419630      7.013333
  C      -1.618035     -0.935812      7.661007
  O      -0.568695      0.205468      5.483357
  H      -2.703638      1.556907      6.778886
  H      -1.899464      1.924605      8.352116
  H      -1.302784      2.685136      6.848194
  H      -1.065705     -1.863696      7.497830
  H      -1.765791     -0.777560      8.733327
  H      -2.571969     -0.950433      7.127965
21
Coordinates from ORCA-job DMSO_m1_shell2_cation_opt E -1113.711929983453
  C      -1.253088      0.590788     -0.342022
  S      -0.384014     -0.771456      0.503748
  C       1.318619     -0.321046      0.028984
  O      -0.481192     -0.429748      2.003840
  H      -0.845320      1.546364     -0.001694
  H      -1.126450      0.468914     -1.421926
  H      -2.310865      0.505356     -0.083097
  H       1.988043     -1.020995      0.534244
  H       1.419983     -0.430934     -1.054877
  H       1.520975      0.706410      0.342958
  Li     -0.518649     -0.108750      3.745757
  C      -1.769153      1.787025      7.285298
  S      -0.587453      0.424745      7.014104
  C      -1.610030     -0.934936      7.671492
  O      -0.576390      0.209855      5.487658
  H      -2.715580      1.548682      6.792700
  H      -1.906537      1.921012      8.362459
  H      -1.323292      2.687170      6.856165
  H      -1.054979     -1.861408      7.507600
  H      -1.754491     -0.776470      8.744411
  H      -2.566693     -0.956012      7.142692
21
Coordinates from ORCA-job DMSO_m1_shell2_cation_opt E -1113.711947142312
  C      -1.248969      0.594811     -0.346559
  S      -0.386476     -0.768590      0.504224
  C       1.317395     -0.327457      0.024845
  O      -0.481416     -0.424128      2.002827
  H      -0.837856      1.549753     -0.007536
  H      -1.120900      0.470494     -1.426151
  H      -2.307900      0.515234     -0.089744
  H       1.985554     -1.029503      0.529244
  H       1.416362     -0.438576     -1.059243
  H       1.525496      0.699609      0.337366
  Li     -0.521237     -0.103559      3.744944
  C      -1.775280      1.785286      7.289694
  S      -0.589208      0.427819      7.012838
  C      -1.604702     -0.934349      7.676402
  O      -0.581074      0.212409      5.487418
  H      -2.722174      1.544014      6.798762
  H      -1.911170      1.916944      8.367473
  H      -1.335037      2.688711      6.861191
  H      -1.047531     -1.859884      7.513274
  H      -1.747652     -0.774458      8.749436
  H      -2.562784     -0.960011      7.149789
21
Coordinates from ORCA-job DMSO_m1_shell2_cation_opt E -1113.711971607603
  C      -1.241541      0.603429     -0.353326
  S      -0.391801     -0.763291      0.504916
  C       1.314793     -0.340149      0.018963
  O      -0.482159     -0.412854      2.001778
  H      -0.823554      1.556502     -0.016427
  H      -1.110929      0.474615     -1.432229
  H      -2.302270      0.534627     -0.100128
  H       1.979230     -1.046947      0.522001
  H       1.409277     -0.453592     -1.065420
  H       1.533966      0.685731      0.328923
  Li     -0.526700     -0.093104      3.743260
  C      -1.787310      1.782107      7.295949
  S      -0.592265      0.434276      7.010510
  C      -1.593628     -0.933631      7.683958
  O      -0.590311      0.217438      5.485881
  H      -2.734531      1.534545      6.808064
  H      -1.920458      1.909479      8.374730
  H      -1.357394      2.691190      6.868486
  H      -1.031172     -1.856393      7.522182
  H      -1.733835     -0.770934      8.757055
  H      -2.553966     -0.968477      7.161369
21
Coordinates from ORCA-job DMSO_m1_shell2_cation_opt E -1113.712016953937
  C      -1.226262      0.623140     -0.365641
  S      -0.403527     -0.752213      0.504824
  C       1.309180     -0.367182      0.009051
  O      -0.483912     -0.389137      1.998898
  H      -0.792488      1.571041     -0.033062
  H      -1.092378      0.485213     -1.443161
  H      -2.289667      0.576751     -0.118030
  H       1.963384     -1.084435      0.511009
  H       1.395723     -0.486252     -1.075531
  H       1.551220      0.655577      0.313445
  Li     -0.539740     -0.071388      3.739394
  C      -1.813229      1.775556      7.306362
  S      -0.598723      0.448480      7.006375
  C      -1.569210     -0.932546      7.698216
  O      -0.610756      0.227449      5.482712
  H      -2.760666      1.513067      6.825983
  H      -1.939636      1.896369      8.386855
  H      -1.404851      2.694662      6.878845
  H      -0.994233     -1.847938      7.537715
  H      -1.702889     -0.764862      8.771497
  H      -2.533896     -0.986786      7.184738
21
Coordinates from ORCA-job DMSO_m1_shell2_cation_opt E -1113.712101974733
  C      -1.201435      0.657069     -0.382523
  S      -0.421911     -0.733516      0.502931
  C       1.299779     -0.410199     -0.004816
  O      -0.484827     -0.351528      1.993382
  H      -0.740265      1.594711     -0.057098
  H      -1.066461      0.505029     -1.458095
  H      -2.267071      0.646728     -0.140293
  H       1.934790     -1.144168      0.497705
  H       1.374995     -0.539375     -1.089176
  H       1.577975      0.606396      0.289990
  Li     -0.563361     -0.039373      3.732729
  C      -1.855524      1.764451      7.318704
  S      -0.610306      0.470875      6.999491
  C      -1.529050     -0.930400      7.720628
  O      -0.646528      0.239422      5.477493
  H      -2.802986      1.475360      6.853342
  H      -1.968529      1.879965      8.401349
  H      -1.482173      2.696201      6.886457
  H      -0.933176     -1.832360      7.560147
  H      -1.650069     -0.754746      8.794200
  H      -2.500424     -1.015976      7.223946
21
Coordinates from ORCA-job DMSO_m1_shell2_cation_opt E -1113.712217817269
  C      -1.182601      0.684140     -0.391348
  S      -0.432974     -0.717948      0.501232
  C       1.293527     -0.441080     -0.016099
  O      -0.478134     -0.320574      1.989620
  H      -0.698356      1.612731     -0.074129
  H      -1.053173      0.520489     -1.465826
  H      -2.247518      0.701036     -0.147141
  H       1.913101     -1.186277      0.488799
  H       1.359001     -0.580682     -1.099741
  H       1.598340      0.570572      0.268640
  Li     -0.583108     -0.017349      3.727402
  C      -1.887387      1.755513      7.323220
  S      -0.621521      0.485068      6.993403
  C      -1.500008     -0.928838      7.739145
  O      -0.680269      0.240363      5.472896
  H      -2.835444      1.444551      6.873807
  H      -1.986366      1.873532      8.406896
  H      -1.540117      2.692577      6.881253
  H      -0.889020     -1.820102      7.576922
  H      -1.607501     -0.745544      8.812805
  H      -2.477028     -1.037610      7.258739
21
Coordinates from ORCA-job DMSO_m1_shell2_cation_opt E -1113.712419483452
  C      -1.170143      0.705133     -0.390262
  S      -0.430772     -0.703328      0.500320
  C       1.295039     -0.458201     -0.032126
  O      -0.447883     -0.285490      1.986797
  H      -0.664919      1.626836     -0.089386
  H      -1.061790      0.528897     -1.464685
  H      -2.229536      0.739597     -0.127239
  H       1.903638     -1.207590      0.478633
  H       1.347918     -0.614321     -1.113838
  H       1.617372      0.551346      0.236515
  Li     -0.602093     -0.002195      3.722671
  C      -1.908839      1.749296      7.317342
  S      -0.636745      0.485413      6.987869
  C      -1.486119     -0.930325      7.761703
  O      -0.728153      0.217486      5.469884
  H      -2.861129      1.421665      6.891744
  H      -1.987178      1.885506      8.400166
  H      -1.575821      2.679534      6.852040
  H      -0.866834     -1.814159      7.594273
  H      -1.571831     -0.736614      8.835136
  H      -2.470741     -1.053918      7.302939
21
Coordinates from ORCA-job DMSO_m1_shell2_cation_opt E -1113.712568746560
  C      -1.154276      0.731367     -0.389151
  S      -0.430382     -0.686586      0.499222
  C       1.293836     -0.479785     -0.053330
  O      -0.417199     -0.256119      1.982724
  H      -0.626123      1.644075     -0.101733
  H      -1.066555      0.546249     -1.463815
  H      -2.208292      0.787438     -0.109435
  H       1.891181     -1.237034      0.458774
  H       1.331987     -0.647381     -1.133820
  H       1.638651      0.525173      0.202893
  Li     -0.618867      0.007368      3.718533
  C      -1.935891      1.740300      7.310578
  S      -0.652780      0.487643      6.980762
  C      -1.468051     -0.927848      7.790164
  O      -0.771801      0.191872      5.469302
  H      -2.890753      1.392485      6.908212
  H      -1.996254      1.895841      8.391801
  H      -1.622185      2.665169      6.822105
  H      -0.838822     -1.804308      7.622096
  H      -1.534837     -0.720010      8.862190
  H      -2.459145     -1.071342      7.352422
21
Coordinates from ORCA-job DMSO_m1_shell2_cation_opt E -1113.712705241666
  C      -1.139834      0.755533     -0.383307
  S      -0.425059     -0.670614      0.500142
  C       1.293860     -0.495696     -0.079585
  O      -0.377497     -0.232313      1.979874
  H      -0.589942      1.659961     -0.110797
  H      -1.078307      0.564229     -1.458728
  H      -2.186757      0.830579     -0.081735
  H       1.884240     -1.259059      0.431702
  H       1.315620     -0.672759     -1.159014
  H       1.657665      0.505365      0.165227
  Li     -0.631637      0.008202      3.715656
  C      -1.959328      1.731293      7.298968
  S      -0.669882      0.483891      6.972156
  C      -1.456092     -0.923678      7.822781
  O      -0.814493      0.154449      5.470670
  H      -2.917609      1.365493      6.921490
  H      -2.002042      1.912677      8.377009
  H      -1.661614      2.646641      6.783028
  H      -0.820425     -1.795884      7.656120
  H      -1.503751     -0.699147      8.892465
  H      -2.453673     -1.084594      7.406376
21
Coordinates from ORCA-job DMSO_m1_shell2_cation_opt E -1113.712776270069
  C      -1.120298      0.786989     -0.376486
  S      -0.427814     -0.653740      0.501810
  C       1.286572     -0.520252     -0.102830
  O      -0.348622     -0.216621      1.979446
  H      -0.545377      1.678820     -0.112687
  H      -1.078398      0.593567     -1.452636
  H      -2.161262      0.888051     -0.061070
  H       1.866438     -1.295804      0.402716
  H       1.291603     -0.699197     -1.182288
  H       1.675940      0.472873      0.136571
  Li     -0.642364      0.006083      3.713277
  C      -1.991254      1.719045      7.286131
  S      -0.685184      0.488063      6.961057
  C      -1.433323     -0.915086      7.852654
  O      -0.845630      0.124904      5.470051
  H      -2.948528      1.329463      6.929341
  H      -2.022251      1.920544      8.361157
  H      -1.717849      2.630092      6.748898
  H      -0.785839     -1.780073      7.692024
  H      -1.468721     -0.672172      8.918933
  H      -2.434397     -1.100981      7.454426
21
Coordinates from ORCA-job DMSO_m1_shell2_cation_opt E -1113.712790414106
  C      -1.117425      0.789785     -0.375139
  S      -0.425748     -0.651405      0.503336
  C       1.286417     -0.521335     -0.108901
  O      -0.339057     -0.213009      1.980049
  H      -0.538092      1.680280     -0.116070
  H      -1.082146      0.594325     -1.451214
  H      -2.156454      0.895235     -0.054413
  H       1.867140     -1.296701      0.396141
  H       1.287970     -0.701809     -1.188135
  H       1.677445      0.471783      0.128305
  Li     -0.643373      0.004799      3.713205
  C      -1.994408      1.717349      7.284188
  S      -0.688519      0.486028      6.958931
  C      -1.432924     -0.913702      7.859083
  O      -0.853255      0.115683      5.470274
  H      -2.952866      1.324978      6.933330
  H      -2.021252      1.924643      8.358278
  H      -1.724180      2.625956      6.741043
  H      -0.786321     -1.779370      7.697845
  H      -1.463803     -0.668223      8.924953
  H      -2.435710     -1.100721      7.465406
21
Coordinates from ORCA-job DMSO_m1_shell2_cation_opt E -1113.712799963102
  C      -1.115165      0.791523     -0.375378
  S      -0.425165     -0.649659      0.504625
  C       1.285835     -0.523163     -0.112209
  O      -0.334113     -0.209695      1.980713
  H      -0.532862      1.681119     -0.119588
  H      -1.082869      0.593759     -1.451154
  H      -2.153271      0.901023     -0.052785
  H       1.867021     -1.298823      0.391959
  H       1.284958     -0.703905     -1.191393
  H       1.678565      0.469592      0.124047
  Li     -0.643933      0.005588      3.713127
  C      -1.997142      1.716099      7.284448
  S      -0.690525      0.485898      6.957562
  C      -1.431606     -0.912698      7.862324
  O      -0.857776      0.112061      5.469938
  H      -2.956126      1.321789      6.936935
  H      -2.021390      1.925009      8.358323
  H      -1.730205      2.624491      6.739213
  H      -0.785441     -1.778638      7.700428
  H      -1.459989     -0.666140      8.928023
  H      -2.435358     -1.100663      7.471337
21
Coordinates from ORCA-job DMSO_m1_shell2_cation_opt E -1113.712816185249
  C      -1.123701      0.772897     -0.378662
  S      -0.414011     -0.654314      0.508940
  C       1.293810     -0.506841     -0.113588
  O      -0.324046     -0.204471      1.982384
  H      -0.549584      1.670689     -0.133174
  H      -1.095782      0.567144     -1.453066
  H      -2.161135      0.874359     -0.051025
  H       1.887380     -1.271068      0.393757
  H       1.294237     -0.692531     -1.191879
  H       1.671404      0.492840      0.118261
  Li     -0.639312      0.008104      3.714374
  C      -1.979785      1.721441      7.291529
  S      -0.689766      0.474969      6.959852
  C      -1.450350     -0.916823      7.859052
  O      -0.861706      0.107599      5.470844
  H      -2.944676      1.340246      6.945654
  H      -1.998886      1.929458      8.365696
  H      -1.702190      2.626991      6.746795
  H      -0.817874     -1.791528      7.689807
  H      -1.473136     -0.677409      8.926500
  H      -2.457450     -1.087185      7.468446
21
Coordinates from ORCA-job DMSO_m1_shell2_cation_opt E -1113.712850771548
  C      -1.138905      0.739037     -0.384642
  S      -0.393556     -0.660656      0.518045
  C       1.307701     -0.479500     -0.115866
  O      -0.305517     -0.190828      1.985860
  H      -0.581225      1.652018     -0.157781
  H      -1.115335      0.517227     -1.455983
  H      -2.175783      0.826225     -0.050900
  H       1.922886     -1.224306      0.394667
  H       1.308237     -0.672455     -1.192766
  H       1.660618      0.530965      0.108281
  Li     -0.630643      0.016606      3.716382
  C      -1.949184      1.730132      7.305885
  S      -0.689097      0.456340      6.963065
  C      -1.482823     -0.923765      7.851797
  O      -0.870109      0.102794      5.471203
  H      -2.923874      1.374047      6.960526
  H      -1.960285      1.930934      8.381594
  H      -1.653032      2.633228      6.766753
  H      -0.874269     -1.813135      7.671260
  H      -1.497720     -0.696132      8.921905
  H      -2.494644     -1.064212      7.461211
21
Coordinates from ORCA-job DMSO_m1_shell2_cation_opt E -1113.712890045717
  C      -1.155023      0.702348     -0.391714
  S      -0.373335     -0.666691      0.526983
  C       1.321140     -0.451788     -0.115580
  O      -0.291504     -0.175636      1.988570
  H      -0.618337      1.631563     -0.180551
  H      -1.129287      0.465015     -1.459711
  H      -2.192746      0.771284     -0.056428
  H       1.957016     -1.176956      0.397761
  H       1.322085     -0.651929     -1.191105
  H       1.649697      0.568695      0.100380
  Li     -0.621030      0.028787      3.718240
  C      -1.916526      1.738756      7.323479
  S      -0.687565      0.438830      6.967092
  C      -1.515858     -0.930874      7.840245
  O      -0.875891      0.105260      5.471099
  H      -2.899580      1.411274      6.973488
  H      -1.923319      1.925395      8.401824
  H      -1.599062      2.641781      6.796528
  H      -0.930293     -1.833549      7.650071
  H      -1.526777     -0.715366      8.912871
  H      -2.530362     -1.041630      7.446951
21
Coordinates from ORCA-job DMSO_m1_shell2_cation_opt E -1113.712946577909
  C      -1.170504      0.666050     -0.399965
  S      -0.354265     -0.669447      0.536410
  C       1.333210     -0.428138     -0.113879
  O      -0.280382     -0.153886      1.990158
  H      -0.658320      1.611731     -0.201381
  H      -1.134806      0.413558     -1.464246
  H      -2.210532      0.713735     -0.068825
  H       1.986897     -1.135476      0.401581
  H       1.331776     -0.637233     -1.187728
  H       1.642940      0.600687      0.090382
  Li     -0.610533      0.048591      3.719573
  C      -1.885813      1.746063      7.345312
  S      -0.686603      0.424350      6.970948
  C      -1.545974     -0.937997      7.824989
  O      -0.881891      0.117119      5.469998
  H      -2.874892      1.449148      6.985223
  H      -1.892834      1.909423      8.427475
  H      -1.546450      2.652807      6.839098
  H      -0.979605     -1.851360      7.628644
  H      -1.556813     -0.732159      8.899507
  H      -2.561164     -1.023001      7.427220
21
Coordinates from ORCA-job DMSO_m1_shell2_cation_opt E -1113.713002741450
  C      -1.184913      0.631678     -0.404256
  S      -0.333440     -0.671156      0.545394
  C       1.345334     -0.402972     -0.114558
  O      -0.265476     -0.132461      1.990967
  H      -0.696140      1.592124     -0.218312
  H      -1.144323      0.366775     -1.465333
  H      -2.224960      0.656419     -0.071208
  H       2.015410     -1.090813      0.405888
  H       1.341896     -0.625978     -1.185636
  H       1.635875      0.634366      0.073735
  Li     -0.600445      0.065614      3.720932
  C      -1.855580      1.752103      7.363010
  S      -0.687377      0.407560      6.974064
  C      -1.577528     -0.944636      7.812076
  O      -0.890544      0.123706      5.469693
  H      -2.850245      1.483928      6.996112
  H      -1.861808      1.899764      8.447413
  H      -1.493056      2.657472      6.870839
  H      -1.029895     -1.867795      7.609339
  H      -1.585808     -0.746988      8.888147
  H      -2.593536     -1.004143      7.412187
21
Coordinates from ORCA-job DMSO_m1_shell2_cation_opt E -1113.713070919134
  C      -1.196707      0.600237     -0.408911
  S      -0.312839     -0.669126      0.555112
  C       1.356289     -0.381433     -0.117369
  O      -0.249263     -0.104656      1.990745
  H      -0.730240      1.573966     -0.235595
  H      -1.152060      0.323448     -1.466743
  H      -2.235827      0.602400     -0.072452
  H       2.040122     -1.048606      0.411894
  H       1.349723     -0.626583     -1.183727
  H       1.631694      0.664077      0.046356
  Li     -0.590024      0.087651      3.722108
  C      -1.829303      1.756307      7.383142
  S      -0.690499      0.392266      6.976307
  C      -1.606719     -0.951347      7.799560
  O      -0.902731      0.133890      5.469056
  H      -2.828536      1.514160      7.010822
  H      -1.834403      1.889466      8.469351
  H      -1.445568      2.659589      6.903588
  H      -1.075334     -1.882337      7.590100
  H      -1.610525     -0.760978      8.877035
  H      -2.623809     -0.987823      7.400114
21
Coordinates from ORCA-job DMSO_m1_shell2_cation_opt E -1113.713136760551
  C      -1.206927      0.567270     -0.414569
  S      -0.292491     -0.667364      0.565897
  C       1.366473     -0.358951     -0.120529
  O      -0.234161     -0.076649      1.991075
  H      -0.760908      1.553144     -0.256880
  H      -1.161165      0.276724     -1.468614
  H      -2.244111      0.550419     -0.072427
  H       2.065078     -1.001440      0.420033
  H       1.359724     -0.629229     -1.180915
  H       1.623217      0.695046      0.016695
  Li     -0.579640      0.109627      3.723643
  C      -1.802690      1.759929      7.405335
  S      -0.694024      0.377233      6.977835
  C      -1.636560     -0.957275      7.786209
  O      -0.915257      0.145079      5.467863
  H      -2.806982      1.542858      7.031133
  H      -1.803932      1.880991      8.492908
  H      -1.399607      2.659828      6.935325
  H      -1.124046     -1.896140      7.565176
  H      -1.633259     -0.778685      8.865780
  H      -2.655292     -0.967846      7.389522
21
Coordinates from ORCA-job DMSO_m1_shell2_cation_opt E -1113.713216574241
  C      -1.214257      0.535589     -0.424926
  S      -0.275922     -0.662139      0.579256
  C       1.374319     -0.343034     -0.121848
  O      -0.223891     -0.039277      1.990975
  H      -0.785564      1.531972     -0.285911
  H      -1.166439      0.227407     -1.473809
  H      -2.249971      0.505616     -0.078763
  H       2.085250     -0.957632      0.435242
  H       1.368977     -0.647036     -1.173244
  H       1.615335      0.718668     -0.019609
  Li     -0.568719      0.141516      3.725187
  C      -1.780811      1.762427      7.435880
  S      -0.698477      0.367926      6.977957
  C      -1.660857     -0.963804      7.767970
  O      -0.929972      0.169270      5.464880
  H      -2.789700      1.567845      7.061355
  H      -1.776689      1.867253      8.525063
  H      -1.363351      2.662017      6.977748
  H      -1.165255     -1.907704      7.529992
  H      -1.648796     -0.802284      8.850297
  H      -2.681767     -0.950027      7.376799
21
Coordinates from ORCA-job DMSO_m1_shell2_cation_opt E -1113.713300515471
  C      -1.219866      0.503651     -0.438285
  S      -0.263568     -0.655985      0.594672
  C       1.380221     -0.331151     -0.119087
  O      -0.219808      0.002994      1.990478
  H      -0.804933      1.508807     -0.321732
  H      -1.169918      0.173466     -1.480309
  H      -2.254589      0.467199     -0.089219
  H       2.101709     -0.915246      0.457355
  H       1.379738     -0.671256     -1.159479
  H       1.605012      0.737034     -0.053445
  Li     -0.558697      0.178821      3.726650
  C      -1.761154      1.764320      7.471509
  S      -0.702507      0.363555      6.976333
  C      -1.680677     -0.970155      7.744035
  O      -0.945923      0.203423      5.460366
  H      -2.774853      1.590800      7.099262
  H      -1.749099      1.849708      8.562283
  H      -1.333328      2.665785      7.026491
  H      -1.201579     -1.916480      7.482472
  H      -1.658723     -0.832658      8.829615
  H      -2.704018     -0.932065      7.360531
21
Coordinates from ORCA-job DMSO_m1_shell2_cation_opt E -1113.713389560818
  C      -1.223431      0.472039     -0.457427
  S      -0.258818     -0.648646      0.611719
  C       1.383299     -0.325876     -0.108544
  O      -0.227348      0.051548      1.988177
  H      -0.817855      1.483751     -0.366784
  H      -1.168457      0.114554     -1.490109
  H      -2.258827      0.436966     -0.109797
  H       2.111211     -0.878520      0.490711
  H       1.392286     -0.702972     -1.136059
  H       1.593089      0.746996     -0.079410
  Li     -0.551733      0.223581      3.727428
  C      -1.744748      1.765623      7.514555
  S      -0.705369      0.367149      6.972586
  C      -1.692609     -0.976365      7.711617
  O      -0.963484      0.253091      5.454324
  H      -2.763420      1.611436      7.147170
  H      -1.721902      1.825109      8.606845
  H      -1.311833      2.672985      7.086475
  H      -1.227734     -1.920661      7.418417
  H      -1.660209     -0.871564      8.800598
  H      -2.718665     -0.915655      7.338003
21
Coordinates from ORCA-job DMSO_m1_shell2_cation_opt E -1113.713472132684
  C      -1.226224      0.439793     -0.478708
  S      -0.259100     -0.640855      0.629353
  C       1.385125     -0.323256     -0.091182
  O      -0.242520      0.103106      1.983611
  H      -0.827838      1.456472     -0.416511
  H      -1.163478      0.051209     -1.499616
  H      -2.263375      0.410079     -0.135897
  H       2.116121     -0.846166      0.530591
  H       1.406561     -0.732303     -1.106048
  H       1.579937      0.752792     -0.092888
  Li     -0.549891      0.270629      3.726851
  C      -1.728419      1.766118      7.559382
  S      -0.707652      0.374980      6.965972
  C      -1.700015     -0.981484      7.673701
  O      -0.984675      0.309623      5.447249
  H      -2.752751      1.631387      7.200356
  H      -1.691302      1.795024      8.652504
  H      -1.293087      2.681210      7.150592
  H      -1.248511     -1.920334      7.344149
  H      -1.656625     -0.914221      8.765160
  H      -2.728842     -0.899234      7.311875
21
Coordinates from ORCA-job DMSO_m1_shell2_cation_opt E -1113.713528513822
  C      -1.229069      0.409905     -0.492856
  S      -0.256018     -0.631129      0.646476
  C       1.388492     -0.318873     -0.077215
  O      -0.249001      0.153847      1.978168
  H      -0.838889      1.430957     -0.458976
  H      -1.159689     -0.008330     -1.501534
  H      -2.266889      0.382730     -0.152441
  H       2.122571     -0.817937      0.559994
  H       1.417089     -0.751955     -1.081703
  H       1.570690      0.758996     -0.103332
  Li     -0.550564      0.312928      3.725159
  C      -1.711757      1.764963      7.594897
  S      -0.712592      0.379209      6.956288
  C      -1.709208     -0.985114      7.641637
  O      -1.011904      0.354055      5.439691
  H      -2.742080      1.649758      7.246910
  H      -1.658974      1.765518      8.687752
  H      -1.273065      2.685650      7.202921
  H      -1.270882     -1.919155      7.282185
  H      -1.654115     -0.947337      8.733841
  H      -2.740703     -0.884118      7.292634
21
Coordinates from ORCA-job DMSO_m1_shell2_cation_opt E -1113.713550976181
  C      -1.233862      0.381042     -0.493287
  S      -0.240331     -0.623575      0.659416
  C       1.396359     -0.302737     -0.077379
  O      -0.236761      0.188647      1.975222
  H      -0.858933      1.408160     -0.481447
  H      -1.162177     -0.056486     -1.493590
  H      -2.269358      0.344496     -0.147180
  H       2.139445     -0.784153      0.562639
  H       1.424272     -0.748411     -1.076287
  H       1.564177      0.776935     -0.118717
  Li     -0.547645      0.336810      3.724288
  C      -1.690765      1.763122      7.612775
  S      -0.720062      0.370380      6.948171
  C      -1.731149     -0.986501      7.626127
  O      -1.035651      0.368483      5.434215
  H      -2.725986      1.669654      7.273285
  H      -1.627501      1.746617      8.704956
  H      -1.240780      2.682082      7.229997
  H      -1.309426     -1.922530      7.252605
  H      -1.666851     -0.961527      8.718124
  H      -2.763574     -0.865940      7.286561
21
Coordinates from ORCA-job DMSO_m1_shell2_cation_opt E -1113.713556506591
  C      -1.239054      0.355258     -0.492273
  S      -0.224526     -0.622732      0.664180
  C       1.404163     -0.280944     -0.080192
  O      -0.228951      0.200132      1.973658
  H      -0.881415      1.388526     -0.492137
  H      -1.164185     -0.090824     -1.488569
  H      -2.272144      0.304015     -0.141008
  H       2.156265     -0.750763      0.557743
  H       1.433972     -0.727498     -1.078599
  H       1.555788      0.800987     -0.124103
  Li     -0.545640      0.342506      3.723946
  C      -1.668689      1.762578      7.621585
  S      -0.724334      0.357564      6.945912
  C      -1.755763     -0.985900      7.619526
  O      -1.044716      0.368926      5.432845
  H      -2.706536      1.689617      7.285284
  H      -1.602025      1.736980      8.713407
  H      -1.203839      2.676282      7.244164
  H      -1.350105     -1.926550      7.240084
  H      -1.687888     -0.967215      8.711398
  H      -2.786935     -0.846376      7.283643
21
Coordinates from ORCA-job DMSO_m1_shell2_cation_opt E -1113.713558637641
  C      -1.239109      0.353411     -0.498128
  S      -0.227247     -0.622770      0.661750
  C       1.404218     -0.280387     -0.075991
  O      -0.236696      0.199740      1.971444
  H      -0.882801      1.387140     -0.498617
  H      -1.160399     -0.094079     -1.493533
  H      -2.273249      0.301134     -0.150162
  H       2.153724     -0.754261      0.561917
  H       1.436319     -0.721758     -1.076616
  H       1.557031      0.801613     -0.114226
  Li     -0.550513      0.343623      3.722539
  C      -1.666860      1.763355      7.624716
  S      -0.724193      0.358663      6.946542
  C      -1.754759     -0.986238      7.618484
  O      -1.044616      0.372039      5.433518
  H      -2.704942      1.692729      7.288659
  H      -1.600083      1.734312      8.716483
  H      -1.201006      2.677748      7.250271
  H      -1.348395     -1.926259      7.238342
  H      -1.686983     -0.968251      8.710368
  H      -2.786001     -0.846939      7.282734
21
Coordinates from ORCA-job DMSO_m1_shell2_cation_opt E -1113.713561369543
  C      -1.245405      0.322794     -0.502134
  S      -0.211639     -0.629118      0.658407
  C       1.412353     -0.246926     -0.075316
  O      -0.242733      0.189470      1.970012
  H      -0.913210      1.364561     -0.505976
  H      -1.157780     -0.124969     -1.496733
  H      -2.277650      0.246563     -0.152704
  H       2.170685     -0.712538      0.558266
  H       1.453765     -0.677196     -1.080473
  H       1.543591      0.838282     -0.103333
  Li     -0.555049      0.333988      3.721225
  C      -1.635979      1.763751      7.629896
  S      -0.724429      0.339721      6.949495
  C      -1.786182     -0.983387      7.616325
  O      -1.039380      0.363386      5.435872
  H      -2.674814      1.718583      7.291595
  H      -1.572668      1.729209      8.721783
  H      -1.147689      2.668495      7.260551
  H      -1.399350     -1.931332      7.235535
  H      -1.719240     -0.968209      8.708377
  H      -2.813755     -0.820562      7.279823
21
Coordinates from ORCA-job DMSO_m1_shell2_cation_opt E -1113.713563630478
  C      -1.247881      0.309224     -0.503670
  S      -0.205966     -0.632682      0.658051
  C       1.414943     -0.232071     -0.072856
  O      -0.248257      0.184271      1.970190
  H      -0.925360      1.354032     -0.508268
  H      -1.156396     -0.138321     -1.498016
  H      -2.279416      0.223795     -0.154156
  H       2.177305     -0.690276      0.561372
  H       1.462889     -0.660726     -1.078443
  H       1.534726      0.854518     -0.099422
  Li     -0.558249      0.329868      3.720592
  C      -1.621670      1.763365      7.631670
  S      -0.723301      0.331398      6.949982
  C      -1.799363     -0.981815      7.613693
  O      -1.036176      0.360768      5.436216
  H      -2.660597      1.728498      7.292413
  H      -1.559657      1.727476      8.723583
  H      -1.124213      2.663566      7.263379
  H      -1.422392     -1.932947      7.230865
  H      -1.732357     -0.969868      8.705816
  H      -2.825169     -0.807505      7.277505
21
Coordinates from ORCA-job DMSO_m1_shell2_cation_opt E -1113.713568232766
  C      -1.252373      0.278086     -0.505514
  S      -0.192312     -0.636656      0.661982
  C       1.420355     -0.201272     -0.067805
  O      -0.256645      0.184401      1.970459
  H      -0.950664      1.329045     -0.515574
  H      -1.152680     -0.172809     -1.497525
  H      -2.281988      0.174637     -0.155103
  H       2.192336     -0.636993      0.570752
  H       1.481565     -0.634964     -1.070559
  H       1.514491      0.887684     -0.100587
  Li     -0.565623      0.329378      3.718848
  C      -1.590042      1.760727      7.637848
  S      -0.723022      0.313379      6.947273
  C      -1.828042     -0.978716      7.605313
  O      -1.037531      0.359066      5.434427
  H      -2.629787      1.748654      7.299583
  H      -1.527365      1.719765      8.729494
  H      -1.074359      2.651507      7.271638
  H      -1.474866     -1.935858      7.214658
  H      -1.757514     -0.976359      8.697318
  H      -2.850491     -0.778134      7.273568
21
Coordinates from ORCA-job DMSO_m1_shell2_cation_opt E -1113.713571218586
  C      -1.253118      0.268040     -0.507918
  S      -0.189007     -0.635928      0.664210
  C       1.422018     -0.192837     -0.064775
  O      -0.260745      0.189819      1.969410
  H      -0.957686      1.320732     -0.521119
  H      -1.149285     -0.185827     -1.498130
  H      -2.282599      0.160002     -0.158580
  H       2.196155     -0.619965      0.576948
  H       1.487967     -0.630726     -1.065389
  H       1.508575      0.896593     -0.102151
  Li     -0.571724      0.333885      3.717230
  C      -1.579623      1.759413      7.641132
  S      -0.724005      0.308061      6.944727
  C      -1.835830     -0.978336      7.602467
  O      -1.042983      0.360067      5.432915
  H      -2.620206      1.754667      7.305343
  H      -1.514415      1.715592      8.732488
  H      -1.059346      2.647669      7.275339
  H      -1.490727     -1.936825      7.207913
  H      -1.762196     -0.979791      8.694248
  H      -2.857780     -0.769737      7.274187
21
Coordinates from ORCA-job DMSO_m1_shell2_cation_opt E -1113.713578749486
  C      -1.252694      0.247925     -0.519693
  S      -0.186048     -0.631120      0.668443
  C       1.425054     -0.177303     -0.053861
  O      -0.276969      0.208094      1.964118
  H      -0.970435      1.304119     -0.539239
  H      -1.134236     -0.213411     -1.504763
  H      -2.283707      0.130713     -0.178193
  H       2.200394     -0.585609      0.598448
  H       1.503577     -0.627045     -1.048240
  H       1.497954      0.912610     -0.103879
  Li     -0.597103      0.350583      3.710636
  C      -1.556339      1.755835      7.649396
  S      -0.727569      0.297038      6.936521
  C      -1.848616     -0.978688      7.598997
  O      -1.063553      0.362170      5.428499
  H      -2.599836      1.766295      7.322980
  H      -1.481569      1.704717      8.739762
  H      -1.028609      2.639445      7.283209
  H      -1.520932     -1.939673      7.195838
  H      -1.764518     -0.987087      8.689918
  H      -2.870805     -0.755040      7.281600
21
Coordinates from ORCA-job DMSO_m1_shell2_cation_opt E -1113.713582005650
  C      -1.251847      0.234199     -0.529858
  S      -0.184440     -0.628975      0.668946
  C       1.426768     -0.165315     -0.046472
  O      -0.290116      0.215970      1.959886
  H      -0.979905      1.293082     -0.551870
  H      -1.121791     -0.230048     -1.512099
  H      -2.283992      0.108230     -0.194963
  H       2.201845     -0.563761      0.612177
  H       1.514407     -0.619398     -1.038100
  H       1.490902      0.924912     -0.101594
  Li     -0.615600      0.358832      3.705964
  C      -1.540025      1.753439      7.655106
  S      -0.729711      0.289194      6.932357
  C      -1.857963     -0.978093      7.598422
  O      -1.075131      0.361603      5.426684
  H      -2.585282      1.774859      7.334808
  H      -1.459454      1.697665      8.744832
  H      -1.006257      2.633411      7.288928
  H      -1.541332     -1.941060      7.191240
  H      -1.767752     -0.989607      8.688806
  H      -2.879881     -0.744572      7.287295
21
Coordinates from ORCA-job DMSO_m1_shell2_cation_opt E -1113.713584184030
  C      -1.249442      0.236676     -0.538413
  S      -0.190013     -0.626894      0.667272
  C       1.425760     -0.168144     -0.040714
  O      -0.300250      0.219826      1.956700
  H      -0.976720      1.295423     -0.558629
  H      -1.113256     -0.227427     -1.519884
  H      -2.283766      0.110982     -0.210134
  H       2.196061     -0.567133      0.623212
  H       1.517563     -0.624793     -1.030795
  H       1.492824      0.921781     -0.098193
  Li     -0.630000      0.364244      3.702552
  C      -1.539503      1.753107      7.656475
  S      -0.730379      0.290094      6.929874
  C      -1.853075     -0.979129      7.601351
  O      -1.082788      0.360811      5.425726
  H      -2.586377      1.773238      7.341279
  H      -1.453675      1.697358      8.745819
  H      -1.008563      2.633882      7.288058
  H      -1.535360     -1.941625      7.193891
  H      -1.758928     -0.989322      8.691418
  H      -2.876672     -0.748387      7.293631
21
Coordinates from ORCA-job DMSO_m1_shell2_cation_opt E -1113.713585563921
  C      -1.246378      0.239084     -0.548606
  S      -0.197584     -0.624259      0.666720
  C       1.423893     -0.172618     -0.032696
  O      -0.313367      0.226516      1.952990
  H      -0.971631      1.297331     -0.568399
  H      -1.103529     -0.226563     -1.528408
  H      -2.283350      0.115270     -0.227967
  H       2.188128     -0.571349      0.638396
  H       1.521094     -0.633846     -1.020145
  H       1.494667      0.916823     -0.094688
  Li     -0.646031      0.372822      3.698649
  C      -1.539590      1.752418      7.659964
  S      -0.730749      0.292928      6.925976
  C      -1.846252     -0.980232      7.601869
  O      -1.091666      0.364200      5.423906
  H      -2.588644      1.770418      7.351915
  H      -1.446389      1.695251      8.748657
  H      -1.013166      2.635186      7.289740
  H      -1.527210     -1.941169      7.191733
  H      -1.746732     -0.991318      8.691464
  H      -2.872070     -0.752325      7.299426
21
Coordinates from ORCA-job DMSO_m1_shell2_cation_opt E -1113.713586510861
  C      -1.242475      0.255003     -0.554765
  S      -0.210272     -0.620413      0.666309
  C       1.419994     -0.190852     -0.026847
  O      -0.320606      0.233792      1.950806
  H      -0.955008      1.309879     -0.572974
  H      -1.099927     -0.212163     -1.533884
  H      -2.282517      0.143295     -0.239684
  H       2.175629     -0.596801      0.649658
  H       1.516511     -0.656790     -1.012152
  H       1.504542      0.897380     -0.092415
  Li     -0.655871      0.381318      3.696282
  C      -1.553968      1.753297      7.659660
  S      -0.730390      0.303672      6.922590
  C      -1.827034     -0.983071      7.603692
  O      -1.098633      0.369306      5.422030
  H      -2.604910      1.758104      7.357675
  H      -1.453854      1.698156      8.747858
  H      -1.040509      2.642278      7.286077
  H      -1.497179     -1.939973      7.192637
  H      -1.723285     -0.992496      8.692908
  H      -2.856797     -0.768354      7.305035
21
Coordinates from ORCA-job DMSO_m1_shell2_cation_opt E -1113.713587433558
  C      -1.237906      0.281960     -0.555039
  S      -0.224667     -0.616251      0.665493
  C       1.414632     -0.219001     -0.025995
  O      -0.318541      0.238553      1.950914
  H      -0.929434      1.330900     -0.570606
  H      -1.103565     -0.185790     -1.535045
  H      -2.280317      0.190138     -0.241414
  H       2.161111     -0.639708      0.651672
  H       1.503274     -0.687062     -1.011040
  H       1.520712      0.867315     -0.091868
  Li     -0.656746      0.386379      3.696167
  C      -1.580601      1.755140      7.654740
  S      -0.729769      0.319745      6.920890
  C      -1.799580     -0.986322      7.608115
  O      -1.101785      0.372883      5.420769
  H      -2.632456      1.737756      7.356536
  H      -1.475623      1.706144      8.742794
  H      -1.086233      2.652842      7.276286
  H      -1.451497     -1.937650      7.199147
  H      -1.693650     -0.990588      8.697151
  H      -2.833918     -0.792813      7.310828
21
Coordinates from ORCA-job DMSO_m1_shell2_cation_opt E -1113.713587525778
  C      -1.240370      0.269071     -0.552415
  S      -0.216072     -0.617906      0.666944
  C       1.417784     -0.205590     -0.028399
  O      -0.315435      0.237410      1.951646
  H      -0.940971      1.320576     -0.571429
  H      -1.105072     -0.199946     -1.531680
  H      -2.280997      0.169201     -0.235344
  H       2.170037     -0.619717      0.646919
  H       1.508115     -0.672162     -1.013998
  H       1.513691      0.881709     -0.093805
  Li     -0.653476      0.384029      3.696850
  C      -1.568781      1.754148      7.656326
  S      -0.730589      0.311832      6.921458
  C      -1.813522     -0.984805      7.606011
  O      -1.100562      0.370760      5.421050
  H      -2.620297      1.746858      7.356518
  H      -1.465877      1.702581      8.744452
  H      -1.065648      2.647767      7.279803
  H      -1.474697     -1.938954      7.195869
  H      -1.708033     -0.991616      8.695080
  H      -2.845785     -0.780678      7.308638
21
Coordinates from ORCA-job DMSO_m1_shell2_cation_opt E -1113.713587803536
  C      -1.239567      0.272923     -0.552321
  S      -0.217965     -0.616739      0.667244
  C       1.417150     -0.209965     -0.028343
  O      -0.314522      0.239465      1.951612
  H      -0.936438      1.323330     -0.572451
  H      -1.106434     -0.197530     -1.531194
  H      -2.280392      0.177124     -0.234662
  H       2.168319     -0.626664      0.646584
  H       1.505623     -0.676586     -1.014086
  H       1.516633      0.877027     -0.093542
  Li     -0.653828      0.385797      3.696721
  C      -1.572915      1.754249      7.655704
  S      -0.730834      0.314252      6.920755
  C      -1.809365     -0.985400      7.606606
  O      -1.102001      0.371658      5.420565
  H      -2.624678      1.743451      7.356891
  H      -1.468829      1.703365      8.743752
  H      -1.073038      2.649350      7.278396
  H      -1.468294     -1.938709      7.196396
  H      -1.702666     -0.991568      8.695561
  H      -2.842516     -0.784259      7.310306
