21
Coordinates from ORCA-job DMSO_m1_shell2_cation_opt E -1113.713587803536
  C          -1.23956676056008      0.27292294818573     -0.55232126242583
  S          -0.21796457497240     -0.61673922607045      0.66724430648069
  C           1.41715023594697     -0.20996520137084     -0.02834345022522
  O          -0.31452213461717      0.23946514632727      1.95161205740467
  H          -0.93643789607000      1.32333033956685     -0.57245058618247
  H          -1.10643433576186     -0.19752987679475     -1.53119390663438
  H          -2.28039157620218      0.17712362303532     -0.23466238985800
  H           2.16831868010978     -0.62666433414163      0.64658398715780
  H           1.50562260517641     -0.67658633760095     -1.01408590660058
  H           1.51663271026366      0.87702685553384     -0.09354196904831
  Li         -0.65382774057511      0.38579682936531      3.69672142966892
  C          -1.57291512157825      1.75424928128657      7.65570443235555
  S          -0.73083419434644      0.31425167795668      6.92075528774363
  C          -1.80936523871729     -0.98540048685488      7.60660568703466
  O          -1.10200120717689      0.37165754249234      5.42056462008565
  H          -2.62467802957767      1.74345070073612      7.35689091199426
  H          -1.46882924769939      1.70336485848099      8.74375225644783
  H          -1.07303834476713      2.64935018797264      7.27839555270945
  H          -1.46829368952990     -1.93870920910390      7.19639613304145
  H          -1.70266617154928     -0.99156839962773      8.69556142706008
  H          -2.84251603959573     -0.78425914857456      7.31030634808997
