10
DMSO_cation_cpcm_1000
C           -1.33374504307499        0.21516690924637       -0.27666588172224
S           -0.15148011071717       -0.51993229936221        0.94271606028250
C            1.33115614008537       -0.32829750912279       -0.14819150851607
O            0.00019514619076        0.47442906053784        2.00285380171932
H           -1.00954440799791        1.21652982199031       -0.53711739278479
H           -1.37423971052005       -0.42342801929923       -1.15132802121852
H           -2.30862473781801        0.25884773339048        0.19815989973052
H            2.19722677711428       -0.66005135703836        0.41538538769754
H            1.19952397334521       -0.94830503618208       -1.02724829893897
H            1.44953196339251        0.71504069583967       -0.41856404624928
