13
 energy: -23.972716315450 gnorm: 0.000714099725 xtb: 6.7.1pre (5071a88)
C            1.65102050828479       -0.32561318467342        0.18086054996153
C            0.12604871963582       -0.43345230811072        0.22311002114827
C           -0.57300860109252        0.95162991430809        0.36542981259117
O           -1.35843577019341        1.08956243563053       -0.77003175825045
C           -1.62721707487883       -0.26597818559911       -1.28228524078317
O           -2.72534212507046       -0.82854527849677       -1.00998369655295
O           -0.36493568362811       -0.95385626125257       -0.97223381824868
H            2.02815299096913        0.08109449969321        1.11899871810759
H            1.94619977463309        0.32310853026926       -0.64075812850161
H            2.08298020455124       -1.31099897896285        0.01758676844592
H           -0.16313168474038       -1.07974650929436        1.07620143168941
H            0.15960695341918        1.77290615177731        0.40584338669987
H           -1.18193820188954        0.97988918471136        1.28726194369305
