16
 energy: -21.846162571467 gnorm: 0.000723695580 xtb: 6.7.1pre (5071a88)
C            2.46451277880519        0.81288749626052       -0.50263000935500
O            1.39426830758924        0.09607657894379       -1.01989952252559
C            0.51119486784377       -0.41365975189495        0.04802687355801
C           -0.62452227491039       -1.19077029581266       -0.45249398301422
O           -1.72849334901809       -0.58534056321764       -1.03559843173968
C           -2.34243828783155        0.39047890632268       -0.23243684519440
H            3.06546035950058        1.16952074981327       -1.34307690890064
H            2.12718365379231        1.67954633589840        0.08930084869871
H            3.09510903179658        0.18764762152127        0.14999616988104
H            0.17591194275225        0.44969667853541        0.63061152118423
H            1.12291114446795       -1.05073469784977        0.69674412242027
H           -0.42889419012672       -2.14544501938352       -0.91642245508570
H           -1.31344189883484       -1.30690635823801        1.82132646692754
H           -2.31044178530132        0.04735851084847        0.80960758383654
H           -1.83487343814341        1.36242195319093       -0.31414444873946
H           -3.37344685238141        0.49722185506182       -0.57892583195157
