16
 energy: -21.283851942100 gnorm: 0.000439457284 xtb: 6.7.1pre (5071a88)
C            2.43166819260999        0.50977293210488       -0.65763735807805
O            1.25795756966511        0.89647888958111       -0.00633451466533
C            0.54697145435529       -0.01615643738083        0.70074686310583
C           -0.44191358453354       -0.88208632001019       -0.24027068367255
O           -1.34234211817916       -0.10374231898043       -0.88967740569029
C           -2.52342338945023        0.27746408639261       -0.24847913279054
H            2.21994562460548        0.31970760247099       -1.72028661703606
H            3.11439404562602        1.36441702236480       -0.62458896727144
H            2.89614611424440       -0.37261015311007       -0.21028082694935
H           -0.09243691102977        0.52952158462486        1.40218531178742
H            1.17065101916146       -0.76009360028134        1.21277946588246
H            0.19138826779220       -1.36078422605390       -0.99450688579972
H           -0.89956831846916       -1.61793387735707        0.43329699371077
H           -2.81811183714476       -0.41275502285740        0.54594336732559
H           -2.41090933064012        1.29107567205477        0.16345698802073
H           -3.30041678861348        0.33772416643694       -1.01636144787958
