16

C   2.43777868  0.77240989 -0.59125725
O   1.32242758 -0.05567150 -0.88715796
C   0.55588010 -0.35317090  0.28266386
C  -0.65309521 -1.21576823 -0.09344211
O  -1.61647735 -0.53239953 -0.90207760
C  -2.39256003  0.41624915 -0.18660597
H   2.98650334  0.95618753 -1.51881187
H   2.10501160  1.73296632 -0.18633508
H   3.10661404  0.27567582  0.11815963
H   0.24087375  0.58240637  0.75462313
H   1.18791832 -0.90925209  0.98428178
H  -0.31095859 -2.07225940 -0.68429580
H  -1.14331142 -1.60555903  0.80583905
H  -2.87795050 -0.04965444  0.67625695
H  -1.77947486  1.26198377  0.13457398
H  -3.16917944  0.79585627 -0.85642959
