15
Coordinates from ORCA-job EMC_anion_cpcm_40_default E -382.845389231214
  C      -2.295011      0.527875      0.543211
  C      -1.508848     -0.770918      0.642061
  O      -0.123641     -0.527855      0.905730
  C       0.635622     -0.235481     -0.146661
  O       0.276990     -0.190628     -1.289389
  O       1.881442     -0.010724      0.278583
  C       2.828783      0.291902     -0.737117
  H      -1.953084      1.105128     -0.312311
  H      -3.350833      0.305160      0.418014
  H      -2.159851      1.117971      1.446411
  H      -1.847705     -1.374003      1.486418
  H      -1.600226     -1.342289     -0.287264
  H       2.916029     -0.540122     -1.438628
  H       2.528899      1.186371     -1.286595
  H       3.771435      0.457613     -0.222463
15
Coordinates from ORCA-job EMC_anion_cpcm_40_default E -382.869307548618
  C      -2.236214      0.556296      0.530784
  C      -1.537511     -0.789385      0.654778
  O      -0.128369     -0.633325      0.898617
  C       0.650003     -0.422793     -0.178999
  O       0.260101     -0.247131     -1.317921
  O       1.875105     -0.085479      0.273839
  C       2.805036      0.344973     -0.725096
  H      -1.868865      1.092615     -0.345893
  H      -3.312538      0.400268      0.422315
  H      -2.054110      1.164375      1.419679
  H      -1.906896     -1.346515      1.519111
  H      -1.680093     -1.385505     -0.255340
  H       2.979636     -0.457953     -1.452549
  H       2.429873      1.227774     -1.251957
  H       3.724842      0.581785     -0.191369
15
Coordinates from ORCA-job EMC_anion_cpcm_40_default E -382.892562204006
  C      -2.176155      0.578744      0.516829
  C      -1.550488     -0.799827      0.666299
  O      -0.131769     -0.731663      0.894154
  C       0.664360     -0.594669     -0.219380
  O       0.235079     -0.276974     -1.345118
  O       1.873237     -0.150805      0.270603
  C       2.768850      0.387796     -0.706988
  H      -1.787455      1.075669     -0.374872
  H      -3.263825      0.482623      0.419688
  H      -1.954448      1.197254      1.391077
  H      -1.946904     -1.313559      1.546945
  H      -1.739879     -1.411058     -0.227336
  H       3.021929     -0.383605     -1.450844
  H       2.326283      1.246698     -1.222088
  H       3.661188      0.693376     -0.158969
15
Coordinates from ORCA-job EMC_anion_cpcm_40_default E -382.902144634978
  C      -2.160325      0.586558      0.515626
  C      -1.563549     -0.803482      0.676506
  O      -0.145803     -0.779094      0.903648
  C       0.674974     -0.681570     -0.250293
  O       0.218397     -0.284070     -1.379737
  O       1.895383     -0.173295      0.271162
  C       2.768664      0.406438     -0.699960
  H      -1.759217      1.069056     -0.378958
  H      -3.252006      0.516829      0.417958
  H      -1.927872      1.208236      1.386739
  H      -1.979289     -1.296014      1.562597
  H      -1.777750     -1.420984     -0.208118
  H       3.062478     -0.347734     -1.447985
  H       2.297262      1.249104     -1.218083
  H       3.648652      0.750022     -0.151102
15
Coordinates from ORCA-job EMC_anion_cpcm_40_default E -382.904574141607
  C      -2.120056      0.599263      0.514141
  C      -1.552751     -0.804084      0.665285
  O      -0.142161     -0.811347      0.910069
  C       0.688878     -0.776563     -0.259587
  O       0.210537     -0.293412     -1.344246
  O       1.875529     -0.174018      0.282833
  C       2.727785      0.414491     -0.696252
  H      -1.693836      1.088243     -0.364802
  H      -3.209522      0.553453      0.398457
  H      -1.893087      1.203261      1.399296
  H      -1.996775     -1.294988      1.539750
  H      -1.778729     -1.408802     -0.224169
  H       3.080079     -0.335997     -1.418746
  H       2.221300      1.214829     -1.248863
  H       3.582810      0.825671     -0.153168
15
Coordinates from ORCA-job EMC_anion_cpcm_40_default E -382.905563147039
  C      -2.188706      0.586270      0.545098
  C      -1.559810     -0.794499      0.661279
  O      -0.152073     -0.749346      0.912728
  C       0.691976     -0.709051     -0.264414
  O       0.216216     -0.245321     -1.361418
  O       1.893181     -0.102690      0.278114
  C       2.789553      0.386991     -0.713919
  H      -1.778890      1.120539     -0.315312
  H      -3.275534      0.496206      0.420220
  H      -1.996485      1.174192      1.449736
  H      -1.991245     -1.325804      1.519612
  H      -1.761116     -1.386932     -0.242605
  H       3.133181     -0.420512     -1.379467
  H       2.330455      1.169050     -1.331005
  H       3.649299      0.800908     -0.178647
15
Coordinates from ORCA-job EMC_anion_cpcm_40_default E -382.906269504974
  C      -2.250116      0.564589      0.571405
  C      -1.555690     -0.786836      0.657280
  O      -0.154862     -0.673418      0.910765
  C       0.685732     -0.616183     -0.278376
  O       0.206505     -0.146563     -1.363371
  O       1.895756     -0.012321      0.270442
  C       2.841083      0.349625     -0.726615
  H      -1.863743      1.141335     -0.273108
  H      -3.331017      0.425813      0.439534
  H      -2.091359      1.138552      1.491323
  H      -1.967609     -1.359999      1.499225
  H      -1.728920     -1.366050     -0.260420
  H       3.160286     -0.522295     -1.321028
  H       2.443143      1.106181     -1.414751
  H       3.710810      0.757570     -0.202303
15
Coordinates from ORCA-job EMC_anion_cpcm_40_default E -382.906767326876
  C      -2.350563      0.522029      0.617243
  C      -1.533525     -0.762477      0.643737
  O      -0.149404     -0.524399      0.887156
  C       0.674744     -0.450873     -0.322663
  O       0.189178      0.032738     -1.383622
  O       1.890530      0.152241      0.237961
  C       2.913101      0.279165     -0.734856
  H      -2.031318      1.167049     -0.205525
  H      -3.416035      0.290913      0.490341
  H      -2.234490      1.071992      1.557862
  H      -1.888703     -1.405335      1.461677
  H      -1.666376     -1.318341     -0.295043
  H       3.171866     -0.693138     -1.187756
  H       2.632693      0.968000     -1.543233
  H       3.798304      0.670436     -0.223279
15
Coordinates from ORCA-job EMC_anion_cpcm_40_default E -382.906866997241
  C      -2.333667      0.527217      0.605605
  C      -1.535331     -0.768027      0.648861
  O      -0.147680     -0.545656      0.893587
  C       0.674488     -0.474483     -0.312001
  O       0.189513      0.016795     -1.372589
  O       1.889665      0.119992      0.247383
  C       2.900029      0.289455     -0.734128
  H      -2.003165      1.156887     -0.225080
  H      -3.401882      0.310033      0.478903
  H      -2.210188      1.087173      1.539317
  H      -1.899306     -1.397649      1.472793
  H      -1.670446     -1.330353     -0.285741
  H       3.158655     -0.665847     -1.220303
  H       2.602002      1.001331     -1.515945
  H       3.787313      0.673132     -0.220660
15
Coordinates from ORCA-job EMC_anion_cpcm_40_default E -382.906930141250
  C      -2.335877      0.523530      0.599986
  C      -1.531201     -0.766970      0.652284
  O      -0.143688     -0.534485      0.896116
  C       0.673564     -0.468103     -0.307156
  O       0.190328      0.035633     -1.365122
  O       1.890899      0.111304      0.251505
  C       2.898019      0.286134     -0.734490
  H      -2.008740      1.147600     -0.236417
  H      -3.403083      0.300948      0.475437
  H      -2.212776      1.091877      1.528641
  H      -1.890644     -1.393965      1.479707
  H      -1.659612     -1.334056     -0.280430
  H       3.136298     -0.664988     -1.237700
  H       2.603053      1.015642     -1.501221
  H       3.793461      0.649900     -0.221139
15
Coordinates from ORCA-job EMC_anion_cpcm_40_default E -382.906966752167
  C      -2.351746      0.514500      0.599262
  C      -1.525226     -0.761663      0.654690
  O      -0.140814     -0.503476      0.895933
  C       0.672224     -0.442528     -0.306678
  O       0.192146      0.075566     -1.361476
  O       1.895804      0.117162      0.250963
  C       2.905749      0.274133     -0.736407
  H      -2.037056      1.139861     -0.240936
  H      -3.415399      0.274039      0.478224
  H      -2.234916      1.089258      1.524754
  H      -1.872116     -1.392627      1.484255
  H      -1.642587     -1.332789     -0.276951
  H       3.115769     -0.680015     -1.245804
  H       2.627198      1.016407     -1.496929
  H       3.810970      0.612173     -0.222901
15
Coordinates from ORCA-job EMC_anion_cpcm_40_default E -382.906986903949
  C      -2.366905      0.507620      0.600387
  C      -1.521264     -0.755907      0.656037
  O      -0.140366     -0.476223      0.895216
  C       0.671838     -0.422233     -0.306993
  O       0.195863      0.104275     -1.361301
  O       1.902056      0.121478      0.249052
  C       2.914047      0.263877     -0.738568
  H      -2.062892      1.136211     -0.241234
  H      -3.427091      0.251126      0.481618
  H      -2.257029      1.085385      1.524813
  H      -1.857509     -1.391110      1.486817
  H      -1.630259     -1.330154     -0.274652
  H       3.105887     -0.692139     -1.251567
  H       2.648426      1.014105     -1.495678
  H       3.825200      0.583690     -0.223948
15
Coordinates from ORCA-job EMC_anion_cpcm_40_default E -382.907002657257
  C      -2.386850      0.499029      0.602039
  C      -1.516310     -0.747475      0.658060
  O      -0.140968     -0.439511      0.894184
  C       0.671253     -0.397125     -0.307854
  O       0.202445      0.139832     -1.361689
  O       1.911487      0.123154      0.246255
  C       2.924847      0.250340     -0.741537
  H      -2.096596      1.132437     -0.240826
  H      -3.441881      0.220961      0.485612
  H      -2.287424      1.079871      1.525653
  H      -1.839045     -1.388006      1.490393
  H      -1.614880     -1.326147     -0.270985
  H       3.097225     -0.706042     -1.260826
  H       2.674264      1.010692     -1.493512
  H       3.842434      0.547991     -0.224969
15
Coordinates from ORCA-job EMC_anion_cpcm_40_default E -382.907009835189
  C      -2.390037      0.498600      0.602171
  C      -1.516010     -0.745511      0.658820
  O      -0.141798     -0.433407      0.894489
  C       0.671444     -0.396359     -0.307746
  O       0.205553      0.141675     -1.362135
  O       1.914653      0.117698      0.246095
  C       2.926451      0.248703     -0.742247
  H      -2.101207      1.132989     -0.240414
  H      -3.444157      0.217173      0.485373
  H      -2.293146      1.079553      1.525976
  H      -1.837517     -1.386539      1.491391
  H      -1.613367     -1.325420     -0.269615
  H       3.099999     -0.705410     -1.265488
  H       2.674768      1.011485     -1.491381
  H       3.844371      0.544767     -0.225289
15
Coordinates from ORCA-job EMC_anion_cpcm_40_default E -382.907019331925
  C      -2.405036      0.493832      0.600898
  C      -1.512385     -0.736781      0.663620
  O      -0.143782     -0.401472      0.895779
  C       0.670856     -0.386044     -0.307705
  O       0.218434      0.164065     -1.361034
  O       1.927447      0.093795      0.246348
  C       2.932867      0.238930     -0.744969
  H      -2.125103      1.129835     -0.243568
  H      -3.454439      0.195039      0.484555
  H      -2.318948      1.079308      1.522901
  H      -1.825920     -1.379099      1.498665
  H      -1.601862     -1.323450     -0.261445
  H       3.101877     -0.704607     -1.288873
  H       2.680779      1.017031     -1.478023
  H       3.855215      0.519617     -0.227148
15
Coordinates from ORCA-job EMC_anion_cpcm_40_default E -382.907022700688
  C      -2.396608      0.497321      0.600288
  C      -1.514502     -0.740910      0.662513
  O      -0.143077     -0.417854      0.896640
  C       0.671228     -0.395946     -0.307109
  O       0.214789      0.150140     -1.360228
  O       1.923373      0.095240      0.247846
  C       2.928484      0.244680     -0.743732
  H      -2.110877      1.131245     -0.243803
  H      -3.448579      0.208149      0.483102
  H      -2.305399      1.081778      1.522475
  H      -1.833865     -1.381416      1.496548
  H      -1.608072     -1.325097     -0.263760
  H       3.104249     -0.700062     -1.283291
  H       2.670302      1.017577     -1.480148
  H       3.848555      0.535156     -0.227340
15
Coordinates from ORCA-job EMC_anion_cpcm_40_default E -382.907023591641
  C      -2.395959      0.497478      0.599550
  C      -1.514476     -0.741128      0.663073
  O      -0.142901     -0.418459      0.897353
  C       0.671078     -0.397110     -0.306875
  O       0.215415      0.150663     -1.359190
  O       1.923909      0.091570      0.248737
  C       2.927809      0.244943     -0.743691
  H      -2.109748      1.130316     -0.245221
  H      -3.448122      0.209027      0.482434
  H      -2.304293      1.082998      1.521019
  H      -1.834419     -1.380981      1.497330
  H      -1.607877     -1.325608     -0.263066
  H       3.104044     -0.698458     -1.285409
  H       2.667452      1.018954     -1.478115
  H       3.848088      0.535795     -0.227929
