15
Coordinates from ORCA-job EMC_anion_cpcm_1000_default E -382.848943159047
  C      -2.295011      0.527875      0.543211
  C      -1.508848     -0.770918      0.642061
  O      -0.123641     -0.527855      0.905730
  C       0.635622     -0.235481     -0.146661
  O       0.276990     -0.190628     -1.289389
  O       1.881442     -0.010724      0.278583
  C       2.828783      0.291902     -0.737117
  H      -1.953084      1.105128     -0.312311
  H      -3.350833      0.305160      0.418014
  H      -2.159851      1.117971      1.446411
  H      -1.847705     -1.374003      1.486418
  H      -1.600226     -1.342289     -0.287264
  H       2.916029     -0.540122     -1.438628
  H       2.528899      1.186371     -1.286595
  H       3.771435      0.457613     -0.222463
15
Coordinates from ORCA-job EMC_anion_cpcm_1000_default E -382.872041220509
  C      -2.235296      0.556767      0.530735
  C      -1.538029     -0.789534      0.654606
  O      -0.128278     -0.634138      0.897832
  C       0.650066     -0.424868     -0.179308
  O       0.260797     -0.251135     -1.318286
  O       1.874255     -0.086339      0.273480
  C       2.804522      0.345778     -0.724893
  H      -1.868062      1.092741     -0.346281
  H      -3.311759      0.401690      0.422994
  H      -2.052082      1.164776      1.419514
  H      -1.907463     -1.345986      1.519331
  H      -1.681973     -1.385776     -0.255102
  H       2.980817     -0.455857     -1.453128
  H       2.428744      1.228711     -1.251029
  H       3.723741      0.583171     -0.190465
15
Coordinates from ORCA-job EMC_anion_cpcm_1000_default E -382.895213870091
  C      -2.175338      0.579218      0.516806
  C      -1.551110     -0.799898      0.666048
  O      -0.131638     -0.732404      0.893196
  C       0.664636     -0.596774     -0.219575
  O       0.236084     -0.281058     -1.345581
  O       1.872467     -0.151661      0.270165
  C       2.768406      0.388578     -0.706827
  H      -1.787072      1.075982     -0.375209
  H      -3.263030      0.483955      0.420553
  H      -1.952513      1.197565      1.390900
  H      -1.947334     -1.312966      1.547081
  H      -1.741854     -1.411261     -0.227052
  H       3.023120     -0.381464     -1.451278
  H       2.325166      1.247511     -1.221183
  H       3.660010      0.694678     -0.158044
15
Coordinates from ORCA-job EMC_anion_cpcm_1000_default E -382.904822557104
  C      -2.160823      0.586905      0.516040
  C      -1.564598     -0.803329      0.676425
  O      -0.145925     -0.779295      0.902433
  C       0.675419     -0.682884     -0.250772
  O       0.219638     -0.288126     -1.381711
  O       1.895323     -0.173767      0.270367
  C       2.769580      0.407112     -0.699959
  H      -1.760946      1.069677     -0.378959
  H      -3.252534      0.517353      0.419663
  H      -1.927376      1.208509      1.386908
  H      -1.979469     -1.295435      1.563015
  H      -1.779936     -1.421137     -0.207597
  H       3.064576     -0.346258     -1.448205
  H       2.298258      1.250032     -1.217594
  H       3.648812      0.750643     -0.150056
15
Coordinates from ORCA-job EMC_anion_cpcm_1000_default E -382.907246263569
  C      -2.119921      0.599757      0.514449
  C      -1.553561     -0.803879      0.665071
  O      -0.142177     -0.812119      0.908965
  C       0.689403     -0.778611     -0.259737
  O       0.211517     -0.297849     -1.346103
  O       1.875213     -0.174777      0.282164
  C       2.728034      0.415359     -0.696195
  H      -1.694710      1.089056     -0.364848
  H      -3.209443      0.554381      0.399847
  H      -1.892035      1.203561      1.399479
  H      -1.996913     -1.294371      1.539957
  H      -1.780505     -1.408803     -0.223907
  H       3.081615     -0.334305     -1.418751
  H       2.221343      1.215808     -1.248326
  H       3.582140      0.826793     -0.152065
15
Coordinates from ORCA-job EMC_anion_cpcm_1000_default E -382.908241534381
  C      -2.188399      0.586672      0.545170
  C      -1.560627     -0.794438      0.661118
  O      -0.151989     -0.750175      0.911602
  C       0.692330     -0.710596     -0.264323
  O       0.217070     -0.249073     -1.362665
  O       1.892736     -0.103628      0.277452
  C       2.789727      0.387814     -0.713933
  H      -1.779637      1.121029     -0.315720
  H      -3.275277      0.497036      0.421409
  H      -1.995255      1.174640      1.449543
  H      -1.991315     -1.325115      1.520023
  H      -1.762841     -1.387342     -0.242137
  H       3.134286     -0.418837     -1.379815
  H       2.330505      1.170375     -1.330137
  H       3.648686      0.801639     -0.177587
15
Coordinates from ORCA-job EMC_anion_cpcm_1000_default E -382.908973620228
  C      -2.252504      0.564511      0.572944
  C      -1.556433     -0.786011      0.656581
  O      -0.154857     -0.671238      0.909150
  C       0.686433     -0.615295     -0.278877
  O       0.207924     -0.148738     -1.365710
  O       1.895524     -0.009935      0.269289
  C       2.843349      0.349141     -0.727107
  H      -1.868553      1.143469     -0.271175
  H      -3.333232      0.424092      0.442108
  H      -2.094099      1.137536      1.493484
  H      -1.966603     -1.360342      1.498422
  H      -1.729712     -1.365080     -0.261083
  H       3.163396     -0.524404     -1.318475
  H       2.447273      1.104430     -1.417567
  H       3.712092      0.757863     -0.201984
15
Coordinates from ORCA-job EMC_anion_cpcm_1000_default E -382.909464392405
  C      -2.356444      0.520694      0.621052
  C      -1.533596     -0.759969      0.642023
  O      -0.149447     -0.516563      0.883706
  C       0.675600     -0.445585     -0.325342
  O       0.190714      0.033611     -1.388840
  O       1.890272      0.160493      0.234313
  C       2.917795      0.276402     -0.735271
  H      -2.043254      1.170655     -0.200201
  H      -3.420920      0.284472      0.495899
  H      -2.241645      1.068169      1.563249
  H      -1.884322     -1.406398      1.458977
  H      -1.665732     -1.314554     -0.297474
  H       3.176133     -0.700377     -1.178491
  H       2.643139      0.959346     -1.550493
  H       3.801708      0.669603     -0.223108
15
Coordinates from ORCA-job EMC_anion_cpcm_1000_default E -382.909578802305
  C      -2.337035      0.526526      0.607767
  C      -1.535820     -0.766770      0.648035
  O      -0.147753     -0.541395      0.891308
  C       0.674931     -0.471771     -0.313431
  O       0.190233      0.016777     -1.375756
  O       1.889275      0.124558      0.245047
  C       2.903143      0.288065     -0.734558
  H      -2.010441      1.158892     -0.222501
  H      -3.404778      0.306501      0.482671
  H      -2.213943      1.085414      1.542150
  H      -1.897048     -1.398120      1.471739
  H      -1.670731     -1.328693     -0.286702
  H       3.162030     -0.669815     -1.215233
  H       2.608658      0.996915     -1.520352
  H       3.789279      0.672915     -0.220184
15
Coordinates from ORCA-job EMC_anion_cpcm_1000_default E -382.909643858923
  C      -2.337187      0.523379      0.600873
  C      -1.531936     -0.766568      0.652125
  O      -0.143747     -0.533151      0.894710
  C       0.673756     -0.467503     -0.307809
  O       0.190480      0.034577     -1.366914
  O       1.890575      0.112999      0.250036
  C       2.899719      0.285853     -0.734853
  H      -2.012170      1.148345     -0.235730
  H      -3.404272      0.299789      0.477610
  H      -2.213906      1.091601      1.529567
  H      -1.889955     -1.393696      1.479912
  H      -1.660831     -1.334062     -0.280165
  H       3.138963     -0.666155     -1.235730
  H       2.606379      1.014211     -1.503160
  H       3.794132      0.650380     -0.220473
15
Coordinates from ORCA-job EMC_anion_cpcm_1000_default E -382.909683064404
  C      -2.352855      0.514267      0.599800
  C      -1.525796     -0.761367      0.654750
  O      -0.140687     -0.502273      0.894655
  C       0.672261     -0.441815     -0.307334
  O       0.192107      0.075416     -1.362804
  O       1.895444      0.118380      0.249703
  C       2.907173      0.273835     -0.736704
  H      -2.040123      1.139959     -0.240913
  H      -3.416382      0.272881      0.480144
  H      -2.235739      1.089338      1.525048
  H      -1.871263     -1.392097      1.484905
  H      -1.643673     -1.333230     -0.276288
  H       3.117691     -0.680894     -1.244584
  H       2.630194      1.015601     -1.498190
  H       3.811646      0.611999     -0.222186
15
Coordinates from ORCA-job EMC_anion_cpcm_1000_default E -382.909705820983
  C      -2.369213      0.506883      0.601142
  C      -1.521477     -0.755083      0.656066
  O      -0.140084     -0.472936      0.893621
  C       0.671914     -0.420073     -0.307872
  O       0.196281      0.105994     -1.362939
  O       1.901911      0.123251      0.247656
  C       2.916045      0.262814     -0.738898
  H      -2.068207      1.136041     -0.241165
  H      -3.428973      0.248215      0.484157
  H      -2.259342      1.085156      1.525229
  H      -1.855293     -1.390432      1.487523
  H      -1.630406     -1.330178     -0.274023
  H       3.106920     -0.694085     -1.250336
  H       2.653084      1.012914     -1.496964
  H       3.826843      0.581520     -0.223195
15
Coordinates from ORCA-job EMC_anion_cpcm_1000_default E -382.909723115562
  C      -2.390684      0.497610      0.603188
  C      -1.516148     -0.745943      0.657993
  O      -0.140686     -0.433455      0.892076
  C       0.671374     -0.393013     -0.309061
  O       0.203490      0.143861     -1.363897
  O       1.911640      0.125830      0.244575
  C       2.927659      0.248258     -0.741921
  H      -2.104926      1.132032     -0.240498
  H      -3.444836      0.215720      0.489068
  H      -2.291666      1.079068      1.526425
  H      -1.835154     -1.387163      1.491054
  H      -1.613908     -1.325474     -0.270501
  H       3.097448     -0.709464     -1.259277
  H       2.681200      1.008660     -1.495108
  H       3.845199      0.543472     -0.224114
15
Coordinates from ORCA-job EMC_anion_cpcm_1000_default E -382.909730700325
  C      -2.393826      0.497291      0.603499
  C      -1.515969     -0.743973      0.658606
  O      -0.141601     -0.427548      0.892249
  C       0.671662     -0.392520     -0.308980
  O       0.206689      0.144977     -1.364617
  O       1.914735      0.120591      0.244352
  C       2.929313      0.246728     -0.742611
  H      -2.109575      1.132877     -0.239787
  H      -3.447093      0.212152      0.489036
  H      -2.297226      1.078647      1.527047
  H      -1.833800     -1.385817      1.491784
  H      -1.612610     -1.324531     -0.269395
  H       3.100691     -0.708922     -1.263451
  H       2.681614      1.009152     -1.493339
  H       3.846995      0.540897     -0.224393
15
Coordinates from ORCA-job EMC_anion_cpcm_1000_default E -382.909741768299
  C      -2.407952      0.493006      0.602809
  C      -1.512794     -0.735685      0.662723
  O      -0.143760     -0.397572      0.893127
  C       0.671335     -0.383267     -0.308989
  O       0.219072      0.164578     -1.364201
  O       1.926709      0.098698      0.244487
  C       2.935519      0.237636     -0.745149
  H      -2.132457      1.130617     -0.241950
  H      -3.456791      0.191643      0.488911
  H      -2.321270      1.078086      1.524976
  H      -1.823212     -1.379205      1.497823
  H      -1.602144     -1.321971     -0.262482
  H       3.103821     -0.708695     -1.284117
  H       2.687056      1.013298     -1.481912
  H       3.856867      0.518832     -0.226059
15
Coordinates from ORCA-job EMC_anion_cpcm_1000_default E -382.909744860713
  C      -2.402688      0.495269      0.601786
  C      -1.514023     -0.738112      0.662640
  O      -0.143248     -0.407374      0.894197
  C       0.671536     -0.390363     -0.308390
  O       0.217830      0.156420     -1.362953
  O       1.925039      0.095852      0.246053
  C       2.932468      0.241244     -0.744435
  H      -2.123490      1.130780     -0.243344
  H      -3.453158      0.199863      0.487528
  H      -2.312856      1.080675      1.523472
  H      -1.828356     -1.379943      1.497437
  H      -1.605754     -1.323468     -0.262971
  H       3.105376     -0.704204     -1.283442
  H       2.678580      1.015307     -1.480995
  H       3.852744      0.528054     -0.226584
15
Coordinates from ORCA-job EMC_anion_cpcm_1000_default E -382.909745954439
  C      -2.401088      0.495705      0.600751
  C      -1.514136     -0.738824      0.663256
  O      -0.142922     -0.409705      0.895224
  C       0.671318     -0.392481     -0.308076
  O       0.218123      0.156279     -1.361424
  O       1.925284      0.091586      0.247349
  C       2.931219      0.242053     -0.744263
  H      -2.120804      1.129533     -0.245327
  H      -3.452057      0.202109      0.486636
  H      -2.310115      1.082498      1.521448
  H      -1.829714     -1.379649      1.498267
  H      -1.606011     -1.324337     -0.262285
  H       3.105078     -0.701887     -1.285547
  H       2.674202      1.017081     -1.478643
  H       3.851622      0.530039     -0.227367
15
Coordinates from ORCA-job EMC_anion_cpcm_1000_default E -382.909746107678
  C      -2.401764      0.495213      0.600493
  C      -1.513897     -0.738620      0.663561
  O      -0.142852     -0.408395      0.895440
  C       0.671136     -0.391275     -0.308143
  O       0.218479      0.159095     -1.360849
  O       1.925838      0.090512      0.247576
  C       2.931529      0.241408     -0.744397
  H      -2.122009      1.128635     -0.246075
  H      -3.452579      0.200984      0.486692
  H      -2.310881      1.082753      1.520720
  H      -1.828928     -1.379348      1.498836
  H      -1.605184     -1.324491     -0.261817
  H       3.104300     -0.702203     -1.286563
  H       2.674528      1.017295     -1.477836
  H       3.852285      0.528437     -0.227638
