15
Coordinates from ORCA-job EMC_anion_cpcm_1000_default E -382.909746107678
  C          -2.40176431111766      0.49521333902606      0.60049323056667
  C          -1.51389701722913     -0.73861993186150      0.66356060580600
  O          -0.14285205264159     -0.40839535454254      0.89543951170588
  C           0.67113606202131     -0.39127500529747     -0.30814292608781
  O           0.21847901665676      0.15909516210903     -1.36084867237787
  O           1.92583824667784      0.09051219661124      0.24757621466540
  C           2.93152893377023      0.24140766570479     -0.74439722716071
  H          -2.12200891106390      1.12863506404578     -0.24607473141254
  H          -3.45257938745495      0.20098385206009      0.48669164889242
  H          -2.31088081379789      1.08275324907696      1.52072013488367
  H          -1.82892840758994     -1.37934843130323      1.49883557563498
  H          -1.60518435776964     -1.32449114922119     -0.26181663277597
  H           3.10430015119228     -0.70220284248377     -1.28656251987513
  H           2.67452772958076      1.01729492313415     -1.47783637331808
  H           3.85228509876553      0.52843724294156     -0.22763783914692
