15
Coordinates from ORCA-job EMC_anion_cpcm_200_default E -382.848346527231
  C      -2.295011      0.527875      0.543211
  C      -1.508848     -0.770918      0.642061
  O      -0.123641     -0.527855      0.905730
  C       0.635622     -0.235481     -0.146661
  O       0.276990     -0.190628     -1.289389
  O       1.881442     -0.010724      0.278583
  C       2.828783      0.291902     -0.737117
  H      -1.953084      1.105128     -0.312311
  H      -3.350833      0.305160      0.418014
  H      -2.159851      1.117971      1.446411
  H      -1.847705     -1.374003      1.486418
  H      -1.600226     -1.342289     -0.287264
  H       2.916029     -0.540122     -1.438628
  H       2.528899      1.186371     -1.286595
  H       3.771435      0.457613     -0.222463
15
Coordinates from ORCA-job EMC_anion_cpcm_200_default E -382.871583381319
  C      -2.235447      0.556686      0.530739
  C      -1.537938     -0.789510      0.654634
  O      -0.128291     -0.633999      0.897966
  C       0.650054     -0.424514     -0.179252
  O       0.260676     -0.250444     -1.318215
  O       1.874395     -0.086194      0.273542
  C       2.804603      0.345639     -0.724927
  H      -1.868191      1.092717     -0.346219
  H      -3.311885      0.401448      0.422874
  H      -2.052421      1.164709      1.419537
  H      -1.907365     -1.346076      1.519294
  H      -1.681650     -1.385733     -0.255141
  H       2.980608     -0.456212     -1.453032
  H       2.428928      1.228552     -1.251183
  H       3.723923      0.582931     -0.190619
15
Coordinates from ORCA-job EMC_anion_cpcm_200_default E -382.894771641125
  C      -2.175482      0.579135      0.516810
  C      -1.551005     -0.799886      0.666091
  O      -0.131660     -0.732273      0.893356
  C       0.664588     -0.596411     -0.219545
  O       0.235912     -0.280351     -1.345504
  O       1.872598     -0.151514      0.270237
  C       2.768486      0.388442     -0.706854
  H      -1.787147      1.075926     -0.375153
  H      -3.263169      0.483724      0.420410
  H      -1.952845      1.197513      1.390929
  H      -1.947258     -1.313066      1.547061
  H      -1.741520     -1.411229     -0.227096
  H       3.022921     -0.381831     -1.451205
  H       2.325365      1.247373     -1.221337
  H       3.660215      0.694449     -0.158200
15
Coordinates from ORCA-job EMC_anion_cpcm_200_default E -382.904375621814
  C      -2.160749      0.586843      0.515972
  C      -1.564422     -0.803354      0.676440
  O      -0.145905     -0.779254      0.902637
  C       0.675343     -0.682653     -0.250695
  O       0.219426     -0.287423     -1.381381
  O       1.895337     -0.173683      0.270499
  C       2.769435      0.406994     -0.699960
  H      -1.760669      1.069571     -0.378958
  H      -3.252454      0.517255      0.419380
  H      -1.927472      1.208462      1.386880
  H      -1.979436     -1.295533      1.562948
  H      -1.779568     -1.421113     -0.207681
  H       3.064229     -0.346514     -1.448167
  H       2.298108      1.249874     -1.217681
  H       3.648796      0.750529     -0.150233
15
Coordinates from ORCA-job EMC_anion_cpcm_200_default E -382.906799771192
  C      -2.119931      0.599672      0.514388
  C      -1.553421     -0.803918      0.665111
  O      -0.142170     -0.811997      0.909150
  C       0.689309     -0.778270     -0.259716
  O       0.211341     -0.297075     -1.345776
  O       1.875261     -0.174661      0.282277
  C       2.727982      0.415213     -0.696201
  H      -1.694550      1.088905     -0.364856
  H      -3.209444      0.554227      0.399607
  H      -1.892193      1.203516      1.399431
  H      -1.996886     -1.294468      1.539932
  H      -1.780209     -1.408814     -0.223941
  H       3.081342     -0.334579     -1.418759
  H       2.221324      1.215652     -1.248399
  H       3.582246      0.826596     -0.152247
15
Coordinates from ORCA-job EMC_anion_cpcm_200_default E -382.907794321590
  C      -2.188456      0.586602      0.545156
  C      -1.560489     -0.794447      0.661147
  O      -0.152001     -0.750031      0.911789
  C       0.692269     -0.710329     -0.264341
  O       0.216926     -0.248424     -1.362455
  O       1.892813     -0.103475      0.277562
  C       2.789701      0.387672     -0.713930
  H      -1.779523      1.120942     -0.315658
  H      -3.275325      0.496888      0.421212
  H      -1.995466      1.174567      1.449570
  H      -1.991297     -1.325228      1.519959
  H      -1.762551     -1.387278     -0.242210
  H       3.134098     -0.419119     -1.379763
  H       2.330505      1.170156     -1.330276
  H       3.648796      0.801503     -0.177764
15
Coordinates from ORCA-job EMC_anion_cpcm_200_default E -382.908521834406
  C      -2.252087      0.564527      0.572670
  C      -1.556308     -0.786155      0.656706
  O      -0.154855     -0.671626      0.909424
  C       0.686313     -0.615461     -0.278789
  O       0.207683     -0.148371     -1.365309
  O       1.895567     -0.010378      0.269488
  C       2.842956      0.349231     -0.727020
  H      -1.867724      1.143091     -0.271529
  H      -3.332846      0.424395      0.441667
  H      -2.093610      1.137725      1.493093
  H      -1.966776     -1.360269      1.498576
  H      -1.729588     -1.365261     -0.260955
  H       3.162854     -0.524014     -1.318943
  H       2.446551      1.104762     -1.417050
  H       3.711869      0.757804     -0.202028
15
Coordinates from ORCA-job EMC_anion_cpcm_200_default E -382.909014113497
  C      -2.355485      0.520900      0.620411
  C      -1.533575     -0.760388      0.642316
  O      -0.149436     -0.517837      0.884287
  C       0.675447     -0.446407     -0.324902
  O       0.190443      0.033577     -1.387949
  O       1.890324      0.159132      0.234928
  C       2.917027      0.276840     -0.735204
  H      -2.041295      1.170035     -0.201102
  H      -3.420123      0.285505      0.494969
  H      -2.240486      1.068802      1.562338
  H      -1.885033     -1.406227      1.459438
  H      -1.665815     -1.315196     -0.297059
  H       3.175399     -0.699206     -1.180047
  H       2.641437      0.960787     -1.549287
  H       3.801173      0.669680     -0.223138
15
Coordinates from ORCA-job EMC_anion_cpcm_200_default E -382.909126001899
  C      -2.336458      0.526642      0.607385
  C      -1.535739     -0.766989      0.648184
  O      -0.147739     -0.542130      0.891702
  C       0.674851     -0.472231     -0.313182
  O       0.190106      0.016812     -1.375202
  O       1.889349      0.123749      0.245453
  C       2.902612      0.288303     -0.734486
  H      -2.009195      1.158535     -0.222965
  H      -3.404281      0.307102      0.482019
  H      -2.213299      1.085727      1.541644
  H      -1.897436     -1.398029      1.471938
  H      -1.670685     -1.328996     -0.286520
  H       3.161448     -0.669124     -1.216135
  H       2.607517      0.997699     -1.519575
  H       3.788950      0.672931     -0.220260
15
Coordinates from ORCA-job EMC_anion_cpcm_200_default E -382.909190618593
  C      -2.336951      0.523414      0.600721
  C      -1.531820     -0.766642      0.652151
  O      -0.143743     -0.533411      0.894951
  C       0.673724     -0.467628     -0.307699
  O       0.190453      0.034725     -1.366611
  O       1.890634      0.112696      0.250286
  C       2.899428      0.285912     -0.734791
  H      -2.011560      1.148228     -0.235842
  H      -3.404061      0.300010      0.477233
  H      -2.213702      1.091650      1.529414
  H      -1.890095     -1.393739      1.479875
  H      -1.660647     -1.334068     -0.280208
  H       3.138547     -0.665937     -1.236066
  H       2.605791      1.014455     -1.502832
  H       3.794003      0.650336     -0.220583
15
Coordinates from ORCA-job EMC_anion_cpcm_200_default E -382.909229476974
  C      -2.352682      0.514299      0.599703
  C      -1.525693     -0.761411      0.654743
  O      -0.140704     -0.502446      0.894873
  C       0.672254     -0.441918     -0.307219
  O       0.192122      0.075479     -1.362570
  O       1.895513      0.118161      0.249921
  C       2.906937      0.273874     -0.736655
  H      -2.039629      1.139935     -0.240927
  H      -3.416226      0.273051      0.479815
  H      -2.235623      1.089325      1.524989
  H      -1.871389     -1.392181      1.484802
  H      -1.643470     -1.333156     -0.276394
  H       3.117343     -0.680750     -1.244814
  H       2.629700      1.015750     -1.497957
  H       3.811547      0.611986     -0.222308
15
Coordinates from ORCA-job EMC_anion_cpcm_200_default E -382.909251732331
  C      -2.368800      0.507021      0.601011
  C      -1.521448     -0.755229      0.656057
  O      -0.140132     -0.473532      0.893893
  C       0.671904     -0.420482     -0.307718
  O       0.196213      0.105641     -1.362663
  O       1.901927      0.122930      0.247899
  C       2.915692      0.263013     -0.738838
  H      -2.067268      1.136083     -0.241176
  H      -3.428637      0.248745      0.483718
  H      -2.258918      1.085201      1.525159
  H      -1.855692     -1.390548      1.487397
  H      -1.630399     -1.330175     -0.274136
  H       3.106761     -0.693729     -1.250545
  H       2.652253      1.013129     -1.496738
  H       3.826542      0.581933     -0.223320
15
Coordinates from ORCA-job EMC_anion_cpcm_200_default E -382.909268790848
  C      -2.390066      0.497841      0.602998
  C      -1.516171     -0.746188      0.658003
  O      -0.140736     -0.434424      0.892429
  C       0.671357     -0.393684     -0.308855
  O       0.203332      0.143206     -1.363530
  O       1.911628      0.125373      0.244857
  C       2.927200      0.248594     -0.741859
  H      -2.103570      1.132105     -0.240547
  H      -3.444359      0.216567      0.488490
  H      -2.290994      1.079194      1.526300
  H      -1.835789     -1.387304      1.490941
  H      -1.614052     -1.325576     -0.270584
  H       3.097404     -0.708900     -1.259553
  H       2.680060      1.009004     -1.494832
  H       3.844755      0.544192     -0.224259
15
Coordinates from ORCA-job EMC_anion_cpcm_200_default E -382.909276285437
  C      -2.393173      0.497521      0.603275
  C      -1.515982     -0.744239      0.658637
  O      -0.141635     -0.428565      0.892628
  C       0.671629     -0.393196     -0.308767
  O       0.206498      0.144372     -1.364202
  O       1.914715      0.120098      0.244651
  C       2.928824      0.247075     -0.742547
  H      -2.108138      1.132908     -0.239888
  H      -3.446589      0.213026      0.488413
  H      -2.296517      1.078802      1.526869
  H      -1.834446     -1.385945      1.491709
  H      -1.612750     -1.324679     -0.269440
  H       3.100585     -0.708315     -1.263789
  H       2.680439      1.009554     -1.493008
  H       3.846541      0.541582     -0.224542
15
Coordinates from ORCA-job EMC_anion_cpcm_200_default E -382.909287194881
  C      -2.407189      0.493257      0.602488
  C      -1.512796     -0.736011      0.662816
  O      -0.143745     -0.398769      0.893593
  C       0.671266     -0.384020     -0.308750
  O       0.218798      0.164016     -1.363659
  O       1.926675      0.098055      0.244826
  C       2.934943      0.238040     -0.745081
  H      -2.130745      1.130571     -0.242177
  H      -3.456207      0.192641      0.488129
  H      -2.320455      1.078326      1.524663
  H      -1.823926     -1.379297      1.497857
  H      -1.602302     -1.322260     -0.262418
  H       3.103576     -0.707919     -1.284646
  H       2.685732      1.013890     -1.481409
  H       3.856375      0.519479     -0.226234
15
Coordinates from ORCA-job EMC_anion_cpcm_200_default E -382.909290258883
  C      -2.401816      0.495550      0.601478
  C      -1.514055     -0.738500      0.662701
  O      -0.143226     -0.408794      0.894650
  C       0.671464     -0.391170     -0.308155
  O       0.217452      0.155714     -1.362426
  O       1.924911      0.095405      0.246380
  C       2.931851      0.241712     -0.744349
  H      -2.121597      1.130762     -0.243531
  H      -3.452492      0.201009      0.486733
  H      -2.311870      1.080898      1.523195
  H      -1.829151     -1.380086      1.497423
  H      -1.605994     -1.323771     -0.262963
  H       3.105119     -0.703451     -1.283783
  H       2.677231      1.015838     -1.480610
  H       3.852173      0.528884     -0.226743
15
Coordinates from ORCA-job EMC_anion_cpcm_200_default E -382.909291310347
  C      -2.400269      0.495967      0.600485
  C      -1.514165     -0.739190      0.663291
  O      -0.142908     -0.411052      0.895637
  C       0.671252     -0.393203     -0.307859
  O       0.217726      0.155595     -1.360953
  O       1.925137      0.091313      0.247628
  C       2.930647      0.242490     -0.744183
  H      -2.118995      1.129565     -0.245428
  H      -3.451424      0.203180      0.485861
  H      -2.309222      1.082643      1.521254
  H      -1.830455     -1.379808      1.498217
  H      -1.606236     -1.324603     -0.262313
  H       3.104820     -0.701240     -1.285772
  H       2.673007      1.017521     -1.478363
  H       3.851085      0.530822     -0.227503
