15
Coordinates from ORCA-job EMC_anion_cpcm_20_default E -382.839222127338
  C      -2.295011      0.527875      0.543211
  C      -1.508848     -0.770918      0.642061
  O      -0.123641     -0.527855      0.905730
  C       0.635622     -0.235481     -0.146661
  O       0.276990     -0.190628     -1.289389
  O       1.881442     -0.010724      0.278583
  C       2.828783      0.291902     -0.737117
  H      -1.953084      1.105128     -0.312311
  H      -3.350833      0.305160      0.418014
  H      -2.159851      1.117971      1.446411
  H      -1.847705     -1.374003      1.486418
  H      -1.600226     -1.342289     -0.287264
  H       2.916029     -0.540122     -1.438628
  H       2.528899      1.186371     -1.286595
  H       3.771435      0.457613     -0.222463
15
Coordinates from ORCA-job EMC_anion_cpcm_20_default E -382.866775892291
  C      -2.399203      0.494187      0.577354
  C      -1.495674     -0.731863      0.634229
  O      -0.116730     -0.403571      0.892075
  C       0.639783     -0.045664     -0.166404
  O       0.311244     -0.139347     -1.337629
  O       1.914955      0.058916      0.272022
  C       2.901324      0.231890     -0.747073
  H      -2.124080      1.125176     -0.266287
  H      -3.437595      0.169625      0.456740
  H      -2.314127      1.077046      1.494691
  H      -1.779705     -1.376950      1.469245
  H      -1.561708     -1.295993     -0.302432
  H       2.911738     -0.623921     -1.429062
  H       2.695267      1.144730     -1.321209
  H       3.854511      0.315738     -0.226258
15
Coordinates from ORCA-job EMC_anion_cpcm_20_default E -382.890389441656
  C      -2.445592      0.462138      0.594054
  C      -1.472871     -0.711470      0.628905
  O      -0.120713     -0.299659      0.896809
  C       0.620744      0.134857     -0.180551
  O       0.313662     -0.109237     -1.366583
  O       1.925182      0.130560      0.272951
  C       2.925415      0.185415     -0.747002
  H      -2.208351      1.128622     -0.237483
  H      -3.464265      0.080353      0.464416
  H      -2.398227      1.032335      1.525206
  H      -1.722279     -1.389922      1.450201
  H      -1.505029     -1.261583     -0.318253
  H       2.863854     -0.680787     -1.414305
  H       2.804366      1.104302     -1.342017
  H       3.884103      0.194076     -0.226348
15
Coordinates from ORCA-job EMC_anion_cpcm_20_default E -382.901762527761
  C      -2.474984      0.439129      0.606407
  C      -1.464032     -0.701605      0.633846
  O      -0.139324     -0.236917      0.917489
  C       0.599101      0.271933     -0.203144
  O       0.309645     -0.123978     -1.398615
  O       1.950615      0.179653      0.276736
  C       2.946411      0.162016     -0.746624
  H      -2.252517      1.131818     -0.212756
  H      -3.483178      0.033929      0.458503
  H      -2.458564      0.996986      1.549901
  H      -1.704546     -1.404326      1.440944
  H      -1.469855     -1.240272     -0.321252
  H       2.836331     -0.701788     -1.413011
  H       2.893281      1.080343     -1.353502
  H       3.911615      0.113078     -0.234922
15
Coordinates from ORCA-job EMC_anion_cpcm_20_default E -382.902929946819
  C      -2.466130      0.447350      0.602934
  C      -1.466567     -0.702789      0.636814
  O      -0.136728     -0.259196      0.919406
  C       0.594380      0.261713     -0.208976
  O       0.328336     -0.200930     -1.375836
  O       1.948353      0.157672      0.277828
  C       2.937067      0.178796     -0.747753
  H      -2.230447      1.137350     -0.213111
  H      -3.480070      0.059268      0.448335
  H      -2.448663      1.004147      1.545674
  H      -1.720799     -1.401047      1.443548
  H      -1.479581     -1.245950     -0.316073
  H       2.831520     -0.668237     -1.436271
  H       2.883475      1.109331     -1.332884
  H       3.905855      0.122522     -0.243633
15
Coordinates from ORCA-job EMC_anion_cpcm_20_default E -382.904134502871
  C      -2.429405      0.482180      0.594304
  C      -1.500578     -0.724833      0.653935
  O      -0.146504     -0.364463      0.919053
  C       0.585953      0.144024     -0.234592
  O       0.343744     -0.377035     -1.373428
  O       1.951371      0.072297      0.268665
  C       2.931529      0.237917     -0.745988
  H      -2.150663      1.140882     -0.234114
  H      -3.467342      0.160933      0.444500
  H      -2.378984      1.056166      1.525530
  H      -1.798901     -1.387872      1.475669
  H      -1.556088     -1.291601     -0.284323
  H       2.883094     -0.559617     -1.498022
  H       2.827343      1.204271     -1.263471
  H       3.905432      0.206752     -0.247719
15
Coordinates from ORCA-job EMC_anion_cpcm_20_default E -382.904876306817
  C      -2.352675      0.529018      0.576526
  C      -1.534270     -0.753226      0.670078
  O      -0.152416     -0.512902      0.905913
  C       0.574122     -0.030958     -0.275889
  O       0.357248     -0.596530     -1.386153
  O       1.941342     -0.048166      0.252352
  C       2.895436      0.314548     -0.729213
  H      -2.026579      1.132106     -0.277056
  H      -3.417449      0.301120      0.447541
  H      -2.239354      1.128625      1.486178
  H      -1.881670     -1.357508      1.517597
  H      -1.661412     -1.348952     -0.244441
  H       2.927362     -0.404134     -1.558889
  H       2.698637      1.313923     -1.150745
  H       3.871679      0.333036     -0.233798
15
Coordinates from ORCA-job EMC_anion_cpcm_20_default E -382.904994621626
  C      -2.336410      0.537333      0.572099
  C      -1.537746     -0.757173      0.671229
  O      -0.150863     -0.537112      0.904310
  C       0.573142     -0.063039     -0.279030
  O       0.353284     -0.625126     -1.391382
  O       1.937494     -0.068993      0.250841
  C       2.887119      0.325503     -0.724940
  H      -2.005402      1.129857     -0.287076
  H      -3.404437      0.321600      0.449617
  H      -2.210115      1.141541      1.477230
  H      -1.892372     -1.351111      1.523062
  H      -1.676509     -1.356834     -0.239870
  H       2.934071     -0.380119     -1.565635
  H       2.665542      1.326561     -1.130476
  H       3.863202      0.357112     -0.229977
15
Coordinates from ORCA-job EMC_anion_cpcm_20_default E -382.905057860418
  C      -2.327318      0.541699      0.568679
  C      -1.537940     -0.758341      0.670566
  O      -0.147343     -0.547990      0.901914
  C       0.573398     -0.076873     -0.278012
  O       0.347861     -0.633126     -1.394906
  O       1.933350     -0.082612      0.250032
  C       2.882240      0.329302     -0.722020
  H      -1.998103      1.127290     -0.295794
  H      -3.396612      0.327922      0.454512
  H      -2.191516      1.149985      1.469756
  H      -1.894330     -1.346433      1.525556
  H      -1.682161     -1.360269     -0.238130
  H       2.938070     -0.368859     -1.568492
  H       2.643058      1.330237     -1.117321
  H       3.857346      0.368066     -0.226341
15
Coordinates from ORCA-job EMC_anion_cpcm_20_default E -382.905076264450
  C      -2.320682      0.545123      0.566455
  C      -1.539195     -0.759414      0.670387
  O      -0.146278     -0.557894      0.899189
  C       0.573627     -0.087328     -0.278530
  O       0.347074     -0.645259     -1.396281
  O       1.931786     -0.094276      0.247978
  C       2.878426      0.333630     -0.720133
  H      -1.992458      1.125252     -0.301957
  H      -3.391394      0.335241      0.458551
  H      -2.177160      1.156176      1.464393
  H      -1.897204     -1.342587      1.527953
  H      -1.688423     -1.362991     -0.236146
  H       2.941166     -0.357549     -1.571705
  H       2.628156      1.335013     -1.106932
  H       3.852558      0.376861     -0.223219
15
Coordinates from ORCA-job EMC_anion_cpcm_20_default E -382.905083960325
  C      -2.318677      0.546212      0.565253
  C      -1.539875     -0.759718      0.670383
  O      -0.146236     -0.561657      0.898100
  C       0.574345     -0.090075     -0.277038
  O       0.346382     -0.648295     -1.396128
  O       1.932249     -0.100837      0.246340
  C       2.877378      0.335152     -0.719838
  H      -1.992037      1.123692     -0.305431
  H      -3.390011      0.337539      0.461051
  H      -2.171598      1.158957      1.461408
  H      -1.898287     -1.340637      1.529237
  H      -1.690506     -1.364181     -0.235168
  H       2.943027     -0.352617     -1.573865
  H       2.622950      1.336930     -1.102423
  H       3.850897      0.379537     -0.221883
15
Coordinates from ORCA-job EMC_anion_cpcm_20_default E -382.905085077849
  C      -2.318025      0.546384      0.564733
  C      -1.540021     -0.759913      0.670718
  O      -0.146463     -0.562874      0.898143
  C       0.574489     -0.091007     -0.276547
  O       0.346044     -0.649164     -1.395789
  O       1.932770     -0.103505      0.245566
  C       2.876873      0.335732     -0.719832
  H      -1.991368      1.123044     -0.306482
  H      -3.389607      0.338750      0.461006
  H      -2.170376      1.159680      1.460419
  H      -1.898829     -1.339917      1.530016
  H      -1.691051     -1.364905     -0.234446
  H       2.943244     -0.350463     -1.575094
  H       2.621986      1.337993     -1.100731
  H       3.850334      0.380164     -0.221680
15
Coordinates from ORCA-job EMC_anion_cpcm_20_default E -382.905085344858
  C      -2.317740      0.546295      0.564223
  C      -1.539956     -0.760051      0.671159
  O      -0.146492     -0.563208      0.898412
  C       0.574556     -0.091313     -0.276153
  O       0.345162     -0.648446     -1.395762
  O       1.933181     -0.105559      0.244997
  C       2.876682      0.335852     -0.719800
  H      -1.991060      1.122300     -0.307419
  H      -3.389440      0.339187      0.460675
  H      -2.169986      1.160204      1.459486
  H      -1.898974     -1.339308      1.530882
  H      -1.691170     -1.365667     -0.233592
  H       2.943259     -0.348899     -1.576242
  H       2.621751      1.338681     -1.099149
  H       3.850229      0.379934     -0.221716
