15
Coordinates from ORCA-job EMC_anion_cpcm_80_default E -382.847232490214
  C      -2.295011      0.527875      0.543211
  C      -1.508848     -0.770918      0.642061
  O      -0.123641     -0.527855      0.905730
  C       0.635622     -0.235481     -0.146661
  O       0.276990     -0.190628     -1.289389
  O       1.881442     -0.010724      0.278583
  C       2.828783      0.291902     -0.737117
  H      -1.953084      1.105128     -0.312311
  H      -3.350833      0.305160      0.418014
  H      -2.159851      1.117971      1.446411
  H      -1.847705     -1.374003      1.486418
  H      -1.600226     -1.342289     -0.287264
  H       2.916029     -0.540122     -1.438628
  H       2.528899      1.186371     -1.286595
  H       3.771435      0.457613     -0.222463
15
Coordinates from ORCA-job EMC_anion_cpcm_80_default E -382.870727477367
  C      -2.235736      0.556537      0.530755
  C      -1.537774     -0.789464      0.654687
  O      -0.128319     -0.633739      0.898211
  C       0.650033     -0.423859     -0.179156
  O       0.260458     -0.249178     -1.318098
  O       1.874660     -0.085922      0.273656
  C       2.804764      0.345384     -0.724991
  H      -1.868447      1.092678     -0.346097
  H      -3.312131      0.400999      0.422662
  H      -2.053060      1.164583      1.419591
  H      -1.907183     -1.346243      1.519223
  H      -1.681057     -1.385649     -0.255216
  H       2.980238     -0.456875     -1.452848
  H       2.429285      1.228255     -1.251477
  H       3.724269      0.582494     -0.190902
15
Coordinates from ORCA-job EMC_anion_cpcm_80_default E -382.893942795558
  C      -2.175745      0.578985      0.516820
  C      -1.550810     -0.799863      0.666170
  O      -0.131702     -0.732034      0.893655
  C       0.664501     -0.595744     -0.219487
  O       0.235597     -0.279059     -1.345363
  O       1.872841     -0.151242      0.270374
  C       2.768631      0.388194     -0.706905
  H      -1.787277      1.075830     -0.375045
  H      -3.263425      0.483300      0.420143
  H      -1.953461      1.197414      1.390987
  H      -1.947120     -1.313253      1.547018
  H      -1.740900     -1.411166     -0.227185
  H       3.022553     -0.382510     -1.451065
  H       2.325727      1.247114     -1.221626
  H       3.660591      0.694036     -0.158489
15
Coordinates from ORCA-job EMC_anion_cpcm_80_default E -382.903538309771
  C      -2.160600      0.586732      0.515845
  C      -1.564093     -0.803401      0.676466
  O      -0.145868     -0.779184      0.903018
  C       0.675203     -0.682233     -0.250547
  O       0.219036     -0.286138     -1.380765
  O       1.895358     -0.173530      0.270748
  C       2.769155      0.406779     -0.699962
  H      -1.760137      1.069378     -0.378954
  H      -3.252296      0.517083      0.418848
  H      -1.927638      1.208374      1.386831
  H      -1.979377     -1.295717      1.562816
  H      -1.778881     -1.421065     -0.207845
  H       3.063576     -0.346985     -1.448096
  H       2.297808      1.249579     -1.217841
  H       3.648754      0.750328     -0.150562
15
Coordinates from ORCA-job EMC_anion_cpcm_80_default E -382.905963876023
  C      -2.119966      0.599515      0.514285
  C      -1.553165     -0.803985      0.665179
  O      -0.142163     -0.811758      0.909496
  C       0.689140     -0.777629     -0.259672
  O       0.211026     -0.295661     -1.345183
  O       1.875356     -0.174430      0.282487
  C       2.727898      0.414940     -0.696217
  H      -1.694268      1.088641     -0.364852
  H      -3.209461      0.553938      0.399167
  H      -1.892512      1.203425      1.399364
  H      -1.996841     -1.294658      1.539872
  H      -1.779653     -1.408821     -0.224017
  H       3.080851     -0.335104     -1.418763
  H       2.221303      1.215350     -1.248556
  H       3.582452      0.826238     -0.152590
15
Coordinates from ORCA-job EMC_anion_cpcm_80_default E -382.906956690284
  C      -2.188557      0.586474      0.545133
  C      -1.560232     -0.794466      0.661198
  O      -0.152026     -0.749766      0.912141
  C       0.692157     -0.709838     -0.264372
  O       0.216658     -0.247232     -1.362062
  O       1.892955     -0.103183      0.277768
  C       2.789650      0.387411     -0.713926
  H      -1.779297      1.120786     -0.315533
  H      -3.275410      0.496622      0.420841
  H      -1.995856      1.174428      1.449628
  H      -1.991271     -1.325442      1.519833
  H      -1.762009     -1.387152     -0.242354
  H       3.133749     -0.419647     -1.379657
  H       2.330496      1.169743     -1.330544
  H       3.648994      0.801264     -0.178095
15
Coordinates from ORCA-job EMC_anion_cpcm_80_default E -382.907675954854
  C      -2.251327      0.564552      0.572176
  C      -1.556076     -0.786417      0.656929
  O      -0.154855     -0.672324      0.909932
  C       0.686090     -0.615750     -0.278629
  O       0.207236     -0.147682     -1.364570
  O       1.895643     -0.011155      0.269852
  C       2.842237      0.349388     -0.726863
  H      -1.866202      1.142407     -0.272156
  H      -3.332142      0.424944      0.440854
  H      -2.092731      1.138056      1.492395
  H      -1.967094     -1.360152      1.498841
  H      -1.729345     -1.365579     -0.260735
  H       3.161864     -0.523329     -1.319772
  H       2.445238      1.105337     -1.416136
  H       3.711463      0.757702     -0.202120
15
Coordinates from ORCA-job EMC_anion_cpcm_80_default E -382.908170529376
  C      -2.353701      0.521285      0.619234
  C      -1.533537     -0.761161      0.642850
  O      -0.149418     -0.520200      0.885358
  C       0.675165     -0.447943     -0.324091
  O       0.189941      0.033469     -1.386313
  O       1.890411      0.156636      0.236054
  C       2.915597      0.277657     -0.735077
  H      -2.037655      1.168900     -0.202746
  H      -3.418638      0.287431      0.493250
  H      -2.238331      1.069962      1.560670
  H      -1.886352     -1.405915      1.460274
  H      -1.665976     -1.316365     -0.296307
  H       3.174049     -0.697039     -1.182886
  H       2.638277      0.963423     -1.547072
  H       3.800165      0.669860     -0.223199
15
Coordinates from ORCA-job EMC_anion_cpcm_80_default E -382.908277883698
  C      -2.335398      0.526856      0.606697
  C      -1.535587     -0.767388      0.648449
  O      -0.147715     -0.543475      0.892423
  C       0.674706     -0.473075     -0.312731
  O       0.189872      0.016852     -1.374194
  O       1.889478      0.122296      0.246191
  C       2.901636      0.288738     -0.734352
  H      -2.006905      1.157893     -0.223791
  H      -3.403370      0.308209      0.480827
  H      -2.212119      1.086286      1.540739
  H      -1.898147     -1.397876      1.472282
  H      -1.670597     -1.329532     -0.286206
  H       3.160385     -0.667871     -1.217749
  H       2.605424      0.999102     -1.518177
  H       3.788337      0.672985     -0.220407
15
Coordinates from ORCA-job EMC_anion_cpcm_80_default E -382.908341775744
  C      -2.336514      0.523479      0.600441
  C      -1.531604     -0.766777      0.652197
  O      -0.143735     -0.533891      0.895397
  C       0.673666     -0.467866     -0.307492
  O       0.190405      0.034987     -1.366053
  O       1.890738      0.112136      0.250749
  C       2.898884      0.286022     -0.734675
  H      -2.010430      1.148010     -0.236053
  H      -3.403668      0.300424      0.476540
  H      -2.213314      1.091743      1.529129
  H      -1.890351     -1.393821      1.479806
  H      -1.660301     -1.334075     -0.280292
  H       3.137762     -0.665533     -1.236685
  H       2.604698      1.014909     -1.502221
  H       3.793762      0.650253     -0.220788
15
Coordinates from ORCA-job EMC_anion_cpcm_80_default E -382.908379916928
  C      -2.352329      0.514379      0.599537
  C      -1.525515     -0.761502      0.654718
  O      -0.140745     -0.502832      0.895274
  C       0.672248     -0.442164     -0.307009
  O       0.192143      0.075482     -1.362161
  O       1.895623      0.117773      0.250318
  C       2.906485      0.273975     -0.736559
  H      -2.038656      1.139919     -0.240925
  H      -3.415915      0.273427      0.479210
  H      -2.235360      1.089298      1.524906
  H      -1.871663     -1.392348      1.484587
  H      -1.643133     -1.333011     -0.276611
  H       3.116751     -0.680464     -1.245194
  H       2.628743      1.016005     -1.497560
  H       3.811324      0.612062     -0.222530
15
Coordinates from ORCA-job EMC_anion_cpcm_80_default E -382.908401324110
  C      -2.368058      0.507261      0.600773
  C      -1.521385     -0.755494      0.656044
  O      -0.140220     -0.474591      0.894395
  C       0.671884     -0.421191     -0.307437
  O       0.196084      0.105053     -1.362150
  O       1.901964      0.122367      0.248343
  C       2.915054      0.263360     -0.738730
  H      -2.065570      1.136146     -0.241195
  H      -3.428033      0.249687      0.482915
  H      -2.258167      1.085276      1.525030
  H      -1.856405     -1.390765      1.487167
  H      -1.630363     -1.330165     -0.274341
  H       3.106442     -0.693101     -1.250927
  H       2.650763      1.013512     -1.496330
  H       3.826009      0.582645     -0.223555
15
Coordinates from ORCA-job EMC_anion_cpcm_80_default E -382.908417901271
  C      -2.388853      0.498290      0.602638
  C      -1.516225     -0.746673      0.658021
  O      -0.140823     -0.436342      0.893092
  C       0.671321     -0.394992     -0.308472
  O       0.203003      0.141912     -1.362838
  O       1.911573      0.124536      0.245389
  C       2.926312      0.249256     -0.741736
  H      -2.100941      1.132240     -0.240648
  H      -3.443426      0.218228      0.487403
  H      -2.289647      1.079447      1.526059
  H      -1.837021     -1.387575      1.490726
  H      -1.614362     -1.325784     -0.270744
  H       3.097334     -0.707819     -1.260032
  H       2.677873      1.009647     -1.494331
  H       3.843881      0.545627     -0.224526
15
Coordinates from ORCA-job EMC_anion_cpcm_80_default E -382.908425266480
  C      -2.391971      0.497938      0.602859
  C      -1.516000     -0.744728      0.658701
  O      -0.141695     -0.430429      0.893332
  C       0.671563     -0.394420     -0.308376
  O       0.206137      0.143303     -1.363424
  O       1.914681      0.119198      0.245201
  C       2.927920      0.247706     -0.742430
  H      -2.105492      1.132952     -0.240081
  H      -3.445660      0.214624      0.487261
  H      -2.295216      1.079087      1.526535
  H      -1.835627     -1.386179      1.491578
  H      -1.612998     -1.324957     -0.269517
  H       3.100370     -0.707205     -1.264417
  H       2.678279      1.010291     -1.492397
  H       3.845709      0.542820     -0.224822
15
Coordinates from ORCA-job EMC_anion_cpcm_80_default E -382.908435866765
  C      -2.405816      0.493689      0.601904
  C      -1.512781     -0.736604      0.662981
  O      -0.143708     -0.400917      0.894438
  C       0.671130     -0.385304     -0.308322
  O       0.218272      0.163118     -1.362655
  O       1.926599      0.096976      0.245441
  C       2.933897      0.238748     -0.744953
  H      -2.127662      1.130454     -0.242598
  H      -3.455153      0.194408      0.486715
  H      -2.318986      1.078746      1.524087
  H      -1.825180     -1.379475      1.497916
  H      -1.602550     -1.322781     -0.262310
  H       3.103038     -0.706568     -1.285570
  H       2.683394      1.014937     -1.480517
  H       3.855506      0.520574     -0.226555
15
Coordinates from ORCA-job EMC_anion_cpcm_80_default E -382.908438710188
  C      -2.398712      0.496705      0.601140
  C      -1.514530     -0.739984      0.662303
  O      -0.143114     -0.414507      0.895400
  C       0.671432     -0.394155     -0.307733
  O       0.215680      0.151400     -1.361709
  O       1.923565      0.096472      0.246948
  C       2.930063      0.243615     -0.743941
  H      -2.115559      1.131452     -0.243225
  H      -3.450219      0.205511      0.485219
  H      -2.307672      1.081223      1.523289
  H      -1.831996     -1.381119      1.496498
  H      -1.607694     -1.324323     -0.263858
  H       3.105278     -0.701965     -1.282081
  H       2.673632      1.016071     -1.481368
  H       3.849847      0.533604     -0.226883
15
Coordinates from ORCA-job EMC_anion_cpcm_80_default E -382.908439713089
  C      -2.398011      0.496868      0.600233
  C      -1.514484     -0.740206      0.663004
  O      -0.142908     -0.415108      0.896248
  C       0.671263     -0.395503     -0.307442
  O       0.216492      0.152127     -1.360457
  O       1.924265      0.091994      0.248016
  C       2.929286      0.243896     -0.743903
  H      -2.114339      1.130280     -0.244992
  H      -3.449730      0.206450      0.484448
  H      -2.306460      1.082718      1.521491
  H      -1.832605     -1.380537      1.497504
  H      -1.607441     -1.324965     -0.262947
  H       3.104994     -0.699991     -1.284813
  H       2.670309      1.017840     -1.478815
  H       3.849367      0.534138     -0.227575
15
Coordinates from ORCA-job EMC_anion_cpcm_80_default E -382.908440022154
  C      -2.399265      0.496077      0.599877
  C      -1.514032     -0.739720      0.663513
  O      -0.142821     -0.412522      0.896557
  C       0.671006     -0.393628     -0.307531
  O       0.217280      0.156419     -1.359676
  O       1.925235      0.090078      0.248359
  C       2.929811      0.242791     -0.744113
  H      -2.116549      1.129014     -0.246050
  H      -3.450662      0.204386      0.484510
  H      -2.308081      1.083034      1.520462
  H      -1.831214     -1.380014      1.498376
  H      -1.605960     -1.325030     -0.262204
  H       3.103837     -0.700465     -1.286615
  H       2.670897      1.018204     -1.477444
  H       3.850518      0.531377     -0.228020
