15
Coordinates from ORCA-job EMC_anion_cpcm_5_default E -382.821336208250
  C      -2.295011      0.527875      0.543211
  C      -1.508848     -0.770918      0.642061
  O      -0.123641     -0.527855      0.905730
  C       0.635622     -0.235481     -0.146661
  O       0.276990     -0.190628     -1.289389
  O       1.881442     -0.010724      0.278583
  C       2.828783      0.291902     -0.737117
  H      -1.953084      1.105128     -0.312311
  H      -3.350833      0.305160      0.418014
  H      -2.159851      1.117971      1.446411
  H      -1.847705     -1.374003      1.486418
  H      -1.600226     -1.342289     -0.287264
  H       2.916029     -0.540122     -1.438628
  H       2.528899      1.186371     -1.286595
  H       3.771435      0.457613     -0.222463
15
Coordinates from ORCA-job EMC_anion_cpcm_5_default E -382.850162905522
  C      -2.242591      0.553775      0.531744
  C      -1.535360     -0.788138      0.656251
  O      -0.129686     -0.629806      0.903563
  C       0.649987     -0.411566     -0.177784
  O       0.255907     -0.227134     -1.318318
  O       1.881566     -0.080548      0.275591
  C       2.809616      0.341159     -0.726379
  H      -1.874297      1.092034     -0.342762
  H      -3.318379      0.392434      0.418882
  H      -2.066852      1.161832      1.421354
  H      -1.904773     -1.349243      1.518274
  H      -1.670258     -1.382846     -0.256974
  H       2.974407     -0.469897     -1.449154
  H       2.438048      1.222921     -1.257752
  H       3.732664      0.575024     -0.196536
15
Coordinates from ORCA-job EMC_anion_cpcm_5_default E -382.873415407776
  C      -2.178920      0.576554      0.516465
  C      -1.546585     -0.799495      0.667774
  O      -0.132694     -0.729604      0.901118
  C       0.662939     -0.584398     -0.217048
  O       0.228794     -0.256930     -1.341593
  O       1.877942     -0.146705      0.273945
  C       2.769630      0.384347     -0.707826
  H      -1.785758      1.073805     -0.372909
  H      -3.266678      0.476910      0.412797
  H      -1.963865      1.195493      1.391924
  H      -1.945761     -1.316929      1.545649
  H      -1.727777     -1.408902     -0.229934
  H       3.013069     -0.394708     -1.448785
  H       2.329204      1.242609     -1.226506
  H       3.666459      0.687954     -0.165072
15
Coordinates from ORCA-job EMC_anion_cpcm_5_default E -382.884749125871
  C      -2.135304      0.590796      0.509111
  C      -1.556183     -0.806462      0.677632
  O      -0.145581     -0.805384      0.912721
  C       0.677825     -0.727905     -0.260260
  O       0.203011     -0.267551     -1.366359
  O       1.892431     -0.183358      0.278612
  C       2.745384      0.412392     -0.694299
  H      -1.715970      1.063037     -0.382782
  H      -3.228365      0.538300      0.401378
  H      -1.901891      1.211876      1.381559
  H      -1.990075     -1.290705      1.561692
  H      -1.777154     -1.421855     -0.207744
  H       3.059497     -0.336339     -1.440415
  H       2.253210      1.239376     -1.220185
  H       3.619166      0.783783     -0.150662
15
Coordinates from ORCA-job EMC_anion_cpcm_5_default E -382.885893251008
  C      -2.150833      0.591984      0.526356
  C      -1.552282     -0.800883      0.665030
  O      -0.147536     -0.782767      0.918467
  C       0.688031     -0.735730     -0.258147
  O       0.209334     -0.257574     -1.346366
  O       1.887268     -0.141214      0.285221
  C       2.753397      0.399817     -0.704153
  H      -1.724197      1.097754     -0.342770
  H      -3.239489      0.525943      0.400258
  H      -1.943282      1.190180      1.420680
  H      -1.995296     -1.312127      1.529844
  H      -1.760845     -1.397934     -0.234958
  H       3.093562     -0.380175     -1.403606
  H       2.266475      1.192358     -1.285876
  H       3.615693      0.810368     -0.169980
15
Coordinates from ORCA-job EMC_anion_cpcm_5_default E -382.886752326283
  C      -2.218145      0.575023      0.560554
  C      -1.551808     -0.791141      0.656315
  O      -0.155339     -0.707803      0.922082
  C       0.689269     -0.661195     -0.267489
  O       0.206413     -0.179794     -1.344724
  O       1.893777     -0.043251      0.280378
  C       2.810582      0.363175     -0.722271
  H      -1.806000      1.136516     -0.281350
  H      -3.300528      0.460685      0.417625
  H      -2.053828      1.147734      1.480348
  H      -1.984378     -1.353059      1.496422
  H      -1.731212     -1.366853     -0.263017
  H       3.147141     -0.486443     -1.338778
  H       2.378273      1.117326     -1.392781
  H       3.675782      0.789079     -0.203312
15
Coordinates from ORCA-job EMC_anion_cpcm_5_default E -382.887252387130
  C      -2.271217      0.551718      0.583028
  C      -1.542373     -0.784319      0.652936
  O      -0.153849     -0.632467      0.916089
  C       0.679436     -0.566465     -0.288186
  O       0.191625     -0.073408     -1.345836
  O       1.889823      0.046789      0.269462
  C       2.852097      0.325797     -0.729639
  H      -1.885515      1.149301     -0.247011
  H      -3.347295      0.391633      0.437371
  H      -2.133338      1.113452      1.513702
  H      -1.951995     -1.384367      1.478900
  H      -1.697445     -1.347565     -0.278133
  H       3.157054     -0.582595     -1.276319
  H       2.482841      1.053843     -1.464882
  H       3.730151      0.738652     -0.221483
15
Coordinates from ORCA-job EMC_anion_cpcm_5_default E -382.887395191845
  C      -2.327089      0.527184      0.606516
  C      -1.529974     -0.770986      0.648079
  O      -0.148844     -0.550693      0.901299
  C       0.671713     -0.470993     -0.314180
  O       0.182581      0.025717     -1.364386
  O       1.888007      0.130244      0.251646
  C       2.891549      0.288325     -0.732399
  H      -1.980549      1.157292     -0.216630
  H      -3.395772      0.316688      0.467511
  H      -2.207822      1.080696      1.544801
  H      -1.904026     -1.406333      1.464418
  H      -1.663512     -1.324261     -0.292964
  H       3.152176     -0.671419     -1.211114
  H       2.589325      0.989008     -1.523859
  H       3.782238      0.679532     -0.228738
15
Coordinates from ORCA-job EMC_anion_cpcm_5_default E -382.887458888515
  C      -2.319650      0.529136      0.599419
  C      -1.530772     -0.773281      0.651545
  O      -0.147260     -0.560228      0.903967
  C       0.671684     -0.480963     -0.308053
  O       0.184013      0.020902     -1.359627
  O       1.889135      0.109872      0.256792
  C       2.885450      0.293229     -0.732041
  H      -1.970157      1.149472     -0.230157
  H      -3.389666      0.324137      0.462800
  H      -2.195450      1.090532      1.532340
  H      -1.907064     -1.400322      1.472915
  H      -1.664600     -1.332062     -0.286207
  H       3.140783     -0.656403     -1.232537
  H       2.574888      1.010584     -1.504937
  H       3.778667      0.675396     -0.226218
15
Coordinates from ORCA-job EMC_anion_cpcm_5_default E -382.887506370671
  C      -2.325536      0.524226      0.594559
  C      -1.527087     -0.771375      0.654946
  O      -0.143590     -0.546489      0.904839
  C       0.670699     -0.469092     -0.304397
  O       0.185262      0.046083     -1.354164
  O       1.892328      0.102440      0.259175
  C       2.886939      0.288267     -0.732919
  H      -1.983704      1.139656     -0.241979
  H      -3.394371      0.310533      0.462688
  H      -2.201577      1.095039      1.521747
  H      -1.895779     -1.395987      1.481153
  H      -1.653839     -1.336492     -0.279981
  H       3.118851     -0.658407     -1.249384
  H       2.582917      1.024075     -1.490683
  H       3.788486      0.647524     -0.225600
15
Coordinates from ORCA-job EMC_anion_cpcm_5_default E -382.887524498544
  C      -2.337043      0.518092      0.593895
  C      -1.523287     -0.767506      0.656581
  O      -0.142054     -0.525253      0.905411
  C       0.670075     -0.451430     -0.303186
  O       0.186667      0.074104     -1.350775
  O       1.897028      0.105849      0.258573
  C       2.893052      0.279850     -0.734873
  H      -2.003701      1.135231     -0.244822
  H      -3.403424      0.291395      0.463950
  H      -2.218491      1.092964      1.519261
  H      -1.883650     -1.394797      1.484404
  H      -1.642311     -1.336104     -0.277204
  H       3.105816     -0.668459     -1.256235
  H       2.599970      1.024994     -1.487700
  H       3.801354      0.621072     -0.227280
15
Coordinates from ORCA-job EMC_anion_cpcm_5_default E -382.887536572668
  C      -2.350052      0.512089      0.594209
  C      -1.519417     -0.762468      0.657921
  O      -0.141637     -0.500937      0.906388
  C       0.669770     -0.434023     -0.302129
  O       0.189499      0.100352     -1.347915
  O       1.903111      0.109250      0.257299
  C       2.899975      0.270579     -0.737328
  H      -2.024587      1.133116     -0.244717
  H      -3.413274      0.270911      0.464435
  H      -2.239561      1.088945      1.519305
  H      -1.871730     -1.393704      1.486382
  H      -1.630560     -1.334086     -0.274922
  H       3.096915     -0.678795     -1.262743
  H       2.617389      1.023251     -1.486611
  H       3.814158      0.595520     -0.229574
15
Coordinates from ORCA-job EMC_anion_cpcm_5_default E -382.887544145340
  C      -2.359226      0.508445      0.594381
  C      -1.516836     -0.758348      0.659259
  O      -0.141971     -0.482966      0.907477
  C       0.669609     -0.423839     -0.301376
  O       0.193030      0.115895     -1.346358
  O       1.908495      0.107775      0.256537
  C       2.904558      0.264284     -0.739156
  H      -2.038384      1.132490     -0.244081
  H      -3.419970      0.256992      0.463790
  H      -2.255496      1.086152      1.519710
  H      -1.864167     -1.392234      1.488014
  H      -1.622696     -1.332345     -0.272688
  H       3.093461     -0.683874     -1.269650
  H       2.627246      1.022717     -1.484594
  H       3.822345      0.578857     -0.231267
15
Coordinates from ORCA-job EMC_anion_cpcm_5_default E -382.887551789151
  C      -2.367953      0.505388      0.593855
  C      -1.514414     -0.753903      0.661536
  O      -0.142589     -0.464802      0.908994
  C       0.669311     -0.416223     -0.300683
  O       0.198376      0.129331     -1.344936
  O       1.915051      0.099829      0.256420
  C       2.908424      0.258532     -0.740889
  H      -2.050997      1.131476     -0.244568
  H      -3.426172      0.244045      0.462201
  H      -2.271197      1.084668      1.518938
  H      -1.857429     -1.389517      1.491003
  H      -1.615254     -1.331080     -0.269005
  H       3.091743     -0.685516     -1.280681
  H       2.633455      1.024735     -1.479222
  H       3.829647      0.563035     -0.232964
15
Coordinates from ORCA-job EMC_anion_cpcm_5_default E -382.887556727556
  C      -2.372249      0.504147      0.592593
  C      -1.513271     -0.751364      0.663927
  O      -0.142983     -0.455039      0.910344
  C       0.668907     -0.414337     -0.300427
  O       0.203005      0.136022     -1.343862
  O       1.919916      0.088297      0.257141
  C       2.909858      0.255902     -0.741717
  H      -2.056968      1.129754     -0.246856
  H      -3.429204      0.237941      0.460590
  H      -2.278962      1.085814      1.516540
  H      -1.854440     -1.386683      1.494476
  H      -1.611485     -1.331300     -0.265250
  H       3.091771     -0.682867     -1.291269
  H       2.633070      1.028882     -1.472232
  H       3.833036      0.554830     -0.233999
15
Coordinates from ORCA-job EMC_anion_cpcm_5_default E -382.887558768662
  C      -2.372008      0.504424      0.591457
  C      -1.513436     -0.751251      0.665254
  O      -0.142986     -0.454943      0.911093
  C       0.668575     -0.416282     -0.300589
  O       0.204831      0.136768     -1.343115
  O       1.921634      0.080174      0.258038
  C       2.909341      0.256190     -0.741684
  H      -2.056489      1.128168     -0.249331
  H      -3.429102      0.238632      0.459820
  H      -2.278285      1.088084      1.514112
  H      -1.854972     -1.385231      1.496619
  H      -1.611512     -1.332389     -0.263277
  H       3.092663     -0.679358     -1.296345
  H       2.629050      1.032014     -1.467769
  H       3.832697      0.555001     -0.234284
15
Coordinates from ORCA-job EMC_anion_cpcm_5_default E -382.887559222954
  C      -2.371333      0.504550      0.590948
  C      -1.513665     -0.751649      0.665626
  O      -0.142845     -0.456390      0.911337
  C       0.668343     -0.416978     -0.300808
  O       0.204961      0.137757     -1.342484
  O       1.921888      0.077493      0.258470
  C       2.908980      0.256497     -0.741588
  H      -2.055734      1.127152     -0.250682
  H      -3.428708      0.239661      0.459809
  H      -2.276602      1.089258      1.512835
  H      -1.855447     -1.384873      1.497397
  H      -1.611889     -1.333097     -0.262741
  H       3.092845     -0.678310     -1.297319
  H       2.627075      1.032829     -1.466451
  H       3.832131      0.556101     -0.234349
