10
Coordinates from ORCA-job SN_optfreq E -264.231710481311
  N          -2.08249155149840      1.08349938118473     -1.34678631518308
  C          -1.46359810402475      0.34338920907963     -0.71287497851736
  C          -0.68038349516337     -0.56655287601359      0.10879218707131
  C           0.61543397215475      0.08644910625224      0.64020332598154
  C           1.56206318193364      0.38548687234299     -0.42326698581821
  N           2.30986606665472      0.59871030273055     -1.27646937313471
  H          -1.29374661213893     -0.88316380476299      0.95954798046718
  H          -0.44046261810455     -1.46011445932802     -0.47734400538846
  H           0.37983236056626      1.01051668940967      1.17881211971214
  H           1.09348679962066     -0.59822043089523      1.34938604480970
