10
Coordinates from ORCA-job SN_optfreq E -264.230490233456
  N      -2.030318      1.095374     -1.317502
  C      -1.431815      0.345663     -0.698155
  C      -0.671344     -0.578260      0.108908
  C       0.605517      0.091813      0.649439
  C       1.528954      0.373656     -0.423480
  N       2.255986      0.571784     -1.281363
  H      -1.299085     -0.905550      0.942877
  H      -0.415233     -1.449849     -0.500764
  H       0.358326      1.029253      1.156455
  H       1.099012     -0.573884      1.363584
10
Coordinates from ORCA-job SN_optfreq E -264.231642943970
  N      -2.068693      1.094582     -1.331177
  C      -1.455225      0.345058     -0.704655
  C      -0.677774     -0.574197      0.108379
  C       0.612241      0.090104      0.646409
  C       1.552858      0.377967     -0.422644
  N       2.295526      0.581436     -1.281544
  H      -1.297907     -0.901809      0.949726
  H      -0.427035     -1.454545     -0.492647
  H       0.368674      1.023064      1.165399
  H       1.097334     -0.581659      1.362752
10
Coordinates from ORCA-job SN_optfreq E -264.231695262420
  N      -2.079760      1.090937     -1.336628
  C      -1.462217      0.344809     -0.707948
  C      -0.679188     -0.570808      0.107997
  C       0.613954      0.088956      0.643442
  C       1.560152      0.380505     -0.422842
  N       2.306766      0.586933     -1.279151
  H      -1.294904     -0.895926      0.953623
  H      -0.432104     -1.456331     -0.487071
  H       0.372923      1.018435      1.169976
  H       1.094377     -0.587510      1.358603
10
Coordinates from ORCA-job SN_optfreq E -264.231707008492
  N      -2.083826      1.087235     -1.341242
  C      -1.464680      0.344232     -0.710475
  C      -0.679800     -0.568219      0.107996
  C       0.614775      0.087868      0.641249
  C       1.562861      0.382848     -0.422992
  N       2.310963      0.592219     -1.277258
  H      -1.293120     -0.889830      0.956772
  H      -0.436218     -1.457990     -0.482264
  H       0.376333      1.014483      1.174077
  H       1.092712     -0.592845      1.354136
10
Coordinates from ORCA-job SN_optfreq E -264.231709821582
  N      -2.083736      1.084729     -1.344662
  C      -1.464492      0.343674     -0.712058
  C      -0.680138     -0.566931      0.108346
  C       0.615191      0.087017      0.640312
  C       1.562843      0.384541     -0.423110
  N       2.311005      0.596259     -1.276483
  H      -1.293033     -0.885480      0.958669
  H      -0.438997     -1.459303     -0.479063
  H       0.378633      1.011894      1.177064
  H       1.092725     -0.596401      1.350985
10
Coordinates from ORCA-job SN_optfreq E -264.231710481311
  N      -2.082492      1.083499     -1.346786
  C      -1.463598      0.343389     -0.712875
  C      -0.680383     -0.566553      0.108792
  C       0.615434      0.086449      0.640203
  C       1.562063      0.385487     -0.423267
  N       2.309866      0.598710     -1.276469
  H      -1.293747     -0.883164      0.959548
  H      -0.440463     -1.460114     -0.477344
  H       0.379832      1.010517      1.178812
  H       1.093487     -0.598220      1.349386
