17
 energy: -29.400150584944 gnorm: 0.000755269905 xtb: 6.7.1pre (5071a88)
C            2.25790645651783       -1.06675710463254       -0.21657262283226
O            1.28883229188779       -0.16100679106663        0.21738149579352
P           -0.07699956523093        0.06977463342199       -0.62205239089776
O           -0.16790810449217       -0.61298402868371       -1.89170518685217
O           -1.17184649025491       -0.36796668508790        0.49144306380287
C           -2.08188449360826       -1.39463805616236        0.24769143653665
O           -0.21632530058857        1.64452271102147       -0.63869017434291
C           -0.12031872488814        2.50498517085223        0.46743901362498
H            3.23589713573185       -0.57057058207389       -0.14521697024402
H            2.05968669175065       -1.41331274588632       -1.23371386193714
H            2.30346231109564       -1.92015138782779        0.47591001665294
H           -1.86014811133130       -2.24834492780339        0.90578208420155
H           -2.06397791983998       -1.70999361024252       -0.79865132912714
H           -3.07851653587779       -1.04040154967866        0.54671631513033
H            0.12616614757407        1.97936600432353        1.38988407643933
H           -1.07293711080888        3.04299224463322        0.56805759328805
H            0.63891131236327        3.26448671489318        0.23629743076315
