37
Coordinates from ORCA-job TEGDME_anion_cpcm_20_moread E -770.225490341446
  C           6.31967666743207      2.15511244387806      1.95758062016261
  O           5.85082295135271      1.46693887162627      0.80001459845568
  C           4.57282684074183      0.85196639540830      1.02026096342491
  C           4.62567813285244     -0.29195416086233      1.96409619490497
  O           2.51385133873792     -2.07773813185991     -0.62978014435803
  C           2.10743768592312     -0.97543298637527     -1.32279799646963
  C           0.90230964953644     -1.18831495343846     -2.24463983383581
  O          -0.27516249271397     -1.43505036978158     -1.46200794759293
  C          -1.40695991857218     -1.71542108958562     -2.26936883515917
  C          -2.62515382089228     -1.86643480024674     -1.39491369928701
  O          -2.96895475835095     -0.59497656664230     -0.84504864071377
  C          -4.08604376672710     -0.67442380983614      0.02997271355556
  C          -4.34250415357604      0.72225898189668      0.56114847185520
  O          -5.46317379935657      0.64857289635656      1.43388241931427
  C          -5.77483793068596      1.91844903880517      1.99884245438703
  H           6.46188180041200      1.47021198035207      2.80607086192657
  H           5.61549110242483      2.94642361499413      2.25795900917385
  H           7.27977323037432      2.60740859304894      1.69604799125011
  H           4.24476868984200      0.51680955856736      0.02234143867238
  H           3.84406283870881      1.60729025343270      1.36061763460609
  H           5.47910186712210     -0.96333440728986      1.94531181365613
  H           3.75692388717238     -0.56033599281423      2.55534210635723
  H           1.82178073523790     -0.10184652729008     -0.67260218504411
  H           2.88933110633849     -0.54908047871852     -2.01331481982386
  H           0.73490478098003     -0.29544574190745     -2.87754793037566
  H           1.08778107965057     -2.05243887296419     -2.90830559971370
  H          -1.57339660752632     -0.90504036748574     -3.00121010110778
  H          -1.25998580090508     -2.65204386914602     -2.83551774351796
  H          -2.42174193441338     -2.58702132065390     -0.58542602896621
  H          -3.45973559768613     -2.25674983807063     -2.00096511387158
  H          -3.87870452634120     -1.36352395175069      0.86557274608407
  H          -4.97611869140500     -1.04526128060614     -0.50596395286422
  H          -3.45350368978454      1.08946979307104      1.10070708748276
  H          -4.54530064123004      1.41379706567841     -0.27386641164920
  H          -6.63784342653044      1.77891274783566      2.65445151187181
  H          -4.93100211940691      2.30848536274519      2.58763265082401
  H          -6.02828071873569      2.64976193963014      1.21651023638665
