37
 energy: -53.021969441313 gnorm: 0.000778195253 xtb: 6.7.1pre (5071a88)
C            5.46650151233380        2.32565137705733        1.47937108771215
O            6.79783357952546        2.47679813547700        1.87245480632705
C            7.26781406345481        1.40124201335731        2.74604016087957
C            6.59025814892926        1.27126661925454        4.04245427394416
O           -0.90190333467665       -4.55825823200655       -5.77235541175156
C           -1.24476728723426       -4.36780101417506       -4.50638780938827
C           -1.48549795651892       -2.87762452194081       -4.14088236205544
O           -1.89776770609334       -2.76480408064734       -2.78782194202847
C           -2.13412533534486       -1.43981907119361       -2.40294401330060
C           -2.58187558079919       -1.43695414022806       -0.94498687788263
O           -2.84845824084894       -0.10859717092479       -0.54678649807227
C           -3.27052194784838       -0.01688288328888        0.79081591499107
C           -3.51219829470242        1.45320027359621        1.11328723205260
O           -3.99070077656612        1.55712148204889        2.43490301217687
C           -4.21566620918751        2.88583293105762        2.82630711346882
H            4.78398580771780        2.35329158664857        2.33886649716029
H            5.31219324387124        1.37749756657605        0.94320975734094
H            5.23652105391379        3.15674549640348        0.81226439340188
H            8.32486474016019        1.66015469769861        2.87089166790047
H            7.19019919448614        0.46446739938869        2.17166373072465
H            6.70210855553393        2.07426021889350        4.75204903646997
H            5.66068124468484        0.72893672113627        4.08711781131006
H           -2.18248055867366       -4.91579692455722       -4.23093196725241
H           -0.47133045263781       -4.74914798449870       -3.79176645311421
H           -0.55869128146667       -2.30825629495121       -4.30452269519712
H           -2.25709051319460       -2.46475132076787       -4.80765619910977
H           -1.22360923187211       -0.82803404469284       -2.50815873825471
H           -2.91883679293877       -0.98119437960750       -3.02682020279847
H           -1.79164805189993       -1.87682335891894       -0.32006443064289
H           -3.48283606322153       -2.05878222419512       -0.84124545305732
H           -2.50801676109819       -0.42339242821713        1.47180871004309
H           -4.20108459330404       -0.58324432352953        0.94787642103075
H           -2.57256405681627        2.01236017045084        0.99596542007206
H           -4.24419804340373        1.86476662049934        0.40252903392469
H           -4.57373616937095        2.85205483483639        3.85386100006008
H           -3.29223149370493        3.47764248793210        2.77972329260902
H           -4.97112442117078        3.36687378601037        2.19095722051661
