17
 energy: -29.400146997896 gnorm: 0.000861655455 xtb: 6.7.1pre (5071a88)
C            2.26281439801503       -1.06612581041117       -0.21533619528549
O            1.29218408727436       -0.16178456299464        0.21761262729005
P           -0.07532062943953        0.06561813545562       -0.61921637499025
O           -0.16592964201804       -0.61935307452148       -1.88790926561879
O           -1.16790040648311       -0.37233340631664        0.49611319467802
C           -2.08630232522229       -1.39118340751542        0.24808635881218
O           -0.21423232031711        1.64011988746720       -0.63967006422227
C           -0.12148726953271        2.50396047658663        0.46408106500302
H            3.24061069607354       -0.57155937487732       -0.13308482716919
H            2.07071652650913       -1.40633536497194       -1.23589901390612
H            2.30215535706113       -1.92511033950631        0.47087320259733
H           -1.87316565803315       -2.24775113094889        0.90519439515867
H           -2.06832255733713       -1.70444306430497       -0.79874383054033
H           -3.08065500355152       -1.02933353154644        0.54548196497161
H            0.14119478950259        1.98395316908426        1.38508580952754
H           -1.08049875604018        3.02817586400427        0.57392279562256
H            0.62413870353887        3.27348554531698        0.22340814807087
