13
Coordinates from ORCA-job PC_anion_cpcm_14_moread E -381.719208445943
  C           1.56061967441554     -0.34113150263015     -0.00020557467934
  C           0.13095257181566     -0.41447694796425      0.51447973248329
  C          -0.57756937549765      0.95420581424200      0.53078958306256
  O          -1.24884256212303      1.01020263445583     -0.71984370011011
  C          -1.75106632996812     -0.34882951141669     -0.93924655446969
  O          -2.15125811587832     -0.63170217322299     -2.09811268726340
  O          -0.66924844530917     -1.19708493012996     -0.37894204630134
  H           2.19701963429820      0.19724651299148      0.71286837492474
  H           1.59073232390854      0.18341426167399     -0.96204337112684
  H           1.97350345668375     -1.34568575269206     -0.13940293973955
  H           0.11663053591039     -0.86962684339019      1.51644141284627
  H           0.12556711285339      1.79088664985274      0.59961216373993
  H          -1.29704047110915      1.01258179823027      1.36360559663348
