13
 energy: -23.973933738249 gnorm: 0.000495972092 xtb: 6.7.1pre (5071a88)
C            1.41566864667138       -0.38867103514534       -0.09426408406824
C            0.04152931844067       -0.44891932774221        0.57993577378002
C           -0.64845102474117        0.94763514342537        0.59116605902685
O           -1.73924169723924        0.83200605404787       -0.26190764116370
C           -1.53600367503195       -0.37958959813785       -1.08000075934142
O           -1.09408604291746       -0.26088355529128       -2.25994306249275
O           -0.84621286322027       -1.25726802248084       -0.12977421029220
H            2.07045469600627        0.31929398533803        0.41532425970716
H            1.26670860097139       -0.08196821687350       -1.12726784147119
H            1.87462977398506       -1.37619878538045       -0.08719401612765
H            0.14062944131852       -0.84950281709200        1.60399211121734
H            0.05402417631424        1.72786185952295        0.24851247653304
H           -0.99964934055725        1.21620432580941        1.60142092469277
