12
Coordinates from ORCA-job DMC_cation_opt E -343.168143382884
  C      -2.325777     -0.109477      0.121493
  O      -1.046646     -0.743033      0.323615
  C      -0.000092      0.002011     -0.062560
  O      -0.050681      1.110104     -0.543264
  O       1.113065     -0.705645      0.181777
  C       2.332101     -0.028203     -0.183849
  H      -3.062051     -0.829634      0.478814
  H      -2.482042      0.107935     -0.938799
  H      -2.387054      0.820609      0.693456
  H       2.435095      0.904221      0.378149
  H       2.340775      0.192898     -1.254808
  H       3.133306     -0.721786      0.072019
12
Coordinates from ORCA-job DMC_cation_opt E -343.171330432002
  C      -2.359341     -0.128110      0.121784
  O      -1.045605     -0.677236      0.368265
  C      -0.000402      0.048357     -0.055198
  O      -0.052143      1.149326     -0.556161
  O       1.115577     -0.639854      0.226407
  C       2.366032     -0.045664     -0.187963
  H      -3.061142     -0.893367      0.450216
  H      -2.475753      0.103374     -0.950018
  H      -2.491304      0.796671      0.699573
  H       2.540063      0.883828      0.370736
  H       2.333167      0.188313     -1.265037
  H       3.130852     -0.785639      0.043439
12
Coordinates from ORCA-job DMC_cation_opt E -343.173495456948
  C      -2.381657     -0.154000      0.101250
  O      -1.040391     -0.585789      0.437466
  C       0.003207      0.129499      0.021869
  O      -0.051475      1.210418     -0.529595
  O       1.116331     -0.548181      0.296461
  C       2.386364     -0.070841     -0.211228
  H      -3.030947     -0.975132      0.399433
  H      -2.438062      0.088249     -0.973796
  H      -2.615854      0.755567      0.678137
  H       2.662317      0.847455      0.332453
  H       2.293036      0.171163     -1.283727
  H       3.097131     -0.868409     -0.002680
12
Coordinates from ORCA-job DMC_cation_opt E -343.174966562587
  C      -2.400192     -0.166533      0.091944
  O      -1.036606     -0.522032      0.451803
  C       0.001722      0.152889      0.006621
  O      -0.051576      1.255555     -0.517330
  O       1.112287     -0.484269      0.311567
  C       2.403963     -0.082782     -0.222865
  H      -2.997963     -1.022647      0.400001
  H      -2.453937      0.081965     -0.975741
  H      -2.681808      0.722705      0.680114
  H       2.729253      0.817235      0.325143
  H       2.308689      0.164856     -1.287817
  H       3.066167     -0.916942      0.002603
12
Coordinates from ORCA-job DMC_cation_opt E -343.176065520214
  C      -2.408570     -0.169527      0.079244
  O      -1.036862     -0.464984      0.495987
  C       0.004166      0.182543      0.052763
  O      -0.051823      1.273226     -0.516395
  O       1.116309     -0.427262      0.355110
  C       2.410693     -0.085451     -0.236597
  H      -2.966856     -1.059583      0.366651
  H      -2.436122      0.074179     -0.985043
  H      -2.756545      0.689037      0.670035
  H       2.803290      0.785599      0.306060
  H       2.290275      0.157462     -1.294605
  H       3.032044     -0.955237     -0.027167
12
Coordinates from ORCA-job DMC_cation_opt E -343.177182526835
  C      -2.415150     -0.151649      0.077958
  O      -1.041482     -0.444761      0.533240
  C       0.006353      0.161071      0.080965
  O      -0.053524      1.232376     -0.552526
  O       1.125038     -0.406773      0.391251
  C       2.416382     -0.067270     -0.238755
  H      -2.958623     -1.062229      0.329727
  H      -2.418530      0.081144     -0.984440
  H      -2.798329      0.677194      0.676240
  H       2.845960      0.774718      0.307336
  H       2.273015      0.164571     -1.291688
  H       3.018889     -0.958390     -0.063263
12
Coordinates from ORCA-job DMC_cation_opt E -343.177899082278
  C      -2.413869     -0.126665      0.086895
  O      -1.046167     -0.476956      0.546247
  C       0.007596      0.101940      0.084191
  O      -0.055463      1.153807     -0.603411
  O       1.132452     -0.438616      0.403484
  C       2.415372     -0.042306     -0.229706
  H      -2.984042     -1.028578      0.307820
  H      -2.402812      0.098490     -0.977553
  H      -2.775867      0.702385      0.692615
  H       2.824896      0.799234      0.326417
  H       2.257871      0.181118     -1.282879
  H       3.040032     -0.923852     -0.088075
12
Coordinates from ORCA-job DMC_cation_opt E -343.178430274885
  C      -2.411098     -0.105083      0.098741
  O      -1.048787     -0.531294      0.530264
  C       0.007542      0.031286      0.065175
  O      -0.057268      1.079835     -0.648830
  O       1.134802     -0.492511      0.387406
  C       2.413451     -0.020896     -0.217647
  H      -3.022721     -0.980181      0.311828
  H      -2.405608      0.116746     -0.968380
  H      -2.712029      0.741302      0.714478
  H       2.762778      0.836860      0.355294
  H       2.261456      0.197781     -1.274557
  H       3.077483     -0.873846     -0.087728
12
Coordinates from ORCA-job DMC_cation_opt E -343.178825253508
  C      -2.407140     -0.089251      0.111145
  O      -1.051097     -0.596325      0.487912
  C       0.006526     -0.034835      0.033191
  O      -0.058612      1.026231     -0.681458
  O       1.133688     -0.557419      0.345003
  C       2.410682     -0.005283     -0.204873
  H      -3.062678     -0.925151      0.343717
  H      -2.427324      0.131903     -0.958067
  H      -2.619748      0.780942      0.732706
  H       2.671879      0.874315      0.384127
  H       2.284206      0.211913     -1.267586
  H       3.119617     -0.817039     -0.059774
12
Coordinates from ORCA-job DMC_cation_opt E -343.179035553559
  C      -2.408459     -0.088328      0.114676
  O      -1.052464     -0.625865      0.449713
  C       0.005596     -0.052429      0.013695
  O      -0.057936      1.031391     -0.671358
  O       1.131074     -0.587222      0.306778
  C       2.412435     -0.004347     -0.201498
  H      -3.076752     -0.903444      0.380133
  H      -2.455955      0.129968     -0.954599
  H      -2.572031      0.796182      0.732097
  H       2.623846      0.888148      0.389393
  H       2.313021      0.210545     -1.267882
  H       3.137623     -0.794597     -0.025104
12
Coordinates from ORCA-job DMC_cation_opt E -343.179233680193
  C      -2.413765     -0.090134      0.115747
  O      -1.054950     -0.652160      0.397261
  C       0.004601     -0.059882     -0.004865
  O      -0.055782      1.058695     -0.634303
  O       1.127672     -0.613708      0.254588
  C       2.417908     -0.006067     -0.201148
  H      -3.083147     -0.886177      0.429955
  H      -2.500641      0.118434     -0.952061
  H      -2.531098      0.808538      0.723067
  H       2.581268      0.899607      0.384763
  H       2.357928      0.199410     -1.271376
  H       3.150006     -0.776556      0.024415
12
Coordinates from ORCA-job DMC_cation_opt E -343.179338695456
  C      -2.415848     -0.090729      0.116656
  O      -1.058027     -0.674468      0.349550
  C       0.003766     -0.062862     -0.019845
  O      -0.053355      1.083575     -0.593534
  O       1.125331     -0.636199      0.206978
  C       2.420111     -0.006640     -0.200526
  H      -3.083225     -0.870594      0.472624
  H      -2.539420      0.104004     -0.949558
  H      -2.499005      0.819272      0.712501
  H       2.547530      0.909203      0.378252
  H       2.397033      0.186104     -1.273954
  H       3.155109     -0.760665      0.066899
12
Coordinates from ORCA-job DMC_cation_opt E -343.179386317682
  C      -2.417100     -0.087466      0.118057
  O      -1.060583     -0.690882      0.312617
  C       0.003179     -0.071407     -0.031863
  O      -0.051633      1.095024     -0.564708
  O       1.123634     -0.652884      0.169692
  C       2.421420     -0.003288     -0.199195
  H      -3.081806     -0.855931      0.503060
  H      -2.570345      0.091354     -0.946390
  H      -2.475144      0.828793      0.706419
  H       2.523133      0.916888      0.376913
  H       2.428209      0.176296     -1.274455
  H       3.157038     -0.746498      0.095895
12
Coordinates from ORCA-job DMC_cation_opt E -343.179403860018
  C      -2.415702     -0.087714      0.117425
  O      -1.061145     -0.693722      0.305543
  C       0.003073     -0.067956     -0.032601
  O      -0.050858      1.102805     -0.549236
  O       1.123333     -0.655974      0.162028
  C       2.419945     -0.003512     -0.199530
  H      -3.081418     -0.852591      0.508799
  H      -2.574776      0.082923     -0.947803
  H      -2.471303      0.831314      0.702215
  H       2.519187      0.918030      0.375365
  H       2.432507      0.170353     -1.275994
  H       3.157157     -0.743956      0.099832
12
Coordinates from ORCA-job DMC_cation_opt E -343.179407765745
  C      -2.415537     -0.087129      0.117526
  O      -1.060803     -0.692088      0.310085
  C       0.003144     -0.068429     -0.031394
  O      -0.051156      1.100468     -0.553049
  O       1.123498     -0.654423      0.166286
  C       2.419763     -0.002904     -0.199380
  H      -3.082800     -0.852895      0.504539
  H      -2.571147      0.082889     -0.948385
  H      -2.473205      0.830825      0.703653
  H       2.521456      0.917132      0.377358
  H       2.428878      0.171105     -1.275925
  H       3.157907     -0.744549      0.094730
12
Coordinates from ORCA-job DMC_cation_opt E -343.179408153088
  C      -2.415686     -0.087130      0.117591
  O      -1.060692     -0.691500      0.310548
  C       0.003142     -0.068076     -0.031463
  O      -0.051231      1.100658     -0.553602
  O       1.123429     -0.653913      0.166565
  C       2.419913     -0.002883     -0.199297
  H      -3.083027     -0.852968      0.504274
  H      -2.571140      0.082140     -0.948494
  H      -2.473280      0.830767      0.703788
  H       2.521680      0.916682      0.378144
  H       2.428820      0.171096     -1.275876
  H       3.158071     -0.744874      0.093863
