12
Coordinates from ORCA-job DMC_cation_opt E -343.179408153088
  C          -2.41568596466747     -0.08712970937542      0.11759147535888
  O          -1.06069245297252     -0.69149972922100      0.31054815383922
  C           0.00314194586574     -0.06807601058118     -0.03146263693947
  O          -0.05123051574412      1.10065787422536     -0.55360187239212
  O           1.12342923037281     -0.65391292514429      0.16656540244073
  C           2.41991304803872     -0.00288330509597     -0.19929724289366
  H          -3.08302705591938     -0.85296789712435      0.50427440099303
  H          -2.57113977800316      0.08214013573852     -0.94849376945013
  H          -2.47327999414295      0.83076661069857      0.70378842208905
  H           2.52167976057934      0.91668241935529      0.37814352834736
  H           2.42882018415794      0.17109606668598     -1.27587609995770
  H           3.15807059243505     -0.74487353016151      0.09386323856483
