13
 energy: -23.973933662390 gnorm: 0.000501871471 xtb: 6.7.1pre (5071a88)
C            1.41555881570309       -0.38873725246417       -0.09436392253977
C            0.04149991861769       -0.44887945457966        0.58000935850388
C           -0.64842224832541        0.94770691591691        0.59121558500392
O           -1.73902257714885        0.83219979253853       -0.26210290599480
C           -1.53587917695440       -0.37957512680809       -1.08000800218992
O           -1.09379872937384       -0.26107186299125       -2.25990807520027
O           -0.84637444767417       -1.25721436862422       -0.12956017604430
H            2.07045859292885        0.31921017730918        0.41510345043808
H            1.26645933015762       -0.08207603760529       -1.12736115443912
H            1.87446783111036       -1.37629065971578       -0.08732389239619
H            0.14069195926273       -0.84939710625560        1.60407196895767
H            0.05417466308905        1.72793436854094        0.24878731273392
H           -0.99981392139247        1.21619062473864        1.60144044316686
