17
Coordinates from ORCA-job TMP_optfreq E -761.972207847549
  C           2.35500860362190     -1.10295489313900     -0.11848428966722
  O           1.44725696295590     -0.19907656650848      0.55258695827478
  P          -0.00599699000750      0.00904103268150     -0.08852263155107
  O          -0.05582007399297      0.15820990774257     -1.56046840935478
  O          -0.82054997537066     -1.22608750426531      0.52533371962854
  C          -2.13837961509697     -1.49339785031449     -0.00718755457642
  O          -0.57274795739406      1.23879019923657      0.76738567225189
  C          -0.20741324528272      2.57385034580751      0.34814449539210
  H           3.32163778198372     -0.98105531668152      0.37259424714414
  H           2.43412615086175     -0.84790887256717     -1.17973973504933
  H           2.01179443626027     -2.13708754216881     -0.00604018204655
  H          -2.44673470231928     -2.45107048110415      0.41489582954582
  H          -2.10472478863179     -1.55348969704092     -1.09932833102411
  H          -2.83841712582030     -0.71042249239470      0.30378381961115
  H           0.85454258006146      2.75518046401571      0.54600897900879
  H          -0.81448352600600      3.25561559078227      0.94565068416902
  H          -0.41909852582273      2.71186368591825     -0.71661328175682
