17
TMP G2 r2SCAN-3c Opt from G1 charge=0 mult=1
C      2.3550090000    -1.1029550000    -0.1184840000
O      1.4472570000    -0.1990770000     0.5525870000
P     -0.0059970000     0.0090410000    -0.0885230000
O     -0.0558200000     0.1582100000    -1.5604680000
O     -0.8205500000    -1.2260880000     0.5253340000
C     -2.1383800000    -1.4933980000    -0.0071880000
O     -0.5727480000     1.2387900000     0.7673860000
C     -0.2074130000     2.5738500000     0.3481440000
H      3.3216380000    -0.9810550000     0.3725940000
H      2.4341260000    -0.8479090000    -1.1797400000
H      2.0117940000    -2.1370880000    -0.0060400000
H     -2.4467350000    -2.4510700000     0.4148960000
H     -2.1047250000    -1.5534900000    -1.0993280000
H     -2.8384170000    -0.7104220000     0.3037840000
H      0.8545430000     2.7551800000     0.5460090000
H     -0.8144840000     3.2556160000     0.9456510000
H     -0.4190990000     2.7118640000    -0.7166130000
