17
Coordinates from ORCA-job TMP_optfreq E -761.969290574310
  C       2.322150     -1.110107     -0.121247
  O       1.446904     -0.246841      0.586848
  P      -0.001093      0.003392     -0.032977
  O      -0.049654      0.153953     -1.490261
  O      -0.851133     -1.206662      0.564270
  C      -2.124125     -1.458547     -0.009074
  O      -0.530506      1.251111      0.807508
  C      -0.191013      2.546951      0.340395
  H       3.337969     -0.827674      0.154216
  H       2.176116     -0.993877     -1.196468
  H       2.136428     -2.148361      0.159357
  H      -2.350663     -2.509116      0.170324
  H      -2.100650     -1.254852     -1.080809
  H      -2.881254     -0.829776      0.462504
  H       0.789643      2.839662      0.719716
  H      -0.952799      3.229495      0.716423
  H      -0.176319      2.561249     -0.750724
17
Coordinates from ORCA-job TMP_optfreq E -761.971362886689
  C       2.348975     -1.122325     -0.119843
  O       1.446469     -0.237437      0.565248
  P      -0.002632      0.006269     -0.063365
  O      -0.051421      0.157201     -1.527871
  O      -0.846702     -1.208603      0.541636
  C      -2.148756     -1.476117     -0.006108
  O      -0.537933      1.250638      0.784797
  C      -0.192552      2.575790      0.347118
  H       3.359313     -0.847307      0.189571
  H       2.250441     -1.015225     -1.205405
  H       2.148832     -2.161669      0.164880
  H      -2.374146     -2.522899      0.207492
  H      -2.158413     -1.307020     -1.088209
  H      -2.899064     -0.835176      0.470976
  H       0.795664      2.855226      0.730111
  H      -0.946614      3.251683      0.755441
  H      -0.191461      2.636972     -0.746470
17
Coordinates from ORCA-job TMP_optfreq E -761.971718280462
  C       2.356611     -1.124490     -0.118589
  O       1.445157     -0.227609      0.551977
  P      -0.003962      0.008347     -0.084281
  O      -0.053139      0.159210     -1.554105
  O      -0.840522     -1.210701      0.527586
  C      -2.155103     -1.482289     -0.004393
  O      -0.545587      1.248005      0.770250
  C      -0.193249      2.583653      0.349967
  H       3.360191     -0.862121      0.221451
  H       2.290101     -1.008639     -1.205541
  H       2.134294     -2.161043      0.158856
  H      -2.383425     -2.521074      0.241564
  H      -2.173283     -1.344783     -1.090742
  H      -2.893280     -0.822917      0.465922
  H       0.803568      2.843251      0.723836
  H      -0.934332      3.254947      0.787953
  H      -0.214040      2.668252     -0.741711
17
Coordinates from ORCA-job TMP_optfreq E -761.971891460804
  C       2.358626     -1.122663     -0.117887
  O       1.444435     -0.217338      0.543782
  P      -0.005213      0.009922     -0.097815
  O      -0.055008      0.160414     -1.571357
  O      -0.833901     -1.213710      0.519014
  C      -2.155183     -1.486068     -0.003832
  O      -0.553972      1.245145      0.761064
  C      -0.194556      2.585307      0.351358
  H       3.354806     -0.881146      0.256725
  H       2.323870     -0.985362     -1.203349
  H       2.107751     -2.157235      0.139600
  H      -2.392628     -2.512448      0.281130
  H      -2.169603     -1.387985     -1.094031
  H      -2.880959     -0.800221      0.446120
  H       0.815533      2.822093      0.702388
  H      -0.915165      3.254683      0.824354
  H      -0.248833      2.686611     -0.737263
17
Coordinates from ORCA-job TMP_optfreq E -761.972017745891
  C       2.357545     -1.118060     -0.117882
  O       1.444756     -0.207477      0.540969
  P      -0.006223      0.010931     -0.102857
  O      -0.056784      0.160891     -1.578196
  O      -0.827593     -1.217578      0.516213
  C      -2.151132     -1.489051     -0.004642
  O      -0.562415      1.242669      0.757815
  C      -0.196964      2.583507      0.351629
  H       3.345455     -0.906715      0.294325
  H       2.356465     -0.948836     -1.198996
  H       2.074360     -2.151640      0.106192
  H      -2.405196     -2.497359      0.325844
  H      -2.152196     -1.439751     -1.097818
  H      -2.865719     -0.770511      0.409766
  H       0.830180      2.797045      0.664790
  H      -0.888040      3.253942      0.864932
  H      -0.296497      2.697995     -0.732083
17
Coordinates from ORCA-job TMP_optfreq E -761.972129744077
  C       2.354861     -1.110930     -0.118446
  O       1.446066     -0.198438      0.543425
  P      -0.006899      0.011231     -0.099838
  O      -0.058169      0.160568     -1.575061
  O      -0.821710     -1.222417      0.518658
  C      -2.144042     -1.491914     -0.006615
  O      -0.570719      1.240482      0.760135
  C      -0.200957      2.579291      0.350773
  H       3.332190     -0.941956      0.335899
  H       2.393535     -0.899085     -1.191087
  H       2.035805     -2.143544      0.055818
  H      -2.423695     -2.474288      0.376476
  H      -2.124594     -1.502916     -1.100419
  H      -2.847908     -0.735703      0.355402
  H       0.845873      2.769493      0.608362
  H      -0.850376      3.253672      0.910776
  H      -0.359260      2.706456     -0.724256
17
Coordinates from ORCA-job TMP_optfreq E -761.972188330283
  C       2.353254     -1.104565     -0.119062
  O       1.447388     -0.195326      0.549838
  P      -0.006790      0.010363     -0.091498
  O      -0.057895      0.159335     -1.565028
  O      -0.819194     -1.225993      0.524262
  C      -2.138359     -1.493552     -0.008203
  O      -0.574649      1.239215      0.766016
  C      -0.205111      2.575073      0.348979
  H       3.321693     -0.972972      0.365584
  H       2.423411     -0.857003     -1.182454
  H       2.010260     -2.136538      0.008713
  H      -2.441129     -2.454109      0.410934
  H      -2.102846     -1.549198     -1.100241
  H      -2.836198     -0.712018      0.309629
  H       0.854955      2.752419      0.557804
  H      -0.818870      3.254586      0.941942
  H      -0.409921      2.710284     -0.717214
17
Coordinates from ORCA-job TMP_optfreq E -761.972203976946
  C       2.353628     -1.102738     -0.119101
  O       1.447661     -0.197251      0.553342
  P      -0.006366      0.009447     -0.087057
  O      -0.056853      0.158410     -1.559289
  O      -0.819951     -1.226539      0.526932
  C      -2.137385     -1.493636     -0.008234
  O      -0.573902      1.239063      0.768891
  C      -0.206746      2.573725      0.348101
  H       3.320472     -0.981290      0.371525
  H       2.431233     -0.846088     -1.179965
  H       2.007897     -2.135736     -0.005728
  H      -2.446788     -2.449787      0.416366
  H      -2.099293     -1.557153     -1.099893
  H      -2.835989     -0.708269      0.299247
  H       0.855871      2.751876      0.544232
  H      -0.812131      3.255849      0.946792
  H      -0.421359      2.710118     -0.716160
17
Coordinates from ORCA-job TMP_optfreq E -761.972207163682
  C       2.354449     -1.102859     -0.118775
  O       1.447445     -0.198731      0.553342
  P      -0.006115      0.009112     -0.087257
  O      -0.056169      0.158186     -1.559146
  O      -0.820576     -1.226212      0.526414
  C      -2.138006     -1.493447     -0.007651
  O      -0.572944      1.239001      0.768443
  C      -0.207130      2.573771      0.348068
  H       3.321614     -0.980728      0.371168
  H       2.432057     -0.847575     -1.180058
  H       2.011073     -2.136818     -0.005663
  H      -2.446813     -2.450962      0.414436
  H      -2.102560     -1.553892     -1.099679
  H      -2.838033     -0.710106      0.302274
  H       0.854909      2.754604      0.545697
  H      -0.814048      3.256043      0.945134
  H      -0.419152      2.710614     -0.716747
17
Coordinates from ORCA-job TMP_optfreq E -761.972207847549
  C       2.355009     -1.102955     -0.118484
  O       1.447257     -0.199077      0.552587
  P      -0.005997      0.009041     -0.088523
  O      -0.055820      0.158210     -1.560468
  O      -0.820550     -1.226088      0.525334
  C      -2.138380     -1.493398     -0.007188
  O      -0.572748      1.238790      0.767386
  C      -0.207413      2.573850      0.348144
  H       3.321638     -0.981055      0.372594
  H       2.434126     -0.847909     -1.179740
  H       2.011794     -2.137088     -0.006040
  H      -2.446735     -2.451070      0.414896
  H      -2.104725     -1.553490     -1.099328
  H      -2.838417     -0.710422      0.303784
  H       0.854543      2.755180      0.546009
  H      -0.814484      3.255616      0.945651
  H      -0.419099      2.711864     -0.716613
