17
Coordinates from ORCA-job TMP_cation_cpcm_40_default E -761.681690381445
  C       2.322150     -1.110107     -0.121247
  O       1.446904     -0.246841      0.586848
  P      -0.001093      0.003392     -0.032977
  O      -0.049654      0.153953     -1.490261
  O      -0.851133     -1.206662      0.564270
  C      -2.124125     -1.458547     -0.009074
  O      -0.530506      1.251111      0.807508
  C      -0.191013      2.546951      0.340395
  H       3.337969     -0.827674      0.154216
  H       2.176116     -0.993877     -1.196468
  H       2.136428     -2.148361      0.159357
  H      -2.350663     -2.509116      0.170324
  H      -2.100650     -1.254852     -1.080809
  H      -2.881254     -0.829776      0.462504
  H       0.789643      2.839662      0.719716
  H      -0.952799      3.229495      0.716423
  H      -0.176319      2.561249     -0.750724
17
Coordinates from ORCA-job TMP_cation_cpcm_40_default E -761.690344515782
  C       2.379155     -1.091602     -0.115255
  O       1.435973     -0.253545      0.566358
  P       0.002395     -0.027162     -0.101352
  O      -0.005175      0.100419     -1.574670
  O      -0.852542     -1.245615      0.480924
  C      -2.197134     -1.482562      0.020244
  O      -0.562838      1.232702      0.703235
  C      -0.178155      2.576685      0.336417
  H       3.373191     -0.799214      0.223402
  H       2.289431     -0.976966     -1.205067
  H       2.184220     -2.143598      0.145839
  H      -2.409003     -2.537376      0.194708
  H      -2.289314     -1.240858     -1.043105
  H      -2.902835     -0.860570      0.590192
  H       0.765831      2.841518      0.831102
  H      -0.971921      3.234858      0.691663
  H      -0.061281      2.672885     -0.744635
17
Coordinates from ORCA-job TMP_cation_cpcm_40_default E -761.695339561751
  C       2.421083     -1.080191     -0.112329
  O       1.422303     -0.255826      0.536206
  P       0.003550     -0.045343     -0.163868
  O       0.019038      0.053814     -1.655678
  O      -0.852400     -1.269637      0.397115
  C      -2.246971     -1.488535      0.051356
  O      -0.598196      1.218881      0.596346
  C      -0.171539      2.591973      0.335285
  H       3.389096     -0.773156      0.280750
  H       2.379133     -0.971632     -1.205092
  H       2.217922     -2.133386      0.140792
  H      -2.437736     -2.549227      0.204943
  H      -2.434299     -1.191509     -0.986867
  H      -2.882472     -0.882691      0.714740
  H       0.713183      2.812617      0.945151
  H      -1.002280      3.225500      0.642911
  H       0.060583      2.738348     -0.721762
17
Coordinates from ORCA-job TMP_cation_cpcm_40_default E -761.699990256487
  C       2.461047     -1.065036     -0.109546
  O       1.401071     -0.253438      0.489344
  P       0.005977     -0.066489     -0.244102
  O       0.048338     -0.020703     -1.756887
  O      -0.852383     -1.294907      0.283806
  C      -2.291027     -1.473268      0.098067
  O      -0.649236      1.197294      0.440587
  C      -0.169809      2.587700      0.335981
  H       3.391110     -0.728745      0.343599
  H       2.473007     -0.956646     -1.199481
  H       2.258580     -2.115072      0.140583
  H      -2.469351     -2.541454      0.195731
  H      -2.590008     -1.082514     -0.880934
  H      -2.808505     -0.905526      0.883728
  H       0.601171      2.735960      1.097675
  H      -1.043145      3.202613      0.541960
  H       0.233162      2.780231     -0.660109
17
Coordinates from ORCA-job TMP_cation_cpcm_40_default E -761.702803924562
  C       2.484654     -1.041248     -0.109089
  O       1.376604     -0.234545      0.430668
  P       0.004147     -0.084738     -0.324867
  O       0.069532     -0.116028     -1.850609
  O      -0.855608     -1.314637      0.175989
  C      -2.313092     -1.441830      0.147332
  O      -0.701719      1.177832      0.268295
  C      -0.170694      2.556989      0.344336
  H       3.378348     -0.662805      0.381662
  H       2.537604     -0.939171     -1.195231
  H       2.295683     -2.084683      0.158596
  H      -2.507450     -2.510827      0.177686
  H      -2.703868     -0.956000     -0.752194
  H      -2.698800     -0.926983      1.035969
  H       0.437592      2.619709      1.248662
  H      -1.055480      3.185652      0.408356
  H       0.422547      2.773313     -0.545562
17
Coordinates from ORCA-job TMP_cation_cpcm_40_default E -761.704034957424
  C       2.488620     -1.011594     -0.110764
  O       1.360548     -0.203562      0.387847
  P      -0.004220     -0.094649     -0.369791
  O       0.070452     -0.191786     -1.895162
  O      -0.859966     -1.328574      0.122618
  C      -2.316908     -1.420217      0.173220
  O      -0.736168      1.171230      0.158945
  C      -0.165025      2.519423      0.354756
  H       3.366522     -0.598047      0.380719
  H       2.553647     -0.927628     -1.196854
  H       2.316086     -2.047579      0.188368
  H      -2.538763     -2.484533      0.167585
  H      -2.748581     -0.886462     -0.678133
  H      -2.631273     -0.940063      1.107282
  H       0.319552      2.526326      1.332335
  H      -1.022601      3.187175      0.320716
  H       0.548079      2.730542     -0.443688
17
Coordinates from ORCA-job TMP_cation_cpcm_40_default E -761.705041552735
  C       2.487587     -0.974099     -0.116823
  O       1.350067     -0.142796      0.318773
  P      -0.016716     -0.098317     -0.423828
  O       0.051804     -0.295891     -1.940049
  O      -0.860785     -1.337140      0.081765
  C      -2.311946     -1.397694      0.194975
  O      -0.769525      1.178395      0.027504
  C      -0.158423      2.471820      0.378141
  H       3.359108     -0.514679      0.345050
  H       2.555849     -0.952584     -1.205087
  H       2.328980     -1.987016      0.256230
  H      -2.564972     -2.455339      0.175035
  H      -2.776017     -0.838098     -0.621608
  H      -2.570237     -0.939152      1.156866
  H       0.164883      2.411768      1.418245
  H      -0.952818      3.202310      0.243105
  H       0.683161      2.668511     -0.288293
17
Coordinates from ORCA-job TMP_cation_cpcm_40_default E -761.705530983984
  C       2.484138     -0.954421     -0.122849
  O       1.353627     -0.083841      0.251417
  P      -0.024000     -0.091837     -0.464560
  O       0.019554     -0.371867     -1.968358
  O      -0.852852     -1.334069      0.069912
  C      -2.300632     -1.386193      0.202689
  O      -0.782840      1.197894     -0.062571
  C      -0.156924      2.445692      0.403252
  H       3.361999     -0.464439      0.293622
  H       2.546858     -1.017185     -1.209777
  H       2.324131     -1.932384      0.332954
  H      -2.564191     -2.441720      0.191051
  H      -2.778382     -0.830339     -0.608731
  H      -2.543896     -0.926074      1.168257
  H       0.056612      2.336816      1.467554
  H      -0.898855      3.220321      0.221469
  H       0.755652      2.633645     -0.165331
17
Coordinates from ORCA-job TMP_cation_cpcm_40_default E -761.705915355751
  C       2.479738     -0.947033     -0.129783
  O       1.371364     -0.015161      0.157019
  P      -0.023010     -0.077504     -0.518181
  O      -0.025570     -0.449988     -2.003111
  O      -0.831612     -1.319082      0.064758
  C      -2.277781     -1.370149      0.208814
  O      -0.781185      1.229258     -0.164695
  C      -0.167335      2.424996      0.437327
  H       3.373439     -0.432758      0.217819
  H       2.527404     -1.134431     -1.203254
  H       2.305320     -1.862586      0.436671
  H      -2.543187     -2.425432      0.215695
  H      -2.766032     -0.828601     -0.606367
  H      -2.515321     -0.897546      1.170287
  H      -0.071586      2.255211      1.510905
  H      -0.860170      3.236830      0.225280
  H       0.805525      2.613976     -0.019183
17
Coordinates from ORCA-job TMP_cation_cpcm_40_default E -761.706158496660
  C       2.474118     -0.949863     -0.132541
  O       1.390593      0.029723      0.083327
  P      -0.016004     -0.064260     -0.562518
  O      -0.059036     -0.494472     -2.031467
  O      -0.807925     -1.301176      0.066258
  C      -2.254140     -1.354824      0.214685
  O      -0.768264      1.256476     -0.240514
  C      -0.182506      2.412782      0.461237
  H       3.382891     -0.430788      0.164716
  H       2.507428     -1.230436     -1.186415
  H       2.281298     -1.810573      0.509254
  H      -2.516133     -2.410821      0.235041
  H      -2.746843     -0.824259     -0.605118
  H      -2.491481     -0.871077      1.170794
  H      -0.159149      2.190097      1.529307
  H      -0.853879      3.241470      0.245371
  H       0.819030      2.612002      0.078585
17
Coordinates from ORCA-job TMP_cation_cpcm_40_default E -761.706538958769
  C       2.462120     -0.963509     -0.132413
  O       1.421068      0.077049     -0.012270
  P       0.000554     -0.044136     -0.626385
  O      -0.097396     -0.532121     -2.074007
  O      -0.767145     -1.270376      0.069475
  C      -2.213467     -1.328835      0.227785
  O      -0.737296      1.296522     -0.344376
  C      -0.213010      2.397575      0.486869
  H       3.392905     -0.456054      0.110825
  H       2.476184     -1.352839     -1.152039
  H       2.236136     -1.749652      0.589743
  H      -2.468989     -2.386195      0.256589
  H      -2.713041     -0.803085     -0.590778
  H      -2.446137     -0.838188      1.181606
  H      -0.270662      2.095977      1.534355
  H      -0.874564      3.236127      0.279922
  H       0.812741      2.621740      0.195098
17
Coordinates from ORCA-job TMP_cation_cpcm_40_default E -761.706965077290
  C       2.448350     -0.994334     -0.131693
  O       1.466792      0.110202     -0.118448
  P       0.033783     -0.019621     -0.706246
  O      -0.125913     -0.554900     -2.129904
  O      -0.708294     -1.227324      0.064423
  C      -2.152140     -1.279243      0.255176
  O      -0.680001      1.343644     -0.474130
  C      -0.273817      2.371486      0.507564
  H       3.404407     -0.518607      0.073213
  H       2.443440     -1.480960     -1.108909
  H       2.174124     -1.698422      0.655751
  H      -2.411373     -2.335886      0.275450
  H      -2.666510     -0.733479     -0.540298
  H      -2.354974     -0.799001      1.221448
  H      -0.428778      1.971736      1.511427
  H      -0.938468      3.208535      0.306174
  H       0.769371      2.636174      0.339002
17
Coordinates from ORCA-job TMP_cation_cpcm_40_default E -761.707255166940
  C       2.441103     -1.015261     -0.130791
  O       1.483085      0.110239     -0.135594
  P       0.052821     -0.010908     -0.736223
  O      -0.112171     -0.546425     -2.156491
  O      -0.682495     -1.205461      0.064099
  C      -2.122833     -1.249680      0.276819
  O      -0.650387      1.359724     -0.534145
  C      -0.310115      2.357037      0.503160
  H       3.402719     -0.559234      0.091981
  H       2.443829     -1.501000     -1.108503
  H       2.139125     -1.715087      0.650091
  H      -2.390843     -2.304456      0.280452
  H      -2.645201     -0.678457     -0.495019
  H      -2.300536     -0.788462      1.257846
  H      -0.489362      1.912617      1.483763
  H      -0.990465      3.182871      0.308810
  H       0.731727      2.651943      0.379744
17
Coordinates from ORCA-job TMP_cation_cpcm_40_default E -761.707462048530
  C       2.443505     -1.020132     -0.130171
  O       1.472627      0.094018     -0.099766
  P       0.055362     -0.017363     -0.732863
  O      -0.072401     -0.537376     -2.159984
  O      -0.689855     -1.202633      0.063970
  C      -2.125778     -1.237293      0.289937
  O      -0.650987      1.350292     -0.551313
  C      -0.319428      2.349318      0.485889
  H       3.394635     -0.564993      0.136331
  H       2.474747     -1.449253     -1.133267
  H       2.136898     -1.762968      0.607596
  H      -2.407926     -2.288631      0.274819
  H      -2.652019     -0.640826     -0.459752
  H      -2.283564     -0.800048      1.286003
  H      -0.480299      1.899596      1.467195
  H      -1.012420      3.167311      0.303221
  H       0.716903      2.660983      0.352154
17
Coordinates from ORCA-job TMP_cation_cpcm_40_default E -761.707534450996
  C       2.454336     -1.031463     -0.135540
  O       1.492917      0.091652     -0.130103
  P       0.074282     -0.017427     -0.756506
  O      -0.056883     -0.563517     -2.171899
  O      -0.679138     -1.185070      0.056277
  C      -2.107858     -1.192328      0.309176
  O      -0.619533      1.358962     -0.609897
  C      -0.361005      2.317312      0.484148
  H       3.407109     -0.580492      0.132984
  H       2.492642     -1.468691     -1.134662
  H       2.136769     -1.761200      0.610343
  H      -2.419675     -2.235313      0.275814
  H      -2.638490     -0.563555     -0.410263
  H      -2.232244     -0.782753      1.322373
  H      -0.574476      1.831377      1.437974
  H      -1.046936      3.139967      0.295299
  H       0.678183      2.642541      0.424482
17
Coordinates from ORCA-job TMP_cation_cpcm_40_default E -761.707590939551
  C       2.455805     -1.022196     -0.133222
  O       1.479805      0.087186     -0.112073
  P       0.063762     -0.024058     -0.744080
  O      -0.047140     -0.563501     -2.163534
  O      -0.695222     -1.191254      0.058369
  C      -2.123813     -1.205706      0.303972
  O      -0.636723      1.349920     -0.592814
  C      -0.341933      2.323671      0.477922
  H       3.401929     -0.564121      0.146958
  H       2.503809     -1.440225     -1.140083
  H       2.145022     -1.768223      0.599579
  H      -2.433515     -2.249197      0.262466
  H      -2.654171     -0.574284     -0.413233
  H      -2.255990     -0.806403      1.320472
  H      -0.523972      1.853691      1.446346
  H      -1.032131      3.145641      0.301658
  H       0.694478      2.649057      0.381297
17
Coordinates from ORCA-job TMP_cation_cpcm_40_default E -761.707625358646
  C       2.454831     -1.021764     -0.130308
  O       1.480833      0.089064     -0.119101
  P       0.062664     -0.023896     -0.747227
  O      -0.046477     -0.564089     -2.166706
  O      -0.696674     -1.187194      0.058791
  C      -2.124626     -1.206979      0.304366
  O      -0.637009      1.352532     -0.596167
  C      -0.339090      2.324561      0.475791
  H       3.400811     -0.564194      0.151013
  H       2.505298     -1.446813     -1.134205
  H       2.139268     -1.762644      0.605912
  H      -2.433817     -2.250082      0.247765
  H      -2.656098     -0.564791     -0.402187
  H      -2.257579     -0.825135      1.327617
  H      -0.507457      1.850561      1.444814
  H      -1.038181      3.141178      0.309764
  H       0.693302      2.659685      0.370071
17
Coordinates from ORCA-job TMP_cation_cpcm_40_default E -761.707667508464
  C       2.451432     -1.023641     -0.122157
  O       1.485624      0.093692     -0.138295
  P       0.063503     -0.022142     -0.758994
  O      -0.044874     -0.564974     -2.178216
  O      -0.695936     -1.175628      0.057384
  C      -2.121940     -1.204032      0.308778
  O      -0.632197      1.359765     -0.611842
  C      -0.338669      2.323773      0.469562
  H       3.397399     -0.568831      0.163211
  H       2.508527     -1.466294     -1.118253
  H       2.121718     -1.751234      0.621373
  H      -2.433864     -2.243450      0.207907
  H      -2.656111     -0.527835     -0.362602
  H      -2.248157     -0.873069      1.350606
  H      -0.478347      1.834195      1.435447
  H      -1.061238      3.124233      0.326468
  H       0.683130      2.685472      0.349622
17
Coordinates from ORCA-job TMP_cation_cpcm_40_default E -761.707679603028
  C       2.449463     -1.024322     -0.117956
  O       1.487153      0.095726     -0.144990
  P       0.064122     -0.021468     -0.763534
  O      -0.045451     -0.566015     -2.182472
  O      -0.694793     -1.171744      0.056531
  C      -2.120322     -1.201924      0.311099
  O      -0.629893      1.361665     -0.618568
  C      -0.339114      2.323165      0.465991
  H       3.395151     -0.570460      0.169716
  H       2.509776     -1.472811     -1.111301
  H       2.114256     -1.747682      0.627238
  H      -2.435314     -2.238062      0.186376
  H      -2.654309     -0.507624     -0.341362
  H      -2.241029     -0.897562      1.361492
  H      -0.465999      1.827413      1.430461
  H      -1.071683      3.116055      0.331874
  H       0.677984      2.695649      0.339405
17
Coordinates from ORCA-job TMP_cation_cpcm_40_default E -761.707695102178
  C       2.446636     -1.024367     -0.111290
  O       1.488134      0.098444     -0.151789
  P       0.064374     -0.021275     -0.767614
  O      -0.048091     -0.570053     -2.185509
  O      -0.693439     -1.168071      0.056442
  C      -2.119018     -1.199391      0.314232
  O      -0.627726      1.362396     -0.626503
  C      -0.338779      2.323129      0.459282
  H       3.391246     -0.571155      0.180758
  H       2.512632     -1.478024     -1.101922
  H       2.104804     -1.744166      0.634170
  H      -2.440808     -2.227857      0.147094
  H      -2.650265     -0.474346     -0.305659
  H      -2.230840     -0.941683      1.377622
  H      -0.444404      1.821262      1.423055
  H      -1.085489      3.104765      0.337995
  H       0.671033      2.710392      0.319637
17
Coordinates from ORCA-job TMP_cation_cpcm_40_default E -761.707704210581
  C       2.444739     -1.023307     -0.107669
  O       1.486812      0.099769     -0.150776
  P       0.062841     -0.021746     -0.765365
  O      -0.052334     -0.573525     -2.182262
  O      -0.693400     -1.167962      0.060349
  C      -2.120329     -1.201728      0.314420
  O      -0.629051      1.361351     -0.626037
  C      -0.335165      2.326536      0.454371
  H       3.388372     -0.570409      0.188020
  H       2.514319     -1.475527     -1.098716
  H       2.100742     -1.744571      0.635290
  H      -2.444660     -2.224713      0.119337
  H      -2.648092     -0.459252     -0.287180
  H      -2.231120     -0.973638      1.384324
  H      -0.424363      1.826042      1.420457
  H      -1.089313      3.102090      0.340558
  H       0.670002      2.720590      0.300879
17
Coordinates from ORCA-job TMP_cation_cpcm_40_default E -761.707712898098
  C       2.443633     -1.021931     -0.105684
  O       1.484561      0.100207     -0.145057
  P       0.060271     -0.022756     -0.758198
  O      -0.058694     -0.578937     -2.173197
  O      -0.694159     -1.168858      0.069536
  C      -2.123529     -1.207210      0.313212
  O      -0.631740      1.359721     -0.621349
  C      -0.329330      2.333236      0.449026
  H       3.386126     -0.569661      0.194671
  H       2.516712     -1.467684     -1.099379
  H       2.099246     -1.748140      0.632192
  H      -2.448106     -2.224611      0.090017
  H      -2.646592     -0.449845     -0.273361
  H      -2.238960     -1.008070      1.388060
  H      -0.402513      1.838734      1.419480
  H      -1.088621      3.104480      0.340488
  H       0.671696      2.731326      0.279542
17
Coordinates from ORCA-job TMP_cation_cpcm_40_default E -761.707717147105
  C       2.443783     -1.021545     -0.105895
  O       1.483439      0.099739     -0.139934
  P       0.058707     -0.023512     -0.751790
  O      -0.063001     -0.583341     -2.164986
  O      -0.694945     -1.168843      0.078433
  C      -2.125953     -1.211576      0.312277
  O      -0.633169      1.359193     -0.617520
  C      -0.325540      2.338839      0.445658
  H       3.385585     -0.570133      0.197997
  H       2.518870     -1.460967     -1.102215
  H       2.099570     -1.752070      0.627782
  H      -2.449254     -2.225724      0.072181
  H      -2.646080     -0.446463     -0.266605
  H      -2.247585     -1.029886      1.389423
  H      -0.391976      1.849701      1.419296
  H      -1.086233      3.108817      0.337838
  H       0.673781      2.737773      0.268060
17
Coordinates from ORCA-job TMP_cation_cpcm_40_default E -761.707719258543
  C       2.444544     -1.021860     -0.107035
  O       1.483564      0.099189     -0.137657
  P       0.058453     -0.023792     -0.748463
  O      -0.065033     -0.586163     -2.160326
  O      -0.695248     -1.167958      0.084204
  C      -2.126793     -1.213507      0.312224
  O      -0.633130      1.359525     -0.616188
  C      -0.324489      2.341816      0.444211
  H       3.386116     -0.571063      0.198528
  H       2.520203     -1.457809     -1.104798
  H       2.100416     -1.754396      0.624685
  H      -2.449051     -2.226198      0.064137
  H      -2.645775     -0.444978     -0.263097
  H      -2.252762     -1.040430      1.390308
  H      -0.392597      1.855631      1.419211
  H      -1.083837      3.112764      0.333642
  H       0.675419      2.739228      0.266414
17
Coordinates from ORCA-job TMP_cation_cpcm_40_default E -761.707720715947
  C       2.445411     -1.022392     -0.108002
  O       1.484238      0.098805     -0.137593
  P       0.058990     -0.023871     -0.747827
  O      -0.065191     -0.588012     -2.158785
  O      -0.695234     -1.166612      0.087015
  C      -2.126473     -1.213410      0.313210
  O      -0.632364      1.360013     -0.617206
  C      -0.325288      2.342638      0.443313
  H       3.386787     -0.571829      0.198514
  H       2.521396     -1.456978     -1.106295
  H       2.100915     -1.755408      0.623060
  H      -2.449136     -2.224636      0.059192
  H      -2.645257     -0.441363     -0.257554
  H      -2.253825     -1.047581      1.392344
  H      -0.399188      1.857586      1.418453
  H      -1.082097      3.115510      0.328639
  H       0.676317      2.737539      0.269522
17
Coordinates from ORCA-job TMP_cation_cpcm_40_default E -761.707722023165
  C       2.445882     -1.022660     -0.108660
  O       1.484782      0.098945     -0.138221
  P       0.059541     -0.023705     -0.748124
  O      -0.065633     -0.589244     -2.158307
  O      -0.694866     -1.165294      0.089086
  C      -2.125546     -1.213415      0.314568
  O      -0.631923      1.360412     -0.618324
  C      -0.326229      2.343277      0.442358
  H       3.387150     -0.572133      0.198201
  H       2.521742     -1.457063     -1.107015
  H       2.100937     -1.755480      0.622377
  H      -2.448907     -2.222657      0.053067
  H      -2.644440     -0.436632     -0.249600
  H      -2.253236     -1.056805      1.395073
  H      -0.408712      1.859740      1.417555
  H      -1.078765      3.119431      0.321813
  H       0.678223      2.733283      0.274154
17
Coordinates from ORCA-job TMP_cation_cpcm_40_default E -761.707722916718
  C       2.446005     -1.022486     -0.108580
  O       1.485024      0.099361     -0.139582
  P       0.059997     -0.023600     -0.749662
  O      -0.065343     -0.589982     -2.159385
  O      -0.694466     -1.164499      0.088881
  C      -2.124426     -1.212613      0.316142
  O      -0.631744      1.360369     -0.620195
  C      -0.327467      2.342684      0.441414
  H       3.387109     -0.571621      0.198239
  H       2.521955     -1.457794     -1.106521
  H       2.100635     -1.754617      0.622923
  H      -2.449701     -2.219483      0.047494
  H      -2.643532     -0.430573     -0.240461
  H      -2.250024     -1.065113      1.398204
  H      -0.417691      1.859911      1.416301
  H      -1.075969      3.121975      0.316147
  H       0.679639      2.728081      0.278642
17
Coordinates from ORCA-job TMP_cation_cpcm_40_default E -761.707723452210
  C       2.445747     -1.021960     -0.108089
  O       1.484850      0.099896     -0.140608
  P       0.060015     -0.023522     -0.751049
  O      -0.065255     -0.590271     -2.160543
  O      -0.694150     -1.164379      0.087932
  C      -2.123688     -1.212259      0.317270
  O      -0.632010      1.360112     -0.621391
  C      -0.328045      2.342175      0.440592
  H       3.386768     -0.570722      0.198396
  H       2.521784     -1.458454     -1.105514
  H       2.100205     -1.753462      0.623947
  H      -2.450704     -2.217034      0.042650
  H      -2.642865     -0.425843     -0.233011
  H      -2.246806     -1.072209      1.400604
  H      -0.423365      1.860175      1.415376
  H      -1.073477      3.123880      0.312233
  H       0.680995      2.723875      0.281205
17
Coordinates from ORCA-job TMP_cation_cpcm_40_default E -761.707723665045
  C       2.445555     -1.021546     -0.107739
  O       1.484679      0.100166     -0.141081
  P       0.059886     -0.023523     -0.751760
  O      -0.065195     -0.590537     -2.161085
  O      -0.694014     -1.164475      0.087246
  C      -2.123443     -1.212137      0.317898
  O      -0.632153      1.359974     -0.622090
  C      -0.328260      2.341931      0.440064
  H       3.386583     -0.570120      0.198449
  H       2.521698     -1.458791     -1.104846
  H       2.100044     -1.752734      0.624634
  H      -2.451542     -2.215584      0.039643
  H      -2.642523     -0.423156     -0.228730
  H      -2.244895     -1.076516      1.401957
  H      -0.426079      1.860397      1.414835
  H      -1.072092      3.124900      0.310217
  H       0.681751      2.721750      0.282387
