17
Coordinates from ORCA-job TMP_cation_cpcm_5_default E -761.692504439797
  C           2.24575620614578     -0.98637759023036     -0.00725566288494
  O           1.41778094128283     -0.01820001199924     -0.75505015901988
  P          -0.13037017574700      0.06763252282675     -0.67323428021229
  O          -0.73006276254937      0.62995577744207     -1.96196617554065
  O          -0.65462710579022     -1.30415182262069     -0.16445392804729
  C          -2.09442009521666     -1.60105773445192     -0.00936168563683
  O          -0.62804526912721      1.16525254361155      0.37824184256174
  C           0.01779798842072      2.44909266695438      0.60099789617983
  H           3.27103770016979     -0.69088915893943     -0.21877897104016
  H           2.03498167630211     -1.98776237557690     -0.38475935687667
  H           2.02008811214576     -0.90720848886996      1.05780042014666
  H          -2.13617727954339     -2.66837539594223      0.19591706887037
  H          -2.61295863397435     -1.35668137230192     -0.93822848823180
  H          -2.48104150807497     -1.02112027372344      0.83009189031021
  H           0.35678863781443      2.42530248496356      1.64440302998877
  H          -0.75555347379792      3.21050053767227      0.48426532353457
  H           0.85902503153969      2.59408770118533     -0.07862877410171
