17
Coordinates from ORCA-job TMP_cation_cpcm_200_default E -761.709483937106
  C           2.44582112331304     -1.02179176821172     -0.10825971467290
  O           1.48567779371345      0.10014425628080     -0.14446926040554
  P           0.06147763955645     -0.02317705693726     -0.75710873924030
  O          -0.06177126471228     -0.58916380125205     -2.16638729381489
  O          -0.69294288185301     -1.16504452868208      0.08107040149418
  C          -2.12071229238272     -1.20795518644577      0.31980380546343
  O          -0.63076767177695      1.36013786501743     -0.62656015522215
  C          -0.33266184734504      2.33747094548051      0.44158413488837
  H           3.38671153997436     -0.57048474589950      0.19853819550163
  H           2.52306851116729     -1.46066904215627     -1.10457727925206
  H           2.09895372322222     -1.75179610849341      0.62467020716704
  H          -2.45244372118139     -2.21255279861369      0.05028606950023
  H          -2.64108080884032     -0.42091944139090     -0.22845432931008
  H          -2.23572081458414     -1.06477511041565      1.40385125823974
  H          -0.43808817352724      1.85216604247808      1.41369537384781
  H          -1.07449035345413      3.12201241093047      0.30982450304926
  H           0.67896948871045      2.71639807831083      0.29249281276616
