17
Coordinates from ORCA-job TMP_cation_cpcm_10_default E -761.675331169082
  C       2.322150     -1.110107     -0.121247
  O       1.446904     -0.246841      0.586848
  P      -0.001093      0.003392     -0.032977
  O      -0.049654      0.153953     -1.490261
  O      -0.851133     -1.206662      0.564270
  C      -2.124125     -1.458547     -0.009074
  O      -0.530506      1.251111      0.807508
  C      -0.191013      2.546951      0.340395
  H       3.337969     -0.827674      0.154216
  H       2.176116     -0.993877     -1.196468
  H       2.136428     -2.148361      0.159357
  H      -2.350663     -2.509116      0.170324
  H      -2.100650     -1.254852     -1.080809
  H      -2.881254     -0.829776      0.462504
  H       0.789643      2.839662      0.719716
  H      -0.952799      3.229495      0.716423
  H      -0.176319      2.561249     -0.750724
17
Coordinates from ORCA-job TMP_cation_cpcm_10_default E -761.684047920003
  C       2.379291     -1.091917     -0.115350
  O       1.436162     -0.253464      0.566209
  P       0.002416     -0.027101     -0.101054
  O      -0.005468      0.100391     -1.574452
  O      -0.852650     -1.245526      0.481015
  C      -2.197369     -1.482788      0.020132
  O      -0.562819      1.232972      0.703172
  C      -0.178066      2.577189      0.336508
  H       3.373421     -0.799288      0.222867
  H       2.289411     -0.977722     -1.205259
  H       2.184812     -2.143790      0.146387
  H      -2.409068     -2.537670      0.194465
  H      -2.289582     -1.241201     -1.043281
  H      -2.903324     -0.861204      0.590116
  H       0.765683      2.842190      0.831560
  H      -0.971934      3.235358      0.691523
  H      -0.060916      2.673571     -0.744558
17
Coordinates from ORCA-job TMP_cation_cpcm_10_default E -761.689075513289
  C       2.421523     -1.081121     -0.112546
  O       1.423012     -0.255787      0.535881
  P       0.003852     -0.045322     -0.163072
  O       0.018521      0.053705     -1.655158
  O      -0.852455     -1.269463      0.397304
  C      -2.247324     -1.488575      0.051041
  O      -0.597926      1.219318      0.596270
  C      -0.171741      2.592987      0.335458
  H       3.389820     -0.773471      0.279403
  H       2.378938     -0.973794     -1.205487
  H       2.219194     -2.134002      0.142336
  H      -2.437903     -2.549406      0.204097
  H      -2.434496     -1.191634     -0.987251
  H      -2.883126     -0.883531      0.714691
  H       0.712548      2.814133      0.945740
  H      -1.002834      3.226144      0.642882
  H       0.060397      2.739818     -0.721588
17
Coordinates from ORCA-job TMP_cation_cpcm_10_default E -761.693729509278
  C       2.461582     -1.066720     -0.109951
  O       1.402422     -0.252952      0.488612
  P       0.006475     -0.066253     -0.242500
  O       0.046906     -0.020548     -1.755962
  O      -0.852191     -1.294487      0.284268
  C      -2.291315     -1.473325      0.097324
  O      -0.648595      1.198151      0.440656
  C      -0.170116      2.589441      0.336463
  H       3.392406     -0.728949      0.340560
  H       2.471769     -0.961485     -1.200261
  H       2.260186     -2.115906      0.144340
  H      -2.469159     -2.541709      0.194179
  H      -2.589686     -1.083038     -0.881996
  H      -2.809433     -0.906787      0.883187
  H       0.600157      2.738310      1.098673
  H      -1.044089      3.203597      0.542020
  H       0.232680      2.782659     -0.659612
17
Coordinates from ORCA-job TMP_cation_cpcm_10_default E -761.696496451338
  C       2.484532     -1.043654     -0.109657
  O       1.378718     -0.233205      0.430395
  P       0.004476     -0.083728     -0.320858
  O       0.066118     -0.114176     -1.847648
  O      -0.855014     -1.313591      0.178905
  C      -2.313034     -1.443057      0.145171
  O      -0.700077      1.179716      0.271441
  C      -0.170329      2.559947      0.345179
  H       3.380275     -0.663187      0.375796
  H       2.533552     -0.947023     -1.196523
  H       2.296469     -2.085456      0.164761
  H      -2.505647     -2.512401      0.176090
  H      -2.701384     -0.960437     -0.757019
  H      -2.702688     -0.928340      1.031881
  H       0.439913      2.624253      1.248015
  H      -1.055698      3.187661      0.410760
  H       0.419818      2.776677     -0.546688
17
Coordinates from ORCA-job TMP_cation_cpcm_10_default E -761.697710109754
  C       2.488100     -1.014450     -0.111465
  O       1.363097     -0.201086      0.387184
  P      -0.004132     -0.093099     -0.364738
  O       0.065450     -0.189807     -1.891621
  O      -0.858781     -1.327006      0.127194
  C      -2.316642     -1.422290      0.170251
  O      -0.734328      1.173828      0.163185
  C      -0.164118      2.523302      0.356226
  H       3.368928     -0.598158      0.372414
  H       2.547627     -0.938448     -1.198484
  H       2.316273     -2.047781      0.196843
  H      -2.535348     -2.487297      0.166460
  H      -2.745066     -0.893874     -0.685943
  H      -2.637362     -0.940661      1.101078
  H       0.323738      2.531666      1.332095
  H      -1.022726      3.189866      0.324564
  H       0.545290      2.735296     -0.445242
17
Coordinates from ORCA-job TMP_cation_cpcm_10_default E -761.698690778516
  C       2.486482     -0.977403     -0.117547
  O       1.353116     -0.140104      0.319407
  P      -0.017093     -0.096317     -0.415751
  O       0.044829     -0.292041     -1.934068
  O      -0.859045     -1.335095      0.090182
  C      -2.311948     -1.401637      0.190261
  O      -0.767207      1.181543      0.036686
  C      -0.156183      2.477471      0.379832
  H       3.362120     -0.515557      0.333971
  H       2.546694     -0.965378     -1.206491
  H       2.328894     -1.986627      0.265631
  H      -2.559437     -2.460671      0.174158
  H      -2.770620     -0.851035     -0.635318
  H      -2.582000     -0.938609      1.146368
  H       0.176690      2.420261      1.417037
  H      -0.953711      3.205597      0.250516
  H       0.678420      2.675603     -0.294873
17
Coordinates from ORCA-job TMP_cation_cpcm_10_default E -761.699170380031
  C       2.482568     -0.957186     -0.123543
  O       1.356594     -0.080237      0.251722
  P      -0.025018     -0.089674     -0.455480
  O       0.011003     -0.368126     -1.961508
  O      -0.850862     -1.331840      0.080045
  C      -2.300897     -1.391041      0.197175
  O      -0.781101      1.201225     -0.051948
  C      -0.153480      2.451577      0.405327
  H       3.365028     -0.464620      0.279928
  H       2.535367     -1.031511     -1.210333
  H       2.324720     -1.929863      0.344037
  H      -2.558018     -2.448205      0.190067
  H      -2.772178     -0.845927     -0.625147
  H      -2.558556     -0.925221      1.155808
  H       0.071803      2.345473      1.467452
  H      -0.899254      3.223972      0.229860
  H       0.752280      2.641204     -0.173464
17
Coordinates from ORCA-job TMP_cation_cpcm_10_default E -761.699509277895
  C       2.477227     -0.949962     -0.129537
  O       1.371976     -0.016821      0.167055
  P      -0.025624     -0.076016     -0.501991
  O      -0.032849     -0.437454     -1.991321
  O      -0.831638     -1.317953      0.078631
  C      -2.280920     -1.379733      0.201102
  O      -0.780790      1.230568     -0.140734
  C      -0.159789      2.435074      0.436278
  H       3.374644     -0.436208      0.209124
  H       2.514300     -1.138786     -1.203261
  H       2.307404     -1.864932      0.439269
  H      -2.536955     -2.437283      0.211840
  H      -2.759797     -0.850739     -0.627669
  H      -2.538503     -0.901289      1.153937
  H      -0.035293      2.274442      1.508324
  H      -0.863229      3.240613      0.235545
  H       0.799836      2.626479     -0.046593
17
Coordinates from ORCA-job TMP_cation_cpcm_10_default E -761.699731397910
  C       2.470692     -0.952814     -0.132210
  O       1.390328      0.028527      0.094487
  P      -0.019591     -0.062303     -0.545145
  O      -0.067326     -0.481487     -2.018863
  O      -0.808281     -1.299813      0.081264
  C      -2.258025     -1.366818      0.205994
  O      -0.769381      1.258015     -0.214567
  C      -0.172787      2.425078      0.460230
  H       3.383313     -0.434822      0.154905
  H       2.492296     -1.234914     -1.186068
  H       2.283545     -1.812770      0.512285
  H      -2.508712     -2.425438      0.230515
  H      -2.740748     -0.850320     -0.628479
  H      -2.517692     -0.877351      1.152774
  H      -0.117947      2.212647      1.529221
  H      -0.856093      3.246769      0.255421
  H       0.816408      2.627814      0.048235
17
Coordinates from ORCA-job TMP_cation_cpcm_10_default E -761.700025325266
  C       2.458753     -0.963771     -0.131332
  O       1.413235      0.068960      0.018762
  P      -0.007640     -0.045060     -0.596700
  O      -0.099580     -0.511723     -2.053315
  O      -0.775240     -1.274071      0.086273
  C      -2.225648     -1.349421      0.215624
  O      -0.746567      1.291527     -0.298904
  C      -0.194017      2.416150      0.480777
  H       3.389502     -0.456207      0.111938
  H       2.464790     -1.334029     -1.158156
  H       2.244381     -1.764261      0.578491
  H      -2.467560     -2.409879      0.246673
  H      -2.713212     -0.838355     -0.619184
  H      -2.485135     -0.855193      1.160005
  H      -0.199253      2.138805      1.536465
  H      -0.871994      3.244489      0.286125
  H       0.815186      2.642039      0.136458
17
Coordinates from ORCA-job TMP_cation_cpcm_10_default E -761.700428946342
  C       2.444399     -0.990639     -0.129910
  O       1.452910      0.104432     -0.080220
  P       0.021624     -0.022366     -0.673847
  O      -0.126533     -0.540081     -2.106589
  O      -0.720985     -1.232886      0.083782
  C      -2.170268     -1.305449      0.241415
  O      -0.696434      1.336283     -0.428818
  C      -0.246683      2.393821      0.500371
  H       3.398086     -0.511829      0.079066
  H       2.436194     -1.451788     -1.119401
  H       2.183765     -1.717094      0.641631
  H      -2.412715     -2.366046      0.261716
  H      -2.672422     -0.775023     -0.571807
  H      -2.403813     -0.823617      1.199159
  H      -0.342993      2.020887      1.521786
  H      -0.928071      3.220632      0.313030
  H       0.783939      2.660763      0.268636
17
Coordinates from ORCA-job TMP_cation_cpcm_10_default E -761.700698556408
  C       2.437458     -1.014999     -0.129169
  O       1.477523      0.109719     -0.119096
  P       0.046569     -0.010953     -0.717892
  O      -0.119090     -0.543151     -2.140731
  O      -0.686953     -1.205621      0.078756
  C      -2.132556     -1.265782      0.267649
  O      -0.656728      1.358989     -0.512798
  C      -0.293515      2.373231      0.499980
  H       3.400042     -0.559326      0.090258
  H       2.434911     -1.492935     -1.110677
  H       2.142112     -1.720918      0.648711
  H      -2.387820     -2.323735      0.264102
  H      -2.647563     -0.701110     -0.513468
  H      -2.331463     -0.810242      1.246474
  H      -0.437999      1.941600      1.492011
  H      -0.986567      3.190697      0.315429
  H       0.741638      2.674535      0.340461
17
Coordinates from ORCA-job TMP_cation_cpcm_10_default E -761.700886395625
  C       2.439929     -1.019841     -0.128373
  O       1.467940      0.093632     -0.084619
  P       0.049334     -0.017159     -0.714735
  O      -0.082093     -0.534297     -2.144111
  O      -0.693645     -1.203229      0.079279
  C      -2.135223     -1.254584      0.280850
  O      -0.656226      1.350589     -0.530068
  C      -0.302417      2.366764      0.482859
  H       3.392292     -0.565796      0.135594
  H       2.465972     -1.442201     -1.134522
  H       2.138071     -1.767819      0.606184
  H      -2.404000     -2.309234      0.255460
  H      -2.654578     -0.663096     -0.477206
  H      -2.315099     -0.824775      1.275584
  H      -0.429486      1.930323      1.475040
  H      -1.007644      3.176213      0.309234
  H       0.726874      2.684511      0.313552
17
Coordinates from ORCA-job TMP_cation_cpcm_10_default E -761.700979652937
  C       2.450329     -1.026962     -0.132921
  O       1.482831      0.091198     -0.107826
  P       0.063410     -0.018990     -0.732579
  O      -0.068333     -0.559574     -2.151843
  O      -0.687558     -1.189094      0.074912
  C      -2.123720     -1.218492      0.296559
  O      -0.632185      1.356216     -0.579931
  C      -0.334036      2.340184      0.480508
  H       3.402457     -0.574564      0.135461
  H       2.484992     -1.452171     -1.137428
  H       2.140656     -1.767412      0.605797
  H      -2.417445     -2.266353      0.253098
  H      -2.647193     -0.599095     -0.435925
  H      -2.277860     -0.813883      1.306754
  H      -0.503342      1.875008      1.453337
  H      -1.032709      3.154451      0.302243
  H       0.699707      2.669533      0.369785
17
Coordinates from ORCA-job TMP_cation_cpcm_10_default E -761.701029556924
  C       2.455098     -1.019445     -0.132035
  O       1.474569      0.086287     -0.097495
  P       0.056586     -0.025763     -0.724192
  O      -0.057492     -0.565880     -2.145010
  O      -0.701801     -1.191695      0.076370
  C      -2.136277     -1.222417      0.294972
  O      -0.642817      1.348965     -0.573326
  C      -0.323608      2.339432      0.474355
  H       3.400903     -0.559948      0.146918
  H       2.499987     -1.429077     -1.142513
  H       2.150902     -1.772246      0.596601
  H      -2.434052     -2.268824      0.239284
  H      -2.659609     -0.593923     -0.429712
  H      -2.292752     -0.833498      1.311276
  H      -0.474017      1.883265      1.454735
  H      -1.023206      3.155256      0.306524
  H       0.707587      2.669510      0.343247
17
Coordinates from ORCA-job TMP_cation_cpcm_10_default E -761.701064618528
  C       2.455160     -1.020479     -0.129744
  O       1.478082      0.088252     -0.108384
  P       0.057453     -0.025218     -0.729612
  O      -0.057062     -0.569331     -2.149068
  O      -0.701482     -1.185091      0.077556
  C      -2.134918     -1.219503      0.297152
  O      -0.639623      1.352989     -0.582615
  C      -0.324925      2.337757      0.472313
  H       3.401143     -0.562078      0.150219
  H       2.502950     -1.439063     -1.136498
  H       2.144729     -1.766311      0.603659
  H      -2.433974     -2.264656      0.223854
  H      -2.659577     -0.577296     -0.414232
  H      -2.290350     -0.851004      1.321407
  H      -0.467261      1.873664      1.450279
  H      -1.032777      3.148384      0.313938
  H       0.702431      2.678985      0.339776
17
Coordinates from ORCA-job TMP_cation_cpcm_10_default E -761.701105408362
  C       2.451813     -1.023235     -0.121673
  O       1.483481      0.092737     -0.128162
  P       0.058893     -0.023210     -0.741643
  O      -0.056458     -0.570590     -2.160687
  O      -0.699543     -1.172336      0.077964
  C      -2.131388     -1.215902      0.302278
  O      -0.633995      1.360569     -0.599632
  C      -0.325538      2.337254      0.465826
  H       3.397685     -0.568076      0.163483
  H       2.506935     -1.459199     -1.120796
  H       2.126145     -1.756117      0.618356
  H      -2.432359     -2.256597      0.181775
  H      -2.659053     -0.538111     -0.372388
  H      -2.280383     -0.900685      1.345158
  H      -0.440367      1.857022      1.439619
  H      -1.056649      3.131222      0.330072
  H       0.690780      2.705254      0.320451
17
Coordinates from ORCA-job TMP_cation_cpcm_10_default E -761.701116951003
  C       2.449171     -1.022928     -0.117427
  O       1.483071      0.094765     -0.131397
  P       0.058009     -0.022778     -0.743719
  O      -0.057973     -0.569904     -2.163337
  O      -0.699223     -1.170390      0.078046
  C      -2.131266     -1.217260      0.303092
  O      -0.634553      1.361256     -0.601348
  C      -0.322919      2.339023      0.462409
  H       3.394533     -0.568407      0.170250
  H       2.507137     -1.462593     -1.114837
  H       2.119326     -1.753687      0.622894
  H      -2.432810     -2.255269      0.161183
  H      -2.658735     -0.524536     -0.356105
  H      -2.277177     -0.924931      1.352821
  H      -0.422442      1.856304      1.436636
  H      -1.062821      3.126279      0.335451
  H       0.688672      2.715058      0.305387
17
Coordinates from ORCA-job TMP_cation_cpcm_10_default E -761.701133855046
  C       2.445688     -1.022028     -0.110997
  O       1.482243      0.097695     -0.134468
  P       0.056903     -0.022848     -0.744992
  O      -0.061890     -0.572581     -2.164212
  O      -0.698322     -1.169081      0.079124
  C      -2.131300     -1.218194      0.304591
  O      -0.635148      1.360635     -0.603878
  C      -0.319847      2.341400      0.456099
  H       3.389995     -0.568121      0.180899
  H       2.508540     -1.464507     -1.106898
  H       2.110753     -1.751384      0.628263
  H      -2.436832     -2.249228      0.123359
  H      -2.656106     -0.498182     -0.326394
  H      -2.270593     -0.967520      1.365489
  H      -0.397384      1.856681      1.431238
  H      -1.071556      3.119131      0.340653
  H       0.684855      2.728131      0.282124
17
Coordinates from ORCA-job TMP_cation_cpcm_10_default E -761.701144279042
  C       2.443086     -1.020694     -0.105486
  O       1.480468      0.099406     -0.133498
  P       0.054905     -0.023943     -0.742650
  O      -0.065694     -0.577466     -2.160639
  O      -0.698654     -1.168545      0.083934
  C      -2.132935     -1.220485      0.305682
  O      -0.636984      1.359054     -0.604576
  C      -0.315464      2.345311      0.448339
  H       3.385719     -0.567500      0.192903
  H       2.512232     -1.460697     -1.102053
  H       2.104142     -1.752233      0.629703
  H      -2.442828     -2.242173      0.082013
  H      -2.653669     -0.473075     -0.295566
  H      -2.268836     -1.015485      1.376377
  H      -0.369453      1.862007      1.425695
  H      -1.077782      3.114254      0.344598
  H       0.681748      2.742264      0.255223
17
Coordinates from ORCA-job TMP_cation_cpcm_10_default E -761.701150914810
  C       2.442578     -1.020302     -0.103927
  O       1.479860      0.099737     -0.130962
  P       0.053724     -0.024661     -0.738426
  O      -0.069587     -0.582596     -2.154443
  O      -0.698869     -1.168273      0.090553
  C      -2.134451     -1.223027      0.305930
  O      -0.637681      1.358454     -0.603576
  C      -0.312737      2.349466      0.443723
  H       3.384498     -0.568002      0.198159
  H       2.514778     -1.456396     -1.101960
  H       2.102314     -1.754338      0.628096
  H      -2.445847     -2.238592      0.056839
  H      -2.652033     -0.461065     -0.279297
  H      -2.272210     -1.045229      1.381016
  H      -0.356915      1.869529      1.423189
  H      -1.078699      3.115228      0.343416
  H       0.681278      2.750066      0.241670
17
Coordinates from ORCA-job TMP_cation_cpcm_10_default E -761.701156758576
  C       2.442917     -1.020382     -0.104288
  O       1.479592      0.099424     -0.126587
  P       0.052550     -0.025125     -0.731804
  O      -0.074713     -0.588755     -2.144962
  O      -0.699250     -1.167454      0.100862
  C      -2.136262     -1.227135      0.305808
  O      -0.638076      1.358599     -0.601030
  C      -0.309725      2.355509      0.439430
  H       3.384472     -0.569422      0.201092
  H       2.516997     -1.450542     -1.104703
  H       2.102367     -1.757863      0.624114
  H      -2.446910     -2.237096      0.033025
  H      -2.650918     -0.453544     -0.266420
  H      -2.280174     -1.074565      1.383826
  H      -0.350140      1.881311      1.421834
  H      -1.075922      3.120910      0.337925
  H       0.683194      2.756130      0.231878
17
Coordinates from ORCA-job TMP_cation_cpcm_10_default E -761.701158893203
  C       2.443295     -1.020727     -0.105188
  O       1.479874      0.099238     -0.125372
  P       0.052439     -0.024924     -0.729643
  O      -0.076617     -0.590813     -2.141532
  O      -0.699236     -1.166273      0.105441
  C      -2.136350     -1.228716      0.306062
  O      -0.637808      1.359306     -0.600516
  C      -0.309134      2.357804      0.438212
  H       3.384946     -0.570295      0.200714
  H       2.517200     -1.449146     -1.106331
  H       2.102824     -1.758910      0.622553
  H      -2.445988     -2.237032      0.025666
  H      -2.650643     -0.451823     -0.261984
  H      -2.283523     -1.084615      1.384830
  H      -0.353315      1.885971      1.421590
  H      -1.073092      3.124996      0.333188
  H       0.685129      2.755958      0.232311
17
Coordinates from ORCA-job TMP_cation_cpcm_10_default E -761.701161161499
  C       2.443711     -1.021156     -0.105888
  O       1.480442      0.099286     -0.125673
  P       0.052746     -0.024492     -0.728994
  O      -0.077982     -0.592842     -2.139560
  O      -0.699053     -1.164134      0.109387
  C      -2.135611     -1.229571      0.307308
  O      -0.637181      1.360314     -0.601671
  C      -0.309404      2.359451      0.436633
  H       3.385432     -0.570873      0.200006
  H       2.517186     -1.449368     -1.107102
  H       2.102999     -1.758835      0.622242
  H      -2.445174     -2.234905      0.015573
  H      -2.650231     -0.446542     -0.251924
  H      -2.284537     -1.098991      1.387628
  H      -0.361750      1.889673      1.420591
  H      -1.069272      3.129903      0.325684
  H       0.687679      2.753084      0.235760
17
Coordinates from ORCA-job TMP_cation_cpcm_10_default E -761.701162829049
  C       2.443616     -1.021018     -0.105901
  O       1.480495      0.099796     -0.126717
  P       0.052922     -0.024020     -0.729900
  O      -0.078640     -0.593236     -2.139934
  O      -0.698748     -1.162892      0.110439
  C      -2.134523     -1.230111      0.308559
  O      -0.637322      1.360750     -0.602640
  C      -0.309780      2.360013      0.435608
  H       3.385521     -0.570272      0.198683
  H       2.515988     -1.450898     -1.106457
  H       2.103081     -1.757275      0.623733
  H      -2.444784     -2.232751      0.007891
  H      -2.649862     -0.441637     -0.242270
  H      -2.282858     -1.110545      1.390265
  H      -0.371031      1.891991      1.419883
  H      -1.064742      3.134388      0.318623
  H       0.690668      2.747716      0.240134
17
Coordinates from ORCA-job TMP_cation_cpcm_10_default E -761.701163946880
  C       2.443311     -1.020506     -0.105229
  O       1.480389      0.100549     -0.128353
  P       0.053099     -0.023758     -0.731765
  O      -0.078795     -0.593547     -2.141457
  O      -0.698296     -1.162204      0.109772
  C      -2.133341     -1.229879      0.310062
  O      -0.637574      1.360713     -0.604323
  C      -0.310519      2.359663      0.434451
  H       3.385409     -0.569013      0.197582
  H       2.514705     -1.453081     -1.104694
  H       2.103004     -1.754899      0.626363
  H      -2.445681     -2.228961     -0.000587
  H      -2.649094     -0.434646     -0.230484
  H      -2.278863     -1.122669      1.393444
  H      -0.379875      1.892823      1.418743
  H      -1.060933      3.137623      0.312255
  H       0.693054      2.741791      0.244219
17
Coordinates from ORCA-job TMP_cation_cpcm_10_default E -761.701164425447
  C       2.443071     -1.019966     -0.104490
  O       1.480190      0.101011     -0.129249
  P       0.053084     -0.023816     -0.733011
  O      -0.078593     -0.593923     -2.142524
  O      -0.698057     -1.162168      0.108807
  C      -2.132842     -1.229520      0.311071
  O      -0.637793      1.360432     -0.605576
  C      -0.310977      2.359236      0.433511
  H       3.385304     -0.567949      0.197095
  H       2.514025     -1.454393     -1.103201
  H       2.103047     -1.753264      0.628323
  H      -2.447135     -2.225780     -0.006822
  H      -2.648461     -0.429279     -0.222079
  H      -2.275719     -1.131121      1.395608
  H      -0.384171      1.892994      1.417807
  H      -1.059116      3.138973      0.308867
  H       0.694143      2.738533      0.245864
17
Coordinates from ORCA-job TMP_cation_cpcm_10_default E -761.701164403541
  C       2.442811     -1.019736     -0.103337
  O       1.480496      0.101657     -0.131043
  P       0.053286     -0.023783     -0.734322
  O      -0.079102     -0.595869     -2.142901
  O      -0.697504     -1.161070      0.109359
  C      -2.131902     -1.229036      0.313016
  O      -0.637364      1.360635     -0.608367
  C      -0.311742      2.359469      0.431155
  H       3.385169     -0.567430      0.197410
  H       2.513813     -1.456533     -1.101013
  H       2.102253     -1.751221      0.631026
  H      -2.449224     -2.219072     -0.021447
  H      -2.647034     -0.418521     -0.204683
  H      -2.271734     -1.150569      1.399515
  H      -0.389588      1.894020      1.415463
  H      -1.057588      3.140875      0.303315
  H       0.694956      2.736183      0.246856
17
Coordinates from ORCA-job TMP_cation_cpcm_10_default E -761.701164689742
  C       2.442936     -1.019692     -0.103594
  O       1.480350      0.101376     -0.130302
  P       0.053134     -0.023929     -0.733856
  O      -0.078613     -0.595351     -2.142774
  O      -0.697753     -1.161712      0.108861
  C      -2.132412     -1.229182      0.312517
  O      -0.637502      1.360474     -0.607541
  C      -0.311511      2.359413      0.431766
  H       3.385376     -0.567390      0.196923
  H       2.513699     -1.456086     -1.101476
  H       2.102898     -1.751612      0.630598
  H      -2.449199     -2.220730     -0.017790
  H      -2.647420     -0.421209     -0.209321
  H      -2.272730     -1.145475      1.398543
  H      -0.387763      1.893823      1.416137
  H      -1.058137      3.140244      0.304947
  H       0.694648      2.737037      0.246363
17
Coordinates from ORCA-job TMP_cation_cpcm_10_default E -761.701164878437
  C       2.443193     -1.019699     -0.103954
  O       1.480419      0.101036     -0.129825
  P       0.053192     -0.024079     -0.733808
  O      -0.077572     -0.594785     -2.143080
  O      -0.697898     -1.162282      0.107882
  C      -2.132785     -1.228865      0.312238
  O      -0.637285      1.360408     -0.607316
  C      -0.311815      2.358950      0.432550
  H       3.385965     -0.567303      0.195416
  H       2.513090     -1.456484     -1.101746
  H       2.104078     -1.751517      0.630800
  H      -2.449403     -2.221847     -0.013681
  H      -2.647670     -0.423390     -0.213608
  H      -2.273006     -1.139733      1.397829
  H      -0.388078      1.892924      1.416723
  H      -1.058667      3.139612      0.306005
  H       0.694244      2.737055      0.247576
17
Coordinates from ORCA-job TMP_cation_cpcm_10_default E -761.701164916670
  C       2.443234     -1.019659     -0.104073
  O       1.480422      0.100998     -0.129594
  P       0.053185     -0.024073     -0.733679
  O      -0.077371     -0.594640     -2.143014
  O      -0.697929     -1.162353      0.107846
  C      -2.132890     -1.228976      0.312143
  O      -0.637261      1.360423     -0.607128
  C      -0.311835      2.359013      0.432709
  H       3.386259     -0.567166      0.194361
  H       2.512381     -1.456928     -1.101712
  H       2.104710     -1.751178      0.631262
  H      -2.449342     -2.222122     -0.013416
  H      -2.647773     -0.423801     -0.214164
  H      -2.273165     -1.139341      1.397680
  H      -0.388904      1.893186      1.416915
  H      -1.058235      3.140018      0.305608
  H       0.694513      2.736598      0.248253
