17
Coordinates from ORCA-job TMP_cation_cpcm_7_default E -761.671694128755
  C       2.322150     -1.110107     -0.121247
  O       1.446904     -0.246841      0.586848
  P      -0.001093      0.003392     -0.032977
  O      -0.049654      0.153953     -1.490261
  O      -0.851133     -1.206662      0.564270
  C      -2.124125     -1.458547     -0.009074
  O      -0.530506      1.251111      0.807508
  C      -0.191013      2.546951      0.340395
  H       3.337969     -0.827674      0.154216
  H       2.176116     -0.993877     -1.196468
  H       2.136428     -2.148361      0.159357
  H      -2.350663     -2.509116      0.170324
  H      -2.100650     -1.254852     -1.080809
  H      -2.881254     -0.829776      0.462504
  H       0.789643      2.839662      0.719716
  H      -0.952799      3.229495      0.716423
  H      -0.176319      2.561249     -0.750724
17
Coordinates from ORCA-job TMP_cation_cpcm_7_default E -761.680500676664
  C       2.340860     -1.135510     -0.131022
  O       1.433438     -0.196670      0.489216
  P      -0.037951      0.023345     -0.094251
  O      -0.127491      0.151499     -1.564909
  O      -0.854369     -1.191659      0.545642
  C      -2.136366     -1.517696     -0.008876
  O      -0.574342      1.281602      0.732479
  C      -0.171237      2.618842      0.376313
  H       3.349274     -0.811077      0.128609
  H       2.214207     -1.149089     -1.215279
  H       2.166010     -2.142713      0.270245
  H      -2.334536     -2.562441      0.230961
  H      -2.144852     -1.359711     -1.097058
  H      -2.903628     -0.872716      0.447151
  H       0.791176      2.858363      0.851711
  H      -0.944696      3.290911      0.747819
  H      -0.065494      2.714721     -0.708750
17
Coordinates from ORCA-job TMP_cation_cpcm_7_default E -761.685576365220
  C       2.352607     -1.146141     -0.135397
  O       1.421819     -0.146606      0.387690
  P      -0.065935      0.038980     -0.151491
  O      -0.194949      0.165864     -1.636254
  O      -0.857020     -1.175416      0.516837
  C      -2.150831     -1.561799     -0.009377
  O      -0.606974      1.304230      0.655479
  C      -0.143828      2.660337      0.409125
  H       3.349989     -0.769765      0.087803
  H       2.220113     -1.285081     -1.210530
  H       2.186464     -2.096269      0.387079
  H      -2.313708     -2.598686      0.280948
  H      -2.190040     -1.440525     -1.101194
  H      -2.917037     -0.910412      0.441160
  H       0.782171      2.833498      0.977611
  H      -0.934467      3.322221      0.758121
  H       0.061627      2.805570     -0.657609
17
Coordinates from ORCA-job TMP_cation_cpcm_7_default E -761.690093629224
  C       2.350386     -1.141577     -0.133785
  O       1.405268     -0.073465      0.242824
  P      -0.097856      0.054263     -0.226240
  O      -0.284932      0.185219     -1.723816
  O      -0.852607     -1.155210      0.470393
  C      -2.161385     -1.603183     -0.009205
  O      -0.647527      1.328869      0.545593
  C      -0.100035      2.681879      0.452009
  H       3.337275     -0.703486     -0.001209
  H       2.184456     -1.453303     -1.166660
  H       2.200212     -1.981113      0.551093
  H      -2.270836     -2.631021      0.330221
  H      -2.231554     -1.521958     -1.099461
  H      -2.923274     -0.956361      0.445720
  H       0.747431      2.754104      1.147401
  H      -0.909938      3.346890      0.742389
  H       0.254915      2.869454     -0.567267
17
Coordinates from ORCA-job TMP_cation_cpcm_7_default E -761.692738841602
  C       2.328462     -1.130003     -0.121085
  O       1.393972     -0.002313      0.089976
  P      -0.119596      0.071897     -0.295795
  O      -0.379703      0.219858     -1.794140
  O      -0.831688     -1.138187      0.413883
  C      -2.153475     -1.630292     -0.012707
  O      -0.676699      1.351718      0.447942
  C      -0.060763      2.679722      0.491942
  H       3.313826     -0.670307     -0.120087
  H       2.108109     -1.618993     -1.071324
  H       2.201738     -1.818198      0.716740
  H      -2.207479     -2.654201      0.350034
  H      -2.249979     -1.573859     -1.099367
  H      -2.910720     -1.000740      0.463093
  H       0.694358      2.658922      1.287163
  H      -0.873754      3.364278      0.720240
  H       0.423391      2.890698     -0.466509
17
Coordinates from ORCA-job TMP_cation_cpcm_7_default E -761.694051509781
  C       2.293598     -1.121356     -0.102093
  O       1.392072      0.046979     -0.026879
  P      -0.128885      0.091517     -0.340902
  O      -0.458932      0.268197     -1.826664
  O      -0.799397     -1.132852      0.362144
  C      -2.127997     -1.648513     -0.021302
  O      -0.691877      1.369358      0.396736
  C      -0.037069      2.671176      0.515694
  H       3.286775     -0.692922     -0.214167
  H       2.018839     -1.736962     -0.959922
  H       2.189044     -1.672030      0.833716
  H      -2.140820     -2.676395      0.334410
  H      -2.248756     -1.591972     -1.104362
  H      -2.880611     -1.042781      0.487158
  H       0.660519      2.597413      1.357559
  H      -0.838925      3.378646      0.712381
  H       0.512425      2.892498     -0.403507
17
Coordinates from ORCA-job TMP_cation_cpcm_7_default E -761.695008687515
  C       2.255962     -1.110395     -0.071216
  O       1.398438      0.085641     -0.149560
  P      -0.130569      0.110257     -0.391768
  O      -0.538569      0.339450     -1.851730
  O      -0.751874     -1.144932      0.284290
  C      -2.097443     -1.662467     -0.032377
  O      -0.702052      1.376373      0.361644
  C      -0.021017      2.654469      0.531131
  H       3.259036     -0.748744     -0.285464
  H       1.929075     -1.841013     -0.812755
  H       2.174949     -1.507834      0.941199
  H      -2.074514     -2.703615      0.282734
  H      -2.276119     -1.573900     -1.104578
  H      -2.823473     -1.089510      0.545996
  H       0.642362      2.544053      1.396344
  H      -0.807167      3.382401      0.718625
  H       0.562976      2.889768     -0.362516
17
Coordinates from ORCA-job TMP_cation_cpcm_7_default E -761.695570818142
  C       2.230856     -1.099348     -0.037021
  O       1.410030      0.102250     -0.258346
  P      -0.126928      0.120498     -0.443594
  O      -0.600584      0.416478     -1.871268
  O      -0.705177     -1.171102      0.191865
  C      -2.074793     -1.669196     -0.041209
  O      -0.706270      1.368467      0.342196
  C      -0.014163      2.634113      0.537990
  H       3.241364     -0.807898     -0.315389
  H       1.869101     -1.911989     -0.669011
  H       2.165770     -1.361821      1.019711
  H      -2.032961     -2.726544      0.212579
  H      -2.336253     -1.525881     -1.090151
  H      -2.748452     -1.129632      0.625441
  H       0.637877      2.505155      1.409799
  H      -0.790215      3.371973      0.730726
  H       0.580797      2.884477     -0.344315
17
Coordinates from ORCA-job TMP_cation_cpcm_7_default E -761.695872231269
  C       2.224059     -1.092184     -0.009830
  O       1.422024      0.098655     -0.338025
  P      -0.121342      0.120588     -0.488647
  O      -0.632585      0.476527     -1.889599
  O      -0.673482     -1.199283      0.109270
  C      -2.065208     -1.666319     -0.044510
  O      -0.705836      1.349471      0.333149
  C      -0.016034      2.614894      0.540119
  H       3.238704     -0.843499     -0.313870
  H       1.850565     -1.953779     -0.565301
  H       2.161036     -1.260444      1.066272
  H      -2.024050     -2.735960      0.150982
  H      -2.404593     -1.465311     -1.061502
  H      -2.676797     -1.152644      0.698309
  H       0.637601      2.480341      1.410418
  H      -0.791884      3.350677      0.742096
  H       0.577821      2.878270     -0.339331
17
Coordinates from ORCA-job TMP_cation_cpcm_7_default E -761.696109139259
  C       2.227789     -1.084476      0.015323
  O       1.434360      0.081809     -0.415655
  P      -0.114765      0.113486     -0.537450
  O      -0.649008      0.531816     -1.912398
  O      -0.650673     -1.229868      0.024358
  C      -2.062856     -1.654690     -0.043899
  O      -0.702063      1.318393      0.328230
  C      -0.022726      2.589925      0.541834
  H       3.245818     -0.861114     -0.297079
  H       1.856945     -1.985942     -0.474185
  H       2.155351     -1.167971      1.100924
  H      -2.037892     -2.733349      0.095924
  H      -2.477461     -1.392177     -1.018577
  H      -2.600597     -1.162918      0.768213
  H       0.637106      2.454864      1.407762
  H      -0.804905      3.316013      0.754203
  H       0.565578      2.866198     -0.337528
17
Coordinates from ORCA-job TMP_cation_cpcm_7_default E -761.696331692692
  C       2.235969     -1.077247      0.030259
  O       1.443648      0.060112     -0.478692
  P      -0.109134      0.103527     -0.576472
  O      -0.650095      0.568250     -1.932761
  O      -0.639019     -1.253222     -0.036016
  C      -2.064351     -1.638458     -0.040146
  O      -0.695719      1.284847      0.330478
  C      -0.030794      2.565238      0.544832
  H       3.257072     -0.859049     -0.275434
  H       1.878241     -2.004339     -0.418487
  H       2.143675     -1.102964      1.117493
  H      -2.062535     -2.720776      0.068731
  H      -2.526648     -1.334187     -0.981061
  H      -2.544712     -1.155010      0.812341
  H       0.633501      2.435036      1.408294
  H      -0.822528      3.279525      0.761535
  H       0.553430      2.848716     -0.334896
17
Coordinates from ORCA-job TMP_cation_cpcm_7_default E -761.696724823152
  C       2.250114     -1.043051      0.051237
  O       1.447600      0.011263     -0.605092
  P      -0.107772      0.078934     -0.645845
  O      -0.657653      0.617553     -1.968030
  O      -0.635972     -1.291029     -0.130190
  C      -2.075485     -1.609045     -0.034243
  O      -0.681249      1.218743      0.332818
  C      -0.031096      2.506379      0.557174
  H       3.272660     -0.823820     -0.247924
  H       1.925163     -2.019059     -0.308856
  H       2.121873     -0.953115      1.131621
  H      -2.117648     -2.692594      0.048249
  H      -2.595671     -1.254433     -0.926502
  H      -2.468465     -1.126142      0.862275
  H       0.622221      2.376133      1.429280
  H      -0.834447      3.209851      0.766423
  H       0.565829      2.793432     -0.312395
17
Coordinates from ORCA-job TMP_cation_cpcm_7_default E -761.696951746891
  C       2.257258     -0.991696      0.060910
  O       1.436176     -0.029434     -0.705441
  P      -0.116459      0.055126     -0.693240
  O      -0.673881      0.631661     -1.993111
  O      -0.648698     -1.315560     -0.181849
  C      -2.093324     -1.590800     -0.032538
  O      -0.670500      1.169007      0.330492
  C      -0.012513      2.448287      0.573542
  H       3.277108     -0.768885     -0.244154
  H       1.962644     -2.004173     -0.214343
  H       2.107393     -0.805432      1.126011
  H      -2.163171     -2.672380      0.055924
  H      -2.632987     -1.224853     -0.908418
  H      -2.442714     -1.093467      0.873819
  H       0.609516      2.305293      1.466742
  H      -0.813283      3.161251      0.760644
  H       0.617433      2.726055     -0.274989
17
Coordinates from ORCA-job TMP_cation_cpcm_7_default E -761.697147750919
  C       2.252745     -0.982467      0.043262
  O       1.425059     -0.015015     -0.706178
  P      -0.123701      0.058488     -0.678931
  O      -0.685909      0.592682     -1.992643
  O      -0.652041     -1.299711     -0.132798
  C      -2.097310     -1.593645     -0.032101
  O      -0.668417      1.178618      0.336050
  C       0.000482      2.448525      0.582855
  H       3.273118     -0.746638     -0.249915
  H       1.969201     -1.991630     -0.256542
  H       2.094938     -0.822343      1.111238
  H      -2.152775     -2.671250      0.104354
  H      -2.598243     -1.283030     -0.950843
  H      -2.496211     -1.062258      0.833179
  H       0.595200      2.302961      1.494406
  H      -0.792175      3.176885      0.745698
  H       0.656039      2.709828     -0.251093
17
Coordinates from ORCA-job TMP_cation_cpcm_7_default E -761.697247632030
  C       2.245386     -0.954447      0.045846
  O       1.413512     -0.021695     -0.740716
  P      -0.133140      0.054860     -0.689371
  O      -0.712154      0.594885     -1.993106
  O      -0.660628     -1.303962     -0.148559
  C      -2.104778     -1.600970     -0.035529
  O      -0.664113      1.174372      0.330895
  C       0.022180      2.430450      0.588714
  H       3.266347     -0.727947     -0.252893
  H       1.969433     -1.976334     -0.216380
  H       2.086994     -0.758163      1.107815
  H      -2.156194     -2.678206      0.106302
  H      -2.609374     -1.299534     -0.955151
  H      -2.498950     -1.067652      0.830592
  H       0.590622      2.276275      1.515934
  H      -0.757015      3.177254      0.734758
  H       0.701872      2.680813     -0.229151
17
Coordinates from ORCA-job TMP_cation_cpcm_7_default E -761.697306817685
  C       2.238305     -0.934741      0.045863
  O       1.405499     -0.025431     -0.766144
  P      -0.140914      0.054128     -0.697445
  O      -0.733871      0.596795     -1.994073
  O      -0.667842     -1.307079     -0.164365
  C      -2.109922     -1.608311     -0.036929
  O      -0.658703      1.172857      0.327688
  C       0.039533      2.418574      0.593338
  H       3.260868     -0.709528     -0.248677
  H       1.974316     -1.964752     -0.196745
  H       2.073410     -0.720394      1.103515
  H      -2.156431     -2.684930      0.111782
  H      -2.621296     -1.315993     -0.955711
  H      -2.497977     -1.071998      0.830154
  H       0.578948      2.264046      1.538103
  H      -0.728592      3.181320      0.716435
  H       0.744668      2.655438     -0.206790
17
Coordinates from ORCA-job TMP_cation_cpcm_7_default E -761.697340738964
  C       2.235179     -0.927265      0.043052
  O       1.402692     -0.028206     -0.780788
  P      -0.144524      0.054246     -0.703121
  O      -0.743398      0.597099     -1.997436
  O      -0.671439     -1.309255     -0.175319
  C      -2.112096     -1.610651     -0.035200
  O      -0.652886      1.170220      0.327963
  C       0.047259      2.413267      0.596836
  H       3.258987     -0.692490     -0.239707
  H       1.985786     -1.960701     -0.200704
  H       2.057503     -0.713915      1.098952
  H      -2.156593     -2.686040      0.122679
  H      -2.629988     -1.325963     -0.952795
  H      -2.494300     -1.067795      0.830566
  H       0.562032      2.265407      1.556502
  H      -0.717177      3.183491      0.696504
  H       0.772963      2.638550     -0.187984
17
Coordinates from ORCA-job TMP_cation_cpcm_7_default E -761.697371515213
  C       2.233516     -0.929957      0.036562
  O       1.403420     -0.028570     -0.787876
  P      -0.145411      0.056363     -0.706505
  O      -0.746645      0.596763     -2.001785
  O      -0.671843     -1.309899     -0.183476
  C      -2.110885     -1.610483     -0.030214
  O      -0.645658      1.168421      0.330697
  C       0.048947      2.414481      0.599844
  H       3.258555     -0.675539     -0.224110
  H       2.003079     -1.962353     -0.229269
  H       2.035099     -0.737392      1.092836
  H      -2.153381     -2.683732      0.141619
  H      -2.635683     -1.335999     -0.947128
  H      -2.488226     -1.056750      0.831021
  H       0.534420      2.280700      1.576655
  H      -0.716737      3.187321      0.667880
  H       0.797434      2.626624     -0.166751
17
Coordinates from ORCA-job TMP_cation_cpcm_7_default E -761.697384900590
  C       2.234351     -0.935672      0.031482
  O       1.405383     -0.029097     -0.789001
  P      -0.143973      0.057305     -0.707525
  O      -0.744274      0.598197     -2.003673
  O      -0.670046     -1.310343     -0.186708
  C      -2.108613     -1.607660     -0.025666
  O      -0.641932      1.166017      0.333399
  C       0.046116      2.416657      0.601184
  H       3.259467     -0.666668     -0.213729
  H       2.015504     -1.965288     -0.254014
  H       2.021598     -0.761635      1.088143
  H      -2.151670     -2.679341      0.155155
  H      -2.636911     -1.338761     -0.942298
  H      -2.483081     -1.046019      0.831782
  H       0.513352      2.293333      1.587972
  H      -0.722865      3.188012      0.647872
  H       0.807592      2.620963     -0.154373
17
Coordinates from ORCA-job TMP_cation_cpcm_7_default E -761.697395603851
  C       2.235775     -0.944677      0.025500
  O       1.407998     -0.027896     -0.785278
  P      -0.141345      0.058880     -0.705282
  O      -0.740454      0.601249     -2.001906
  O      -0.666647     -1.309818     -0.186130
  C      -2.105001     -1.604449     -0.021008
  O      -0.639502      1.164901      0.337389
  C       0.041066      2.421360      0.601552
  H       3.260872     -0.662518     -0.204431
  H       2.025925     -1.969222     -0.283920
  H       2.010545     -0.793863      1.083068
  H      -2.148609     -2.674505      0.168789
  H      -2.634090     -1.342164     -0.939138
  H      -2.479561     -1.035088      0.831298
  H       0.491071      2.309772      1.597331
  H      -0.731768      3.190034      0.626467
  H       0.813727      2.618002     -0.144302
17
Coordinates from ORCA-job TMP_cation_cpcm_7_default E -761.697405759365
  C       2.237722     -0.955608      0.018156
  O       1.410835     -0.026007     -0.779136
  P      -0.138027      0.060792     -0.700061
  O      -0.736445      0.606872     -1.995792
  O      -0.662529     -1.308987     -0.183125
  C      -2.100937     -1.601179     -0.016384
  O      -0.637393      1.164117      0.343878
  C       0.034861      2.427480      0.601336
  H       3.262717     -0.660799     -0.195575
  H       2.036649     -1.973360     -0.318341
  H       2.000730     -0.831975      1.076579
  H      -2.145225     -2.669309      0.183717
  H      -2.628600     -1.347812     -0.937839
  H      -2.477714     -1.023373      0.829184
  H       0.465479      2.330857      1.606799
  H      -0.741471      3.193236      0.600700
  H       0.819348      2.615054     -0.134098
17
Coordinates from ORCA-job TMP_cation_cpcm_7_default E -761.697413953401
  C       2.239779     -0.966634      0.009804
  O       1.413389     -0.023798     -0.772356
  P      -0.134802      0.062901     -0.692619
  O      -0.733576      0.614428     -1.986026
  O      -0.658817     -1.308031     -0.178727
  C      -2.097474     -1.598740     -0.012337
  O      -0.635165      1.163755      0.352654
  C       0.028952      2.434024      0.600908
  H       3.264668     -0.660485     -0.187771
  H       2.047740     -1.976825     -0.353810
  H       1.992439     -0.871197      1.068697
  H      -2.142047     -2.664668      0.199241
  H      -2.622024     -1.356671     -0.938561
  H      -2.477942     -1.012214      0.825460
  H       0.437369      2.355470      1.616830
  H      -0.749227      3.197627      0.571057
  H       0.826739      2.611058     -0.122443
17
Coordinates from ORCA-job TMP_cation_cpcm_7_default E -761.697418060635
  C       2.240740     -0.969233      0.006361
  O       1.413668     -0.023594     -0.771419
  P      -0.134125      0.063295     -0.689320
  O      -0.734076      0.619280     -1.980192
  O      -0.658414     -1.308177     -0.177703
  C      -2.097363     -1.598553     -0.011469
  O      -0.634189      1.163112      0.357412
  C       0.027747      2.435337      0.600952
  H       3.265512     -0.660071     -0.187133
  H       2.052188     -1.977590     -0.364186
  H       1.991383     -0.881637      1.065425
  H      -2.141892     -2.663637      0.204547
  H      -2.620397     -1.361556     -0.939811
  H      -2.478887     -1.009022      0.823681
  H       0.424399      2.365882      1.622122
  H      -0.749168      3.199715      0.556313
  H       0.832872      2.606447     -0.115582
17
Coordinates from ORCA-job TMP_cation_cpcm_7_default E -761.697420460137
  C       2.241425     -0.971446      0.003815
  O       1.413961     -0.022357     -0.768922
  P      -0.133820      0.063977     -0.685919
  O      -0.734213      0.622078     -1.975512
  O      -0.658305     -1.307588     -0.175143
  C      -2.097602     -1.599225     -0.011574
  O      -0.633927      1.163759      0.361578
  C       0.026669      2.437022      0.600872
  H       3.266363     -0.662512     -0.189447
  H       2.052795     -1.978467     -0.370439
  H       1.993763     -0.888260      1.063659
  H      -2.141405     -2.663874      0.206884
  H      -2.618269     -1.365723     -0.942062
  H      -2.481188     -1.008529      0.821765
  H       0.416086      2.374739      1.625344
  H      -0.748867      3.202379      0.546421
  H       0.836535      2.604028     -0.111322
17
Coordinates from ORCA-job TMP_cation_cpcm_7_default E -761.697421711670
  C       2.241756     -0.970750      0.003227
  O       1.413665     -0.022442     -0.769564
  P      -0.134221      0.063807     -0.685786
  O      -0.734760      0.623158     -1.974695
  O      -0.658919     -1.307667     -0.175317
  C      -2.098403     -1.599784     -0.011931
  O      -0.633761      1.163498      0.362907
  C       0.026957      2.436382      0.601278
  H       3.266640     -0.663459     -0.193017
  H       2.051646     -1.978544     -0.368204
  H       1.996837     -0.884816      1.063501
  H      -2.141745     -2.664500      0.206311
  H      -2.618910     -1.366297     -0.942477
  H      -2.481680     -1.009494      0.821821
  H       0.411881      2.376900      1.627684
  H      -0.747150      3.202939      0.541906
  H       0.840168      2.601070     -0.107645
17
Coordinates from ORCA-job TMP_cation_cpcm_7_default E -761.697423140302
  C       2.242016     -0.970522      0.001964
  O       1.413405     -0.021856     -0.769602
  P      -0.134707      0.063983     -0.685626
  O      -0.735378      0.624055     -1.974137
  O      -0.659285     -1.307303     -0.175090
  C      -2.098855     -1.600669     -0.012080
  O      -0.633329      1.163639      0.364533
  C       0.027102      2.436187      0.602048
  H       3.266867     -0.665913     -0.198665
  H       2.048586     -1.978786     -0.366452
  H       2.001261     -0.881470      1.062946
  H      -2.141056     -2.665480      0.205875
  H      -2.619225     -1.367101     -0.942650
  H      -2.482213     -1.010911      0.822000
  H       0.403455      2.381210      1.631944
  H      -0.745098      3.204103      0.533671
  H       0.846453      2.596834     -0.100679
17
Coordinates from ORCA-job TMP_cation_cpcm_7_default E -761.697424142701
  C       2.242133     -0.970208      0.000930
  O       1.413147     -0.021398     -0.770011
  P      -0.135065      0.064120     -0.686066
  O      -0.736011      0.624791     -1.974135
  O      -0.659264     -1.307067     -0.175333
  C      -2.098753     -1.601240     -0.011964
  O      -0.632879      1.163494      0.365399
  C       0.027224      2.435840      0.602882
  H       3.266921     -0.668372     -0.204127
  H       2.044914     -1.978943     -0.364127
  H       2.005188     -0.877557      1.062463
  H      -2.140150     -2.666246      0.205080
  H      -2.619593     -1.366730     -0.942021
  H      -2.481866     -1.012229      0.822746
  H       0.394772      2.384506      1.636165
  H      -0.743352      3.204705      0.525678
  H       0.852634      2.592536     -0.093559
17
Coordinates from ORCA-job TMP_cation_cpcm_7_default E -761.697424960032
  C       2.242080     -0.969876      0.000022
  O       1.412847     -0.020836     -0.770479
  P      -0.135343      0.064348     -0.686585
  O      -0.736966      0.625383     -1.974041
  O      -0.658946     -1.306846     -0.175525
  C      -2.098201     -1.601769     -0.011829
  O      -0.632433      1.163342      0.365864
  C       0.027416      2.435610      0.603729
  H       3.266839     -0.671317     -0.209811
  H       2.040400     -1.979076     -0.361230
  H       2.009135     -0.873187      1.062076
  H      -2.139030     -2.667080      0.203711
  H      -2.619680     -1.365803     -0.941165
  H      -2.481232     -1.013867      0.823697
  H       0.386038      2.387394      1.640280
  H      -0.741614      3.205232      0.517799
  H       0.858692      2.588348     -0.086512
17
Coordinates from ORCA-job TMP_cation_cpcm_7_default E -761.697425481591
  C       2.241998     -0.969344     -0.000463
  O       1.412517     -0.020580     -0.771237
  P      -0.135540      0.064471     -0.686993
  O      -0.738108      0.625711     -1.973744
  O      -0.658697     -1.306841     -0.175728
  C      -2.097701     -1.602144     -0.011852
  O      -0.632125      1.163120      0.365922
  C       0.027762      2.435358      0.604375
  H       3.266732     -0.673562     -0.214206
  H       2.036848     -1.979129     -0.358062
  H       2.012212     -0.868903      1.061927
  H      -2.138447     -2.667785      0.202032
  H      -2.619774     -1.364694     -0.940493
  H      -2.480647     -1.015446      0.824566
  H       0.379999      2.388928      1.643169
  H      -0.740067      3.205554      0.512374
  H       0.863038      2.585286     -0.081585
17
Coordinates from ORCA-job TMP_cation_cpcm_7_default E -761.697425773305
  C       2.241982     -0.968558     -0.000441
  O       1.412202     -0.020765     -0.772258
  P      -0.135714      0.064392     -0.687301
  O      -0.739185      0.625760     -1.973412
  O      -0.658716     -1.307085     -0.175996
  C      -2.097560     -1.602367     -0.012121
  O      -0.631957      1.162803      0.365798
  C       0.028228      2.434955      0.604768
  H       3.266681     -0.674832     -0.217108
  H       2.034710     -1.979118     -0.354577
  H       2.014448     -0.864645      1.062101
  H      -2.138633     -2.668337      0.200102
  H      -2.620088     -1.363466     -0.940155
  H      -2.480248     -1.016893      0.825289
  H       0.377471      2.389031      1.644567
  H      -0.738874      3.205573      0.510062
  H       0.865253      2.583554     -0.079316
