17
Coordinates from ORCA-job TMP_cation_cpcm_28_default E -761.706782715190
  C           2.44529599580708     -1.02130215420948     -0.10732029964190
  O           1.48408917033977      0.10025946594997     -0.13940471552641
  P           0.05895208184230     -0.02365115236069     -0.74907052269807
  O          -0.06705459702166     -0.59122446038140     -2.15839153032081
  O          -0.69455365952071     -1.16417692251377      0.09035061647516
  C          -2.12483673866243     -1.21448263789085      0.31701454916352
  O          -0.63290565381164      1.35996410293650     -0.61987254950769
  C          -0.32589396103688      2.34434734233148      0.43910066693593
  H           3.38647372274521     -0.56978289728778      0.19826967578109
  H           2.52076532507678     -1.45807055002724     -1.10468802206739
  H           2.10057840864824     -1.75288296291176      0.62503236804642
  H          -2.45117420407232     -2.21689377030259      0.03291720337905
  H          -2.64325893366498     -0.42373208127173     -0.22763730034053
  H          -2.24929104703295     -1.08430947179448      1.40125449441453
  H          -0.42033869897983      1.86497445835773      1.41526513714775
  H          -1.07033535760097      3.12684369336452      0.30988268664156
  H           0.68348813694501      2.72412000801142      0.27729753211770
