17
Coordinates from ORCA-job TMP_cation_cpcm_20_default E -761.679569486161
  C       2.322150     -1.110107     -0.121247
  O       1.446904     -0.246841      0.586848
  P      -0.001093      0.003392     -0.032977
  O      -0.049654      0.153953     -1.490261
  O      -0.851133     -1.206662      0.564270
  C      -2.124125     -1.458547     -0.009074
  O      -0.530506      1.251111      0.807508
  C      -0.191013      2.546951      0.340395
  H       3.337969     -0.827674      0.154216
  H       2.176116     -0.993877     -1.196468
  H       2.136428     -2.148361      0.159357
  H      -2.350663     -2.509116      0.170324
  H      -2.100650     -1.254852     -1.080809
  H      -2.881254     -0.829776      0.462504
  H       0.789643      2.839662      0.719716
  H      -0.952799      3.229495      0.716423
  H      -0.176319      2.561249     -0.750724
17
Coordinates from ORCA-job TMP_cation_cpcm_20_default E -761.688244524639
  C       2.379197     -1.091709     -0.115287
  O       1.436038     -0.253514      0.566310
  P       0.002404     -0.027140     -0.101248
  O      -0.005272      0.100409     -1.574594
  O      -0.852577     -1.245584      0.480957
  C      -2.197211     -1.482640      0.020207
  O      -0.562833      1.232795      0.703213
  C      -0.178124      2.576857      0.336448
  H       3.373267     -0.799240      0.223215
  H       2.289415     -0.977221     -1.205132
  H       2.184415     -2.143663      0.146024
  H      -2.409022     -2.537477      0.194627
  H      -2.289399     -1.240979     -1.043166
  H      -2.902998     -0.860782      0.590162
  H       0.765780      2.841745      0.831261
  H      -0.971926      3.235029      0.691613
  H      -0.061153      2.673118     -0.744607
17
Coordinates from ORCA-job TMP_cation_cpcm_20_default E -761.693250325632
  C       2.421227     -1.080501     -0.112404
  O       1.422542     -0.255810      0.536101
  P       0.003651     -0.045336     -0.163594
  O       0.018862      0.053772     -1.655497
  O      -0.852419     -1.269578      0.397186
  C      -2.247088     -1.488550      0.051250
  O      -0.598109      1.219029      0.596320
  C      -0.171604      2.592313      0.335344
  H       3.389337     -0.773259      0.280289
  H       2.379057     -0.972353     -1.205226
  H       2.218346     -2.133591      0.141307
  H      -2.437791     -2.549288      0.204660
  H      -2.434355     -1.191559     -0.986999
  H      -2.882693     -0.882971      0.714716
  H       0.712967      2.813123      0.945357
  H      -1.002465      3.225719      0.642892
  H       0.060533      2.738838     -0.721701
17
Coordinates from ORCA-job TMP_cation_cpcm_20_default E -761.697901965113
  C       2.461224     -1.065594     -0.109689
  O       1.401524     -0.253271      0.489104
  P       0.006141     -0.066414     -0.243552
  O       0.047846     -0.020669     -1.756566
  O      -0.852322     -1.294765      0.283978
  C      -2.291126     -1.473289      0.097817
  O      -0.649025      1.197585      0.440607
  C      -0.169904      2.588284      0.336145
  H       3.391545     -0.728802      0.342565
  H       2.472578     -0.958258     -1.199750
  H       2.259121     -2.115347      0.141837
  H      -2.469288     -2.541540      0.195218
  H      -2.589885     -1.082709     -0.881302
  H      -2.808829     -0.905942      0.883530
  H       0.600824      2.736742      1.098028
  H      -1.043453      3.202949      0.541963
  H       0.233030      2.781037     -0.659932
17
Coordinates from ORCA-job TMP_cation_cpcm_20_default E -761.700699453217
  C       2.484615     -1.042043     -0.109290
  O       1.377315     -0.234090      0.430585
  P       0.004251     -0.084405     -0.323498
  O       0.068363     -0.115427     -1.849596
  O      -0.855413     -1.314286      0.176998
  C      -2.313082     -1.442244      0.146602
  O      -0.701171      1.178468      0.269356
  C      -0.170558      2.557980      0.344624
  H       3.379001     -0.662909      0.379672
  H       2.536229     -0.941792     -1.195680
  H       2.295958     -2.084935      0.160661
  H      -2.506851     -2.511359      0.177164
  H      -2.703020     -0.957525     -0.753847
  H      -2.700139     -0.927421      1.034570
  H       0.438371      2.621228      1.248459
  H      -1.055533      3.186336      0.409147
  H       0.421662      2.774424     -0.545929
17
Coordinates from ORCA-job TMP_cation_cpcm_20_default E -761.701924252374
  C       2.488451     -1.012538     -0.111015
  O       1.361410     -0.202725      0.387643
  P      -0.004199     -0.094139     -0.368052
  O       0.068738     -0.191142     -1.893937
  O      -0.859571     -1.328049      0.124212
  C      -2.316834     -1.420919      0.172212
  O      -0.735550      1.172105      0.160395
  C      -0.164701      2.520725      0.355257
  H       3.367346     -0.598050      0.377895
  H       2.551601     -0.931248     -1.197428
  H       2.316168     -2.047640      0.191209
  H      -2.537622     -2.485471      0.167226
  H      -2.747381     -0.889010     -0.680824
  H      -2.633386     -0.940230      1.105152
  H       0.320975      2.528126      1.332264
  H      -1.022614      3.188090      0.322000
  H       0.547169      2.732114     -0.444207
17
Coordinates from ORCA-job TMP_cation_cpcm_20_default E -761.702921924198
  C       2.487232     -0.975178     -0.117093
  O       1.351103     -0.141887      0.319023
  P      -0.016858     -0.097667     -0.421031
  O       0.049400     -0.294636     -1.937968
  O      -0.860206     -1.336459      0.084704
  C      -2.311988     -1.399037      0.193367
  O      -0.768743      1.179453      0.030650
  C      -0.157629      2.473722      0.378720
  H       3.360154     -0.514913      0.341267
  H       2.552740     -0.956848     -1.205604
  H       2.328997     -1.986869      0.259368
  H      -2.563123     -2.457162      0.174762
  H      -2.774191     -0.842551     -0.626352
  H      -2.574343     -0.938907      1.153263
  H       0.168912      2.414649      1.417857
  H      -0.953070      3.203429      0.245589
  H       0.681611      2.670861     -0.290521
17
Coordinates from ORCA-job TMP_cation_cpcm_20_default E -761.703407752671
  C       2.483635     -0.955321     -0.123119
  O       1.354642     -0.082629      0.251570
  P      -0.024361     -0.091134     -0.461390
  O       0.016592     -0.370647     -1.965953
  O      -0.852188     -1.333325      0.073466
  C      -2.300778     -1.387853      0.200799
  O      -0.782251      1.199013     -0.058900
  C      -0.155713      2.447687      0.403964
  H       3.363065     -0.464434      0.288942
  H       2.542961     -1.021965     -1.210027
  H       2.324392     -1.931528      0.336652
  H      -2.562124     -2.443949      0.190744
  H      -2.776281     -0.835727     -0.614444
  H      -2.549035     -0.925706      1.163971
  H       0.061820      2.339789      1.467545
  H      -0.898939      3.221567      0.224289
  H       0.754562      2.636162     -0.168109
17
Coordinates from ORCA-job TMP_cation_cpcm_20_default E -761.703775827235
  C       2.478886     -0.948004     -0.129727
  O       1.371538     -0.015822      0.160708
  P      -0.023966     -0.077030     -0.512364
  O      -0.028153     -0.445572     -1.998857
  O      -0.831662     -1.318727      0.069763
  C      -2.278989     -1.373588      0.206082
  O      -0.781100      1.229662     -0.156101
  C      -0.164584      2.428574      0.436931
  H       3.373863     -0.433931      0.214872
  H       2.522860     -1.135670     -1.203337
  H       2.306121     -1.863494      0.437344
  H      -2.541045     -2.429692      0.214378
  H      -2.763902     -0.836555     -0.614031
  H      -2.523710     -0.898800      1.164477
  H      -0.058574      2.262102      1.510068
  H      -0.861223      3.238160      0.228827
  H       0.803640      2.618387     -0.029033
17
Coordinates from ORCA-job TMP_cation_cpcm_20_default E -761.704011039638
  C       2.472951     -0.950850     -0.132471
  O       1.390491      0.029285      0.087338
  P      -0.017292     -0.063609     -0.556289
  O      -0.062029     -0.489980     -2.026909
  O      -0.808059     -1.300713      0.071708
  C      -2.255599     -1.359091      0.211583
  O      -0.768717      1.256969     -0.231257
  C      -0.179000      2.417132      0.460907
  H       3.383074     -0.432142      0.161248
  H       2.502119     -1.231860     -1.186381
  H       2.282169     -1.811370      0.510194
  H      -2.513545     -2.416039      0.233561
  H      -2.744716     -0.833686     -0.613634
  H      -2.500994     -0.873090      1.164307
  H      -0.144423      2.198093      1.529421
  H      -0.854664      3.243322      0.248916
  H       0.818235      2.617629      0.067758
17
Coordinates from ORCA-job TMP_cation_cpcm_20_default E -761.704358249998
  C       2.460972     -0.963412     -0.132053
  O       1.418019      0.074083     -0.000706
  P      -0.002542     -0.044603     -0.615461
  O      -0.098091     -0.524964     -2.066347
  O      -0.770249     -1.271851      0.075655
  C      -2.218150     -1.336405      0.223333
  O      -0.740962      1.294495     -0.327764
  C      -0.205873      2.404323      0.484639
  H       3.391610     -0.455787      0.111440
  H       2.472294     -1.345410     -1.154493
  H       2.239346     -1.755118      0.585351
  H      -2.468719     -2.394909      0.253082
  H      -2.713332     -0.816163     -0.601350
  H      -2.460676     -0.844236      1.173677
  H      -0.244252      2.111629      1.535512
  H      -0.873480      3.239151      0.282081
  H       0.814087      2.629178      0.173405
17
Coordinates from ORCA-job TMP_cation_cpcm_20_default E -761.704780084120
  C       2.447033     -0.993533     -0.131202
  O       1.463127      0.108975     -0.108044
  P       0.030375     -0.020231     -0.696854
  O      -0.126857     -0.551188     -2.122912
  O      -0.711460     -1.228456      0.070736
  C      -2.157278     -1.286799      0.251014
  O      -0.684465      1.341866     -0.461463
  C      -0.265899      2.378260      0.505762
  H       3.402777     -0.517144      0.073667
  H       2.440320     -1.473951     -1.111474
  H       2.176890     -1.703108      0.652692
  H      -2.411170     -2.344731      0.271116
  H      -2.667751     -0.745893     -0.550161
  H      -2.369811     -0.806099      1.214685
  H      -0.403555      1.985676      1.514973
  H      -0.936087      3.211918      0.308700
  H       0.773813      2.644437      0.318764
17
Coordinates from ORCA-job TMP_cation_cpcm_20_default E -761.705060225807
  C       2.440020     -1.014960     -0.130347
  O       1.480921      0.109921     -0.129233
  P       0.050462     -0.011137     -0.729344
  O      -0.114433     -0.545457     -2.150616
  O      -0.684379     -1.205820      0.069407
  C      -2.126722     -1.255592      0.273417
  O      -0.653005      1.359136     -0.525929
  C      -0.303907      2.362935      0.502124
  H       3.401884     -0.558798      0.091097
  H       2.440708     -1.497679     -1.109546
  H       2.140828     -1.717302      0.649332
  H      -2.390150     -2.311526      0.275015
  H      -2.646269     -0.687247     -0.502295
  H      -2.312303     -0.795711      1.253317
  H      -0.470474      1.923447      1.487189
  H      -0.988830      3.185758      0.311115
  H       0.735649      2.660032      0.365298
17
Coordinates from ORCA-job TMP_cation_cpcm_20_default E -761.705262994286
  C       2.442571     -1.019701     -0.129729
  O       1.470523      0.093464     -0.093129
  P       0.053014     -0.017701     -0.725739
  O      -0.075093     -0.536538     -2.153792
  O      -0.691819     -1.203140      0.069788
  C      -2.129867     -1.243590      0.286638
  O      -0.653259      1.349896     -0.543220
  C      -0.312978      2.355564      0.484658
  H       3.393850     -0.564626      0.136369
  H       2.472186     -1.445112     -1.134472
  H       2.138240     -1.765523      0.605980
  H      -2.407302     -2.296135      0.268409
  H      -2.653413     -0.649418     -0.466653
  H      -2.295938     -0.808320      1.281925
  H      -0.461123      1.911000      1.470300
  H      -1.010461      3.170466      0.305304
  H       0.720869      2.669415      0.337364
17
Coordinates from ORCA-job TMP_cation_cpcm_20_default E -761.705342658933
  C       2.453230     -1.030149     -0.134923
  O       1.489966      0.091513     -0.122811
  P       0.070964     -0.017984     -0.748452
  O      -0.060722     -0.562960     -2.164823
  O      -0.681704     -1.185980      0.063244
  C      -2.113165     -1.200605      0.305055
  O      -0.623064      1.358292     -0.600714
  C      -0.352378      2.324815      0.483048
  H       3.405942     -0.578859      0.133273
  H       2.490019     -1.463471     -1.135835
  H       2.138335     -1.763378      0.608709
  H      -2.418891     -2.245291      0.268527
  H      -2.641184     -0.575344     -0.419291
  H      -2.248046     -0.792284      1.317101
  H      -0.551323      1.845114      1.443146
  H      -1.043049      3.144314      0.297758
  H       0.685070      2.652257      0.406988
17
Coordinates from ORCA-job TMP_cation_cpcm_20_default E -761.705396335495
  C       2.455655     -1.021469     -0.133037
  O       1.478372      0.086936     -0.107239
  P       0.061591     -0.024574     -0.737284
  O      -0.050866     -0.564709     -2.156992
  O      -0.697119     -1.191192      0.064935
  C      -2.127928     -1.211106      0.300913
  O      -0.638281      1.349802     -0.586569
  C      -0.336027      2.329021      0.476928
  H       3.401877     -0.563080      0.146300
  H       2.502168     -1.436922     -1.141043
  H       2.147154     -1.769590      0.598597
  H      -2.433437     -2.255690      0.255200
  H      -2.655692     -0.581321     -0.419563
  H      -2.268783     -0.814495      1.317023
  H      -0.507621      1.863287      1.449299
  H      -1.029725      3.148640      0.303396
  H       0.698662      2.656461      0.369134
17
Coordinates from ORCA-job TMP_cation_cpcm_20_default E -761.705431522221
  C       2.455083     -1.021237     -0.130188
  O       1.479779      0.088658     -0.115026
  P       0.060797     -0.024515     -0.740844
  O      -0.049876     -0.566101     -2.160345
  O      -0.698531     -1.186601      0.065385
  C      -2.128502     -1.211383      0.301765
  O      -0.638108      1.352483     -0.591171
  C      -0.333994      2.329231      0.474598
  H       3.401027     -0.563260      0.150605
  H       2.504540     -1.443811     -1.135177
  H       2.141545     -1.764044      0.604952
  H      -2.434189     -2.255249      0.239621
  H      -2.657481     -0.569476     -0.406825
  H      -2.269496     -0.833818      1.325264
  H      -0.492723      1.858804      1.446983
  H      -1.036446      3.143553      0.311426
  H       0.696577      2.666766      0.358976
17
Coordinates from ORCA-job TMP_cation_cpcm_20_default E -761.705472889614
  C       2.451744     -1.023262     -0.122113
  O       1.484558      0.093179     -0.134054
  P       0.061690     -0.022777     -0.752445
  O      -0.048647     -0.566983     -2.171746
  O      -0.697502     -1.175020      0.064474
  C      -2.125661     -1.208424      0.306279
  O      -0.633434      1.359540     -0.606710
  C      -0.333739      2.328615      0.468344
  H       3.397586     -0.568050      0.163028
  H       2.508004     -1.463118     -1.119482
  H       2.123999     -1.753126      0.620041
  H      -2.433851     -2.248385      0.199348
  H      -2.657365     -0.532306     -0.367048
  H      -2.260090     -0.881938      1.348195
  H      -0.464399      1.842933      1.437443
  H      -1.059134      3.126953      0.327680
  H       0.686243      2.692169      0.338767
17
Coordinates from ORCA-job TMP_cation_cpcm_20_default E -761.705485013082
  C       2.449606     -1.023855     -0.117873
  O       1.485823      0.095259     -0.140245
  P       0.062114     -0.022125     -0.756649
  O      -0.049454     -0.567697     -2.175809
  O      -0.696335     -1.171376      0.063935
  C      -2.124187     -1.206870      0.308432
  O      -0.631516      1.361284     -0.612759
  C      -0.333758      2.328453      0.464750
  H       3.395145     -0.569651      0.169745
  H       2.509096     -1.469199     -1.112674
  H       2.116409     -1.749850      0.625642
  H      -2.434963     -2.243563      0.177653
  H      -2.655737     -0.512914     -0.346299
  H      -2.253480     -0.906708      1.358699
  H      -0.451249      1.837141      1.432668
  H      -1.068993      3.119278      0.333021
  H       0.681476      2.702393      0.327763
17
Coordinates from ORCA-job TMP_cation_cpcm_20_default E -761.705500939857
  C       2.446507     -1.023782     -0.111018
  O       1.486498      0.098120     -0.146523
  P       0.062131     -0.022000     -0.760385
  O      -0.052291     -0.571467     -2.178634
  O      -0.694946     -1.167963      0.064247
  C      -2.123061     -1.204976      0.311463
  O      -0.629763      1.361832     -0.620064
  C      -0.332907      2.328963      0.457809
  H       3.390915     -0.570391      0.181394
  H       2.511896     -1.473849     -1.103330
  H       2.106533     -1.746661      0.632303
  H      -2.440172     -2.233733      0.137165
  H      -2.651934     -0.479779     -0.310191
  H      -2.243614     -0.952330      1.374782
  H      -0.428301      1.832144      1.425250
  H      -1.082289      3.108443      0.339124
  H       0.674797      2.717429      0.306607
17
Coordinates from ORCA-job TMP_cation_cpcm_20_default E -761.705510281392
  C       2.444524     -1.022654     -0.107261
  O       1.485052      0.099499     -0.145271
  P       0.060481     -0.022560     -0.757930
  O      -0.056513     -0.575051     -2.175164
  O      -0.694994     -1.167969      0.068341
  C      -2.124492     -1.207535      0.311703
  O      -0.631245      1.360681     -0.619398
  C      -0.329099      2.332600      0.452598
  H       3.387888     -0.569667      0.189146
  H       2.513762     -1.470945     -1.100120
  H       2.102250     -1.747250      0.633246
  H      -2.444126     -2.230348      0.108010
  H      -2.649871     -0.463999     -0.290573
  H      -2.243843     -0.986038      1.381733
  H      -0.407609      1.837515      1.422385
  H      -1.085901      3.105968      0.341543
  H       0.673737      2.727753      0.287013
17
Coordinates from ORCA-job TMP_cation_cpcm_20_default E -761.705518878933
  C       2.443517     -1.021432     -0.105324
  O       1.483106      0.099953     -0.140012
  P       0.058136     -0.023548     -0.751093
  O      -0.062557     -0.580761     -2.166260
  O      -0.695680     -1.168677      0.077298
  C      -2.127409     -1.212534      0.310836
  O      -0.633545      1.359210     -0.615350
  C      -0.323816      2.338961      0.447144
  H       3.385797     -0.569204      0.195762
  H       2.516317     -1.463462     -1.100703
  H       2.100621     -1.750666      0.630258
  H      -2.447607     -2.229241      0.078229
  H      -2.648262     -0.453371     -0.275284
  H      -2.250788     -1.021086      1.385876
  H      -0.387489      1.849636      1.420884
  H      -1.085344      3.108323      0.340903
  H       0.675003      2.737899      0.266835
17
Coordinates from ORCA-job TMP_cation_cpcm_20_default E -761.705523250667
  C       2.443652     -1.021127     -0.105517
  O       1.482176      0.099562     -0.135278
  P       0.056689     -0.024198     -0.744935
  O      -0.066833     -0.585353     -2.158141
  O      -0.696378     -1.168471      0.086072
  C      -2.129569     -1.216664      0.310131
  O      -0.634760      1.358839     -0.611952
  C      -0.320320      2.344387      0.443659
  H       3.385313     -0.569837      0.198996
  H       2.518425     -1.457144     -1.103354
  H       2.100771     -1.754322      0.626119
  H      -2.448666     -2.229680      0.059713
  H      -2.647652     -0.449113     -0.267264
  H      -2.258788     -1.043840      1.387534
  H      -0.378123      1.860289      1.420358
  H      -1.082902      3.112771      0.337771
  H       0.676967      2.743899      0.256087
17
Coordinates from ORCA-job TMP_cation_cpcm_20_default E -761.705525466965
  C       2.444295     -1.021442     -0.106573
  O       1.482336      0.099122     -0.133286
  P       0.056437     -0.024333     -0.741842
  O      -0.068938     -0.588095     -2.153664
  O      -0.696618     -1.167447      0.091678
  C      -2.130208     -1.218582      0.310170
  O      -0.634715      1.359290     -0.610812
  C      -0.319314      2.347279      0.442166
  H       3.385801     -0.570763      0.199374
  H       2.519506     -1.454405     -1.105666
  H       2.101454     -1.756283      0.623438
  H      -2.448269     -2.229934      0.051270
  H      -2.647354     -0.447331     -0.263072
  H      -2.263571     -1.055024      1.388534
  H      -0.379297      1.866070      1.420159
  H      -1.080285      3.116883      0.333337
  H       0.678741      2.744996      0.254789
17
Coordinates from ORCA-job TMP_cation_cpcm_20_default E -761.705527105025
  C       2.445016     -1.021945     -0.107418
  O       1.482974      0.098858     -0.133393
  P       0.056905     -0.024272     -0.741283
  O      -0.069376     -0.589920     -2.152125
  O      -0.696553     -1.165919      0.094636
  C      -2.129761     -1.218697      0.311205
  O      -0.634028      1.359902     -0.611890
  C      -0.319963      2.348254      0.441114
  H       3.386388     -0.571477      0.199258
  H       2.520413     -1.453909     -1.106887
  H       2.101790     -1.756953      0.622239
  H      -2.448150     -2.228244      0.045165
  H      -2.646869     -0.443330     -0.256485
  H      -2.264549     -1.063801      1.390742
  H      -0.386048      1.868306      1.419332
  H      -1.078156      3.120004      0.327967
  H       0.679968      2.743146      0.257822
17
Coordinates from ORCA-job TMP_cation_cpcm_20_default E -761.705528535999
  C       2.445286     -1.022120     -0.107885
  O       1.483407      0.099148     -0.134231
  P       0.057353     -0.023956     -0.741786
  O      -0.070019     -0.590924     -2.151869
  O      -0.696153     -1.164528      0.096538
  C      -2.128714     -1.218924      0.312555
  O      -0.633747      1.360387     -0.613006
  C      -0.320719      2.348945      0.440107
  H       3.386666     -0.571576      0.198617
  H       2.520241     -1.454539     -1.107164
  H       2.101740     -1.756460      0.622282
  H      -2.447747     -2.226215      0.038270
  H      -2.646155     -0.438462     -0.247771
  H      -2.263680     -1.074174      1.393508
  H      -0.395678      1.870609      1.418466
  H      -1.074361      3.124246      0.320918
  H       0.682280      2.738543      0.262453
17
Coordinates from ORCA-job TMP_cation_cpcm_20_default E -761.705529479358
  C       2.445291     -1.021896     -0.107611
  O       1.483589      0.099639     -0.135773
  P       0.057765     -0.023791     -0.743519
  O      -0.069756     -0.591443     -2.153227
  O      -0.695728     -1.163767      0.096004
  C      -2.127559     -1.218174      0.314095
  O      -0.633611      1.360377     -0.614945
  C      -0.321881      2.348303      0.439181
  H       3.386615     -0.570899      0.198334
  H       2.520046     -1.455816     -1.106243
  H       2.101468     -1.755128      0.623509
  H      -2.448585     -2.222892      0.032337
  H      -2.645320     -0.432267     -0.238223
  H      -2.260136     -1.082908      1.396602
  H      -0.404390      1.870625      1.417250
  H      -1.071586      3.126685      0.315406
  H       0.683779      2.733352      0.266821
17
Coordinates from ORCA-job TMP_cation_cpcm_20_default E -761.705530018610
  C       2.445010     -1.021338     -0.107039
  O       1.483393      0.100197     -0.136775
  P       0.057770     -0.023730     -0.744894
  O      -0.069710     -0.591753     -2.154363
  O      -0.695401     -1.163658      0.095098
  C      -2.126845     -1.217865      0.315221
  O      -0.633870      1.360127     -0.616168
  C      -0.322425      2.347848      0.438296
  H       3.386348     -0.569901      0.198180
  H       2.519588     -1.456745     -1.105051
  H       2.101196     -1.753738      0.624908
  H      -2.449683     -2.220183      0.026781
  H      -2.644619     -0.427203     -0.230178
  H      -2.256864     -1.090835      1.399017
  H      -0.410052      1.870988      1.416318
  H      -1.069055      3.128643      0.311335
  H       0.685220      2.729144      0.269314
17
Coordinates from ORCA-job TMP_cation_cpcm_20_default E -761.705530228739
  C       2.444892     -1.020959     -0.106700
  O       1.483271      0.100414     -0.137204
  P       0.057692     -0.023780     -0.745567
  O      -0.069529     -0.592074     -2.154876
  O      -0.695285     -1.163763      0.094407
  C      -2.126657     -1.217639      0.315827
  O      -0.633928      1.359981     -0.616924
  C      -0.322717      2.347557      0.437799
  H       3.386300     -0.569293      0.197966
  H       2.519389     -1.457250     -1.104351
  H       2.101260     -1.752947      0.625754
  H      -2.450633     -2.218561      0.023751
  H      -2.644264     -0.424403     -0.225924
  H      -2.255004     -1.095010      1.400304
  H      -0.412702      1.871064      1.415789
  H      -1.067918      3.129472      0.309427
  H       0.685833      2.727191      0.270520
