17
Coordinates from ORCA-job TMP_cation_cpcm_20_default E -761.705530228739
  C           2.44489244653340     -1.02095934770889     -0.10669989052095
  O           1.48327138418460      0.10041361264175     -0.13720371057972
  P           0.05769182312449     -0.02377973792687     -0.74556700787117
  O          -0.06952904320141     -0.59207433368582     -2.15487589267956
  O          -0.69528491616853     -1.16376266554273      0.09440715742201
  C          -2.12665724500701     -1.21763860930156      0.31582746833571
  O          -0.63392763617961      1.35998097413849     -0.61692431184144
  C          -0.32271710840472      2.34755673914892      0.43779926248943
  H           3.38629991738675     -0.56929306610620      0.19796601082897
  H           2.51938886883833     -1.45725009471238     -1.10435129269838
  H           2.10126029629709     -1.75294705691108      0.62575438689659
  H          -2.45063280098350     -2.21856061173838      0.02375107547083
  H          -2.64426405746614     -0.42440310826813     -0.22592351218848
  H          -2.25500444048554     -1.09500976581377      1.40030411319141
  H          -0.41270186357193      1.87106377736844      1.41578944874976
  H          -1.06791839780231      3.12947245262568      0.30942682828072
  H           0.68583276290606      2.72719085179235      0.27051985671419
