17
Coordinates from ORCA-job TMP_cation_cpcm_28_default E -761.680781268132
  C       2.322150     -1.110107     -0.121247
  O       1.446904     -0.246841      0.586848
  P      -0.001093      0.003392     -0.032977
  O      -0.049654      0.153953     -1.490261
  O      -0.851133     -1.206662      0.564270
  C      -2.124125     -1.458547     -0.009074
  O      -0.530506      1.251111      0.807508
  C      -0.191013      2.546951      0.340395
  H       3.337969     -0.827674      0.154216
  H       2.176116     -0.993877     -1.196468
  H       2.136428     -2.148361      0.159357
  H      -2.350663     -2.509116      0.170324
  H      -2.100650     -1.254852     -1.080809
  H      -2.881254     -0.829776      0.462504
  H       0.789643      2.839662      0.719716
  H      -0.952799      3.229495      0.716423
  H      -0.176319      2.561249     -0.750724
17
Coordinates from ORCA-job TMP_cation_cpcm_28_default E -761.689444459576
  C       2.379174     -1.091653     -0.115269
  O       1.436003     -0.253529      0.566333
  P       0.002401     -0.027151     -0.101310
  O      -0.005218      0.100415     -1.574641
  O      -0.852556     -1.245599      0.480936
  C      -2.197167     -1.482596      0.020228
  O      -0.562837      1.232743      0.703222
  C      -0.178144      2.576763      0.336433
  H       3.373224     -0.799228      0.223318
  H       2.289425     -0.977088     -1.205095
  H       2.184306     -2.143628      0.145927
  H      -2.409009     -2.537419      0.194674
  H      -2.289351     -1.240912     -1.043132
  H      -2.902903     -0.860661      0.590178
  H       0.765807      2.841618      0.831172
  H      -0.971927      3.234932      0.691646
  H      -0.061228      2.672993     -0.744620
17
Coordinates from ORCA-job TMP_cation_cpcm_28_default E -761.694444095423
  C       2.421144     -1.080325     -0.112362
  O       1.422406     -0.255817      0.536160
  P       0.003595     -0.045340     -0.163751
  O       0.018961      0.053794     -1.655601
  O      -0.852408     -1.269611      0.397146
  C      -2.247020     -1.488540      0.051310
  O      -0.598159      1.218945      0.596333
  C      -0.171568      2.592119      0.335312
  H       3.389199     -0.773200      0.280548
  H       2.379098     -0.971944     -1.205150
  H       2.218105     -2.133474      0.141017
  H      -2.437759     -2.549252      0.204822
  H      -2.434320     -1.191530     -0.986924
  H      -2.882565     -0.882808      0.714728
  H       0.713089      2.812833      0.945241
  H      -1.002361      3.225593      0.642903
  H       0.060562      2.738558     -0.721734
17
Coordinates from ORCA-job TMP_cation_cpcm_28_default E -761.699095236596
  C       2.461122     -1.065276     -0.109610
  O       1.401266     -0.253363      0.489239
  P       0.006048     -0.066457     -0.243864
  O       0.048120     -0.020693     -1.756748
  O      -0.852357     -1.294844      0.283884
  C      -2.291068     -1.473276      0.097959
  O      -0.649147      1.197420      0.440592
  C      -0.169849      2.587951      0.336054
  H       3.391297     -0.728767      0.343149
  H       2.472819     -0.957341     -1.199598
  H       2.258813     -2.115189      0.141125
  H      -2.469323     -2.541490      0.195513
  H      -2.589949     -1.082601     -0.881096
  H      -2.808645     -0.905701      0.883637
  H       0.601019      2.736293      1.097831
  H      -1.043278      3.202758      0.541960
  H       0.233110      2.780577     -0.660029
17
Coordinates from ORCA-job TMP_cation_cpcm_28_default E -761.701901854587
  C       2.484636     -1.041589     -0.109178
  O       1.376911     -0.234344      0.430630
  P       0.004192     -0.084595     -0.324274
  O       0.069019     -0.115777     -1.850171
  O      -0.855524     -1.314484      0.176433
  C      -2.313087     -1.442009      0.147016
  O      -0.701484      1.178108      0.268749
  C      -0.170633      2.557416      0.344464
  H       3.378630     -0.662844      0.380797
  H       2.537007     -0.940303     -1.195428
  H       2.295801     -2.084789      0.159490
  H      -2.507190     -2.511057      0.177468
  H      -2.703496     -0.956666     -0.752915
  H      -2.699383     -0.927165      1.035357
  H       0.437925      2.620358      1.248582
  H      -1.055499      3.185948      0.408695
  H       0.422175      2.773790     -0.545713
17
Coordinates from ORCA-job TMP_cation_cpcm_28_default E -761.703130127303
  C       2.488547     -1.011998     -0.110875
  O       1.360921     -0.203196      0.387758
  P      -0.004212     -0.094430     -0.369036
  O       0.069702     -0.191517     -1.894629
  O      -0.859796     -1.328346      0.123319
  C      -2.316877     -1.420521      0.172783
  O      -0.735902      1.171610      0.159570
  C      -0.164881      2.519984      0.354975
  H       3.366880     -0.598041      0.379492
  H       2.552760     -0.929189     -1.197107
  H       2.316122     -2.047602      0.189595
  H      -2.538269     -2.484940      0.167437
  H      -2.748057     -0.887574     -0.679308
  H      -2.632198     -0.940126      1.106352
  H       0.320165      2.527098      1.332309
  H      -1.022600      3.187572      0.321269
  H       0.547696      2.731216     -0.443905
17
Coordinates from ORCA-job TMP_cation_cpcm_28_default E -761.704132860131
  C       2.487436     -0.974556     -0.116945
  O       1.350514     -0.142399      0.318881
  P      -0.016780     -0.098041     -0.422614
  O       0.050753     -0.295366     -1.939144
  O      -0.860536     -1.336846      0.083053
  C      -2.311970     -1.398274      0.194280
  O      -0.769188      1.178853      0.028858
  C      -0.158073      2.472637      0.378394
  H       3.359563     -0.514766      0.343409
  H       2.554505     -0.954415     -1.205318
  H       2.328994     -1.986945      0.257580
  H      -2.564176     -2.456128      0.174926
  H      -2.775226     -0.840034     -0.623674
  H      -2.572032     -0.939033      1.155300
  H       0.166617      2.413005      1.418086
  H      -0.952912      3.202796      0.244171
  H       0.682510      2.669514     -0.289243
17
Coordinates from ORCA-job TMP_cation_cpcm_28_default E -761.704620688839
  C       2.483925     -0.954801     -0.122973
  O       1.354067     -0.083316      0.251486
  P      -0.024159     -0.091539     -0.463180
  O       0.018260     -0.371357     -1.967308
  O      -0.852566     -1.333748      0.071471
  C      -2.300703     -1.386911      0.201872
  O      -0.782585      1.198378     -0.060987
  C      -0.156393      2.446551      0.403563
  H       3.362464     -0.464424      0.291594
  H       2.545177     -1.019235     -1.209896
  H       2.324253     -1.932010      0.334539
  H      -2.563302     -2.442686      0.190928
  H      -2.777472     -0.832684     -0.611222
  H      -2.546144     -0.925898      1.166395
  H       0.058856      2.338098      1.467558
  H      -0.898876      3.220862      0.222679
  H       0.755199      2.634719     -0.166518
17
Coordinates from ORCA-job TMP_cation_cpcm_28_default E -761.704997930320
  C       2.479372     -0.947446     -0.129767
  O       1.371437     -0.015453      0.158637
  P      -0.023432     -0.077304     -0.515633
  O      -0.026708     -0.448077     -2.001244
  O      -0.831637     -1.318928      0.066967
  C      -2.278320     -1.371654      0.207623
  O      -0.781152      1.229433     -0.160946
  C      -0.166124      2.426556      0.437155
  H       3.373626     -0.433261      0.216540
  H       2.525432     -1.134938     -1.203304
  H       2.305678     -1.862986      0.436935
  H      -2.542257     -2.427298      0.215136
  H      -2.765107     -0.832096     -0.609737
  H      -2.519014     -0.898073      1.167744
  H      -0.065909      2.258220      1.510556
  H      -0.860616      3.237413      0.226812
  H       0.804731      2.615893     -0.023476
17
Coordinates from ORCA-job TMP_cation_cpcm_28_default E -761.705237545967
  C       2.473616     -0.950284     -0.132521
  O       1.390548      0.029531      0.085083
  P      -0.016569     -0.063983     -0.559788
  O      -0.060356     -0.492533     -2.029462
  O      -0.807983     -1.300973      0.068667
  C      -2.254788     -1.356688      0.213330
  O      -0.768467      1.256688     -0.236475
  C      -0.180967      2.414678      0.461098
  H       3.382976     -0.431368      0.163202
  H       2.505119     -1.231032     -1.186417
  H       2.281689     -1.810923      0.509640
  H      -2.515006     -2.413103      0.234419
  H      -2.745915     -0.828407     -0.608874
  H      -2.495673     -0.871920      1.167945
  H      -0.152720      2.193583      1.529378
  H      -0.854214      3.242278      0.246911
  H       0.818708      2.614455      0.073865
17
Coordinates from ORCA-job TMP_cation_cpcm_28_default E -761.705603304572
  C       2.461625     -0.963444     -0.132264
  O       1.419713      0.075759     -0.007191
  P      -0.000816     -0.044353     -0.621590
  O      -0.097705     -0.529036     -2.070634
  O      -0.768516     -1.271026      0.072208
  C      -2.215546     -1.332158      0.225833
  O      -0.738932      1.295619     -0.337115
  C      -0.209857      2.400529      0.485898
  H       3.392334     -0.455900      0.111100
  H       2.474503     -1.349534     -1.153141
  H       2.237565     -1.752052      0.587795
  H      -2.468888     -2.390024      0.255076
  H      -2.713187     -0.808858     -0.595453
  H      -2.452561     -0.840806      1.178117
  H      -0.259067      2.102826      1.534921
  H      -0.874065      3.237454      0.280857
  H       0.813401      2.625005      0.185584
17
Coordinates from ORCA-job TMP_cation_cpcm_28_default E -761.706027766456
  C       2.447791     -0.994081     -0.131505
  O       1.465415      0.109783     -0.114442
  P       0.032454     -0.019820     -0.702493
  O      -0.126449     -0.553504     -2.127065
  O      -0.709451     -1.227675      0.067073
  C      -2.154152     -1.282241      0.253485
  O      -0.681699      1.343017     -0.469146
  C      -0.270668      2.374242      0.506898
  H       3.403803     -0.518146      0.073141
  H       2.441984     -1.478465     -1.109828
  H       2.175221     -1.700143      0.654731
  H      -2.411165     -2.339424      0.273655
  H      -2.666897     -0.738491     -0.544364
  H      -2.361001     -0.801825      1.218692
  H      -0.418684      1.977242      1.512902
  H      -0.937642      3.209866      0.307279
  H       0.771138      2.639664      0.330989
17
Coordinates from ORCA-job TMP_cation_cpcm_28_default E -761.706313205143
  C       2.440651     -1.015049     -0.130600
  O       1.482022      0.110060     -0.132601
  P       0.051699     -0.011063     -0.733071
  O      -0.113112     -0.545959     -2.153839
  O      -0.683441     -1.205727      0.066436
  C      -2.124680     -1.252410      0.275266
  O      -0.651707      1.359358     -0.530279
  C      -0.307229      2.359705      0.502695
  H       3.402329     -0.558881      0.091628
  H       2.442504     -1.499320     -1.109037
  H       2.140002     -1.716135      0.649658
  H      -2.390636     -2.307706      0.278093
  H      -2.645780     -0.682565     -0.498383
  H      -2.305936     -0.791664      1.255732
  H      -0.480720      1.917639      1.485400
  H      -0.989582      3.184225      0.309804
  H       0.733617      2.655492      0.373099
17
Coordinates from ORCA-job TMP_cation_cpcm_28_default E -761.706518825828
  C       2.443149     -1.019876     -0.130025
  O       1.471691      0.093775     -0.096828
  P       0.054305     -0.017556     -0.729678
  O      -0.073594     -0.537127     -2.157174
  O      -0.690769     -1.202858      0.066624
  C      -2.127644     -1.240050      0.288457
  O      -0.652013      1.350087     -0.547733
  C      -0.316557      2.352018      0.485377
  H       3.394334     -0.564716      0.136258
  H       2.473654     -1.447343     -1.133859
  H       2.137630     -1.764061      0.606843
  H      -2.407713     -2.291929      0.272146
  H      -2.652660     -0.644754     -0.462983
  H      -2.289192     -0.803490      1.284094
  H      -0.471901      1.904582      1.468617
  H      -1.011449      3.168718      0.304143
  H       0.718730      2.664580      0.345720
17
Coordinates from ORCA-job TMP_cation_cpcm_28_default E -761.706594062897
  C       2.453914     -1.030944     -0.135340
  O       1.491757      0.091598     -0.127057
  P       0.072933     -0.017666     -0.753063
  O      -0.058557     -0.563436     -2.168796
  O      -0.680169     -1.185333      0.059440
  C      -2.110100     -1.195741      0.307443
  O      -0.620879      1.358743     -0.606163
  C      -0.357425      2.320455      0.483698
  H       3.406691     -0.579878      0.133009
  H       2.491533     -1.466521     -1.135225
  H       2.137477     -1.762148      0.609605
  H      -2.419306     -2.239465      0.272787
  H      -2.639569     -0.568546     -0.414205
  H      -2.239094     -0.786627      1.320117
  H      -0.564812      1.837028      1.440137
  H      -1.045425      3.141731      0.296364
  H       0.681030      2.646750      0.417249
17
Coordinates from ORCA-job TMP_cation_cpcm_28_default E -761.706649342139
  C       2.455773     -1.021887     -0.133181
  O       1.479165      0.087030     -0.109850
  P       0.062826     -0.024305     -0.741060
  O      -0.048713     -0.564062     -2.160622
  O      -0.696065     -1.191217      0.061307
  C      -2.125647     -1.208045      0.302650
  O      -0.637385      1.349846     -0.590095
  C      -0.339365      2.326013      0.477481
  H       3.401916     -0.563673      0.146708
  H       2.503155     -1.438635     -1.140604
  H       2.146011     -1.768949      0.598996
  H      -2.433504     -2.252024      0.259393
  H      -2.654849     -0.577413     -0.416068
  H      -2.261660     -0.809814      1.318941
  H      -0.516845      1.857882      1.447641
  H      -1.031115      3.146933      0.302385
  H       0.696303      2.652322      0.375980
17
Coordinates from ORCA-job TMP_cation_cpcm_28_default E -761.706684079766
  C       2.454944     -1.021532     -0.130285
  O       1.480333      0.088856     -0.117181
  P       0.061836     -0.024176     -0.744364
  O      -0.047958     -0.564938     -2.163873
  O      -0.697490     -1.186990      0.061700
  C      -2.126354     -1.208959      0.303208
  O      -0.637531      1.352470     -0.593868
  C      -0.336827      2.326662      0.475286
  H       3.400898     -0.563780      0.150832
  H       2.504953     -1.445379     -1.134711
  H       2.140311     -1.763359      0.605379
  H      -2.433967     -2.252421      0.244338
  H      -2.656711     -0.567037     -0.404385
  H      -2.262881     -0.828783      1.326491
  H      -0.500966      1.854301      1.445832
  H      -1.037379      3.142272      0.310439
  H       0.694789      2.662794      0.365162
17
Coordinates from ORCA-job TMP_cation_cpcm_28_default E -761.706726111157
  C       2.451569     -1.023479     -0.122131
  O       1.485168      0.093472     -0.136463
  P       0.062720     -0.022429     -0.756150
  O      -0.046512     -0.565865     -2.175410
  O      -0.696604     -1.175391      0.060446
  C      -2.123555     -1.205940      0.307698
  O      -0.632752      1.359648     -0.609593
  C      -0.336528      2.325894      0.469029
  H       3.397482     -0.568495      0.163135
  H       2.508297     -1.464938     -1.118773
  H       2.122696     -1.752047      0.620809
  H      -2.433891     -2.245581      0.204109
  H      -2.656634     -0.529713     -0.364479
  H      -2.253322     -0.876990      1.349595
  H      -0.472232      1.838019      1.436337
  H      -1.060374      3.125391      0.326995
  H       0.684471      2.688443      0.344846
17
Coordinates from ORCA-job TMP_cation_cpcm_28_default E -761.706738188025
  C       2.449546     -1.024124     -0.117930
  O       1.486593      0.095518     -0.142942
  P       0.063265     -0.021772     -0.760547
  O      -0.047176     -0.566790     -2.179574
  O      -0.695447     -1.171608      0.059736
  C      -2.121993     -1.204036      0.309957
  O      -0.630597      1.361476     -0.616060
  C      -0.336821      2.325449      0.465452
  H       3.395168     -0.570111      0.169720
  H       2.509505     -1.471245     -1.111910
  H       2.115209     -1.748630      0.626534
  H      -2.435216     -2.240398      0.182555
  H      -2.654897     -0.509835     -0.343457
  H      -2.246403     -0.901534      1.360319
  H      -0.459652      1.831626      1.431432
  H      -1.070560      3.117429      0.332342
  H       0.679476      2.698586      0.334373
17
Coordinates from ORCA-job TMP_cation_cpcm_28_default E -761.706753899081
  C       2.446615     -1.024117     -0.111180
  O       1.487450      0.098295     -0.149526
  P       0.063423     -0.021618     -0.764486
  O      -0.049893     -0.570752     -2.182513
  O      -0.694082     -1.168019      0.059849
  C      -2.120772     -1.201744      0.313069
  O      -0.628581      1.362129     -0.623784
  C      -0.336284      2.325626      0.458616
  H       3.391121     -0.570825      0.181072
  H       2.512394     -1.476183     -1.102555
  H       2.105573     -1.745281      0.633320
  H      -2.440624     -2.230293      0.142668
  H      -2.650951     -0.476501     -0.307467
  H      -2.236338     -0.946401      1.376485
  H      -0.437487      1.825922      1.423984
  H      -1.084181      3.106300      0.338446
  H       0.672618      2.713461      0.314002
17
Coordinates from ORCA-job TMP_cation_cpcm_28_default E -761.706763093821
  C       2.444686     -1.023023     -0.107521
  O       1.486065      0.099637     -0.148374
  P       0.061831     -0.022127     -0.762121
  O      -0.054133     -0.574264     -2.179144
  O      -0.694090     -1.167959      0.063868
  C      -2.122152     -1.204202      0.313269
  O      -0.629978      1.361039     -0.623202
  C      -0.332569      2.329149      0.453588
  H       3.388184     -0.570084      0.188537
  H       2.514162     -1.473465     -1.099386
  H       2.101437     -1.745797      0.634315
  H      -2.444493     -2.227101      0.114402
  H      -2.648847     -0.461227     -0.288608
  H      -2.236663     -0.979018      1.383250
  H      -0.417186      1.830999      1.421294
  H      -1.087864      3.103755      0.340927
  H       0.671612      2.723688      0.294906
17
Coordinates from ORCA-job TMP_cation_cpcm_28_default E -761.706771753595
  C       2.443617     -1.021708     -0.105561
  O       1.483927      0.100078     -0.142806
  P       0.059342     -0.023128     -0.755053
  O      -0.060379     -0.579807     -2.170103
  O      -0.694829     -1.168775      0.073006
  C      -2.125253     -1.209521      0.312196
  O      -0.632517      1.359476     -0.618742
  C      -0.326933      2.335746      0.448184
  H       3.385990     -0.569460      0.195203
  H       2.516633     -1.465716     -1.100042
  H       2.099877     -1.749337      0.631215
  H      -2.447933     -2.226619      0.084846
  H      -2.647316     -0.451350     -0.274183
  H      -2.244189     -1.013781      1.387145
  H      -0.395998      1.843530      1.420099
  H      -1.087192      3.106173      0.340603
  H       0.673151      2.734199      0.273994
17
Coordinates from ORCA-job TMP_cation_cpcm_28_default E -761.706776027434
  C       2.443760     -1.021365     -0.105769
  O       1.482900      0.099643     -0.137881
  P       0.057840     -0.023832     -0.748779
  O      -0.064662     -0.584282     -2.161960
  O      -0.695569     -1.168672      0.081821
  C      -2.127546     -1.213768      0.311367
  O      -0.633842      1.359025     -0.615115
  C      -0.323291      2.341257      0.444781
  H       3.385478     -0.570013      0.198476
  H       2.518762     -1.459204     -1.102792
  H       2.100114     -1.753135      0.626932
  H      -2.449026     -2.227439      0.066788
  H      -2.646754     -0.447604     -0.266908
  H      -2.252511     -1.035917      1.388632
  H      -0.386034      1.854325      1.419768
  H      -1.084792      3.110549      0.337744
  H       0.675172      2.740432      0.262895
17
Coordinates from ORCA-job TMP_cation_cpcm_28_default E -761.706778175566
  C       2.444467     -1.021685     -0.106869
  O       1.483046      0.099143     -0.135750
  P       0.057593     -0.024047     -0.745574
  O      -0.066718     -0.587062     -2.157403
  O      -0.695837     -1.167729      0.087493
  C      -2.128284     -1.215680      0.311360
  O      -0.633799      1.359409     -0.613878
  C      -0.322273      2.344186      0.443319
  H       3.385988     -0.570948      0.198943
  H       2.519985     -1.456252     -1.105243
  H       2.100875     -1.755289      0.624031
  H      -2.448742     -2.227801      0.058584
  H      -2.646440     -0.445968     -0.263084
  H      -2.257479     -1.046721      1.389577
  H      -0.386919      1.860165      1.419627
  H      -1.082317      3.114552      0.333449
  H       0.676854      2.741727      0.261419
17
Coordinates from ORCA-job TMP_cation_cpcm_28_default E -761.706779703889
  C       2.445270     -1.022204     -0.107778
  O       1.483707      0.098813     -0.135771
  P       0.058103     -0.024067     -0.744984
  O      -0.066991     -0.588895     -2.155880
  O      -0.695797     -1.166314      0.090344
  C      -2.127902     -1.215666      0.312370
  O      -0.633072      1.359946     -0.614925
  C      -0.323014      2.345065      0.442356
  H       3.386621     -0.571692      0.198891
  H       2.521057     -1.455576     -1.106611
  H       2.101295     -1.756146      0.622601
  H      -2.448752     -2.226172      0.053143
  H      -2.645928     -0.442168     -0.257079
  H      -2.258481     -1.054562      1.391694
  H      -0.393577      1.862225      1.418838
  H      -1.080423      3.117445      0.328299
  H       0.677882      2.739969      0.264492
17
Coordinates from ORCA-job TMP_cation_cpcm_28_default E -761.706781059226
  C       2.445652     -1.022434     -0.108346
  O       1.484208      0.099022     -0.136510
  P       0.058614     -0.023834     -0.745390
  O      -0.067515     -0.590021     -2.155521
  O      -0.695409     -1.164969      0.092316
  C      -2.126911     -1.215752      0.313728
  O      -0.632700      1.360381     -0.616059
  C      -0.323886      2.345711      0.441379
  H       3.386946     -0.571910      0.198442
  H       2.521181     -1.455916     -1.107124
  H       2.101274     -1.755959      0.622249
  H      -2.448458     -2.224154      0.046694
  H      -2.645146     -0.437353     -0.248777
  H      -2.257736     -1.064268      1.394449
  H      -0.403154      1.864412      1.417947
  H      -1.076909      3.121483      0.321390
  H       0.679948      2.735561      0.269132
17
Coordinates from ORCA-job TMP_cation_cpcm_28_default E -761.706781970516
  C       2.445719     -1.022236     -0.108165
  O       1.484414      0.099465     -0.137956
  P       0.059045     -0.023706     -0.747027
  O      -0.067199     -0.590616     -2.156766
  O      -0.695009     -1.164219      0.091882
  C      -2.125788     -1.214967      0.315274
  O      -0.632548      1.360342     -0.617952
  C      -0.325085      2.345074      0.440461
  H       3.386895     -0.571313      0.198344
  H       2.521214     -1.456905     -1.106416
  H       2.100987     -1.754875      0.623124
  H      -2.449298     -2.220941      0.041083
  H      -2.644297     -0.431290     -0.239556
  H      -2.254345     -1.072601      1.397540
  H      -0.411897      1.864460      1.416722
  H      -1.074177      3.123915      0.315894
  H       0.681368      2.730412      0.273513
17
Coordinates from ORCA-job TMP_cation_cpcm_28_default E -761.706782505109
  C       2.445446     -1.021688     -0.107648
  O       1.484234      0.100027     -0.138974
  P       0.059058     -0.023629     -0.748402
  O      -0.067174     -0.590946     -2.157882
  O      -0.694671     -1.164081      0.091024
  C      -2.125039     -1.214650      0.316424
  O      -0.632809      1.360098     -0.619174
  C      -0.325653      2.344611      0.439585
  H       3.386587     -0.570369      0.198349
  H       2.520899     -1.457676     -1.105341
  H       2.100621     -1.753610      0.624305
  H      -2.450322     -2.218345      0.035758
  H      -2.643582     -0.426330     -0.231681
  H      -2.251104     -1.080303      1.399992
  H      -0.417755      1.864842      1.415775
  H      -1.071560      3.125952      0.311756
  H       0.682824      2.726095      0.276131
17
Coordinates from ORCA-job TMP_cation_cpcm_28_default E -761.706782715190
  C       2.445296     -1.021302     -0.107320
  O       1.484089      0.100259     -0.139405
  P       0.058952     -0.023651     -0.749071
  O      -0.067055     -0.591224     -2.158392
  O      -0.694554     -1.164177      0.090351
  C      -2.124837     -1.214483      0.317015
  O      -0.632906      1.359964     -0.619873
  C      -0.325894      2.344347      0.439101
  H       3.386474     -0.569783      0.198270
  H       2.520765     -1.458071     -1.104688
  H       2.100578     -1.752883      0.625032
  H      -2.451174     -2.216894      0.032917
  H      -2.643259     -0.423732     -0.227637
  H      -2.249291     -1.084309      1.401254
  H      -0.420339      1.864974      1.415265
  H      -1.070335      3.126844      0.309883
  H       0.683488      2.724120      0.277298
