17
Coordinates from ORCA-job TMP_cation_cpcm_200_default E -761.683387923878
  C       2.322150     -1.110107     -0.121247
  O       1.446904     -0.246841      0.586848
  P      -0.001093      0.003392     -0.032977
  O      -0.049654      0.153953     -1.490261
  O      -0.851133     -1.206662      0.564270
  C      -2.124125     -1.458547     -0.009074
  O      -0.530506      1.251111      0.807508
  C      -0.191013      2.546951      0.340395
  H       3.337969     -0.827674      0.154216
  H       2.176116     -0.993877     -1.196468
  H       2.136428     -2.148361      0.159357
  H      -2.350663     -2.509116      0.170324
  H      -2.100650     -1.254852     -1.080809
  H      -2.881254     -0.829776      0.462504
  H       0.789643      2.839662      0.719716
  H      -0.952799      3.229495      0.716423
  H      -0.176319      2.561249     -0.750724
17
Coordinates from ORCA-job TMP_cation_cpcm_200_default E -761.692025512533
  C       2.379121     -1.091522     -0.115227
  O       1.435925     -0.253566      0.566393
  P       0.002391     -0.027175     -0.101437
  O      -0.005093      0.100435     -1.574734
  O      -0.852510     -1.245638      0.480893
  C      -2.197071     -1.482500      0.020273
  O      -0.562841      1.232629      0.703253
  C      -0.178182      2.576551      0.336393
  H       3.373131     -0.799199      0.223550
  H       2.289442     -0.976773     -1.205014
  H       2.184059     -2.143550      0.145699
  H      -2.408982     -2.537297      0.194772
  H      -2.289249     -1.240762     -1.043057
  H      -2.902701     -0.860402      0.590218
  H       0.765871      2.841340      0.830971
  H      -0.971920      3.234723      0.691709
  H      -0.061392      2.672705     -0.744655
17
Coordinates from ORCA-job TMP_cation_cpcm_200_default E -761.697012006559
  C       2.420966     -1.079949     -0.112265
  O       1.422115     -0.255837      0.536287
  P       0.003472     -0.045341     -0.164093
  O       0.019187      0.053859     -1.655827
  O      -0.852380     -1.269683      0.397049
  C      -2.246872     -1.488524      0.051441
  O      -0.598263      1.218762      0.596370
  C      -0.171491      2.591703      0.335239
  H       3.388902     -0.773085      0.281122
  H       2.379195     -0.971066     -1.204980
  H       2.217573     -2.133226      0.140387
  H      -2.437683     -2.549180      0.205164
  H      -2.434257     -1.191463     -0.986758
  H      -2.882287     -0.882470      0.714767
  H       0.713356      2.812216      0.944976
  H      -1.002137      3.225323      0.642935
  H       0.060604      2.737961     -0.721813
17
Coordinates from ORCA-job TMP_cation_cpcm_200_default E -761.701662130842
  C       2.460902     -1.064604     -0.109424
  O       1.400712     -0.253569      0.489530
  P       0.005853     -0.066537     -0.244553
  O       0.048749     -0.020708     -1.757152
  O      -0.852423     -1.295018      0.283645
  C      -2.290937     -1.473250      0.098266
  O      -0.649399      1.197061      0.440577
  C      -0.169744      2.587237      0.335848
  H       3.390760     -0.728723      0.344436
  H       2.473355     -0.955379     -1.199257
  H       2.258130     -2.114862      0.139593
  H      -2.469386     -2.541386      0.196126
  H      -2.590116     -1.082335     -0.880625
  H      -2.808224     -0.905205      0.883904
  H       0.601454      2.735345      1.097371
  H      -1.042911      3.202338      0.541979
  H       0.233226      2.779596     -0.660263
17
Coordinates from ORCA-job TMP_cation_cpcm_200_default E -761.704489092821
  C       2.484679     -1.040636     -0.108911
  O       1.376037     -0.234911      0.430726
  P       0.004076     -0.084986     -0.325986
  O       0.070503     -0.116478     -1.851439
  O      -0.855752     -1.314917      0.175132
  C      -2.313082     -1.441494      0.147918
  O      -0.702156      1.177320      0.267449
  C      -0.170825      2.556203      0.344098
  H       3.377817     -0.662763      0.383281
  H       2.538717     -0.937105     -1.194852
  H       2.295434     -2.084498      0.156959
  H      -2.507914     -2.510398      0.178067
  H      -2.704561     -0.954722     -0.750823
  H      -2.697672     -0.926665      1.037130
  H       0.436983      2.618507      1.248791
  H      -1.055471      3.185091      0.407759
  H       0.423189      2.772451     -0.545300
17
Coordinates from ORCA-job TMP_cation_cpcm_200_default E -761.705725383543
  C       2.488745     -1.010870     -0.110537
  O       1.359855     -0.204237      0.387997
  P      -0.004222     -0.095034     -0.371223
  O       0.071875     -0.192260     -1.896177
  O      -0.860269     -1.328995      0.121259
  C      -2.316941     -1.419648      0.174035
  O      -0.736663      1.170525      0.157781
  C      -0.165314      2.518389      0.354343
  H       3.365845     -0.598103      0.383027
  H       2.555306     -0.924765     -1.196360
  H       2.315979     -2.047552      0.186114
  H      -2.539665     -2.483771      0.167818
  H      -2.749566     -0.884335     -0.675889
  H      -2.629484     -0.939989      1.109050
  H       0.318432      2.524895      1.332351
  H      -1.022643      3.186423      0.319730
  H       0.548728      2.729327     -0.443320
17
Coordinates from ORCA-job TMP_cation_cpcm_200_default E -761.706739316910
  C       2.487851     -0.973276     -0.116563
  O       1.349228     -0.143531      0.318547
  P      -0.016582     -0.098807     -0.426146
  O       0.053814     -0.296835     -1.941785
  O      -0.861236     -1.337690      0.079263
  C      -2.311866     -1.396601      0.196280
  O      -0.770159      1.177539      0.024958
  C      -0.159107      2.470302      0.377655
  H       3.358236     -0.514572      0.348163
  H       2.558375     -0.949215     -1.204614
  H       2.328899     -1.987163      0.253751
  H      -2.566448     -2.453847      0.175179
  H      -2.777504     -0.834385     -0.617640
  H      -2.566764     -0.939449      1.159850
  H       0.161667      2.409451      1.418506
  H      -0.952702      3.201388      0.241166
  H       0.684298      2.666691     -0.286569
17
Coordinates from ORCA-job TMP_cation_cpcm_200_default E -761.707231856143
  C       2.484514     -0.953738     -0.122575
  O       1.352796     -0.084816      0.251257
  P      -0.023687     -0.092371     -0.467217
  O       0.022043     -0.372785     -1.970391
  O      -0.853377     -1.334679      0.066861
  C      -2.300456     -1.384830      0.204233
  O      -0.783326      1.196981     -0.065580
  C      -0.157955      2.444082      0.402653
  H       3.361098     -0.464523      0.297481
  H       2.550027     -1.013402     -1.209496
  H       2.323842     -1.933090      0.330040
  H      -2.565858     -2.439877      0.191205
  H      -2.780101     -0.825808     -0.603910
  H      -2.539517     -0.926502      1.171831
  H       0.052426      2.334381      1.467506
  H      -0.898889      3.219285      0.219258
  H       0.756421      2.631691     -0.163158
17
Coordinates from ORCA-job TMP_cation_cpcm_200_default E -761.707630014067
  C       2.480420     -0.946277     -0.129768
  O       1.371238     -0.014569      0.153840
  P      -0.022172     -0.077861     -0.523165
  O      -0.023320     -0.453636     -2.006783
  O      -0.831549     -1.319379      0.060367
  C      -2.276681     -1.367208      0.211119
  O      -0.781231      1.228932     -0.171980
  C      -0.169728      2.421971      0.437645
  H       3.373067     -0.431829      0.220288
  H       2.531188     -1.133599     -1.203085
  H       2.304569     -1.861791      0.436299
  H      -2.544980     -2.421773      0.216672
  H      -2.767798     -0.821681     -0.599702
  H      -2.508004     -0.896642      1.175271
  H      -0.082552      2.249344      1.511496
  H      -0.859388      3.235679      0.222410
  H       0.806923      2.610318     -0.010925
17
Coordinates from ORCA-job TMP_cation_cpcm_200_default E -761.707880343256
  C       2.475060     -0.949089     -0.132527
  O       1.390698      0.030132      0.079834
  P      -0.014883     -0.064764     -0.567908
  O      -0.056427     -0.498188     -2.035455
  O      -0.807795     -1.301569      0.061431
  C      -2.252811     -1.351173      0.217332
  O      -0.767840      1.256095     -0.248435
  C      -0.185554      2.409088      0.461489
  H       3.382707     -0.429711      0.167647
  H       2.511875     -1.229462     -1.186313
  H       2.280464     -1.809841      0.508668
  H      -2.518309     -2.406334      0.236116
  H      -2.748628     -0.815992     -0.597607
  H      -2.483110     -0.869609      1.176436
  H      -0.171691      2.183265      1.529070
  H      -0.853289      3.239885      0.242448
  H       0.819533      2.607267      0.087773
17
Coordinates from ORCA-job TMP_cation_cpcm_200_default E -761.708289753067
  C       2.463055     -0.963737     -0.132648
  O       1.423797      0.079522     -0.022257
  P       0.003295     -0.043660     -0.635813
  O      -0.096742     -0.537923     -2.080692
  O      -0.764425     -1.269095      0.063985
  C      -2.209281     -1.322295      0.231619
  O      -0.733971      1.298343     -0.358509
  C      -0.219307      2.391793      0.488723
  H       3.394035     -0.456518      0.110299
  H       2.479389     -1.359512     -1.149750
  H       2.233233     -1.744941      0.593657
  H      -2.469135     -2.378638      0.259402
  H      -2.712677     -0.791529     -0.581384
  H      -2.433278     -0.833245      1.188537
  H      -0.293423      2.082596      1.532966
  H      -0.875680      3.233500      0.278150
  H       0.811116      2.615337      0.213714
17
Coordinates from ORCA-job TMP_cation_cpcm_200_default E -761.708718851314
  C       2.449338     -0.994430     -0.131933
  O       1.468563      0.110601     -0.124104
  P       0.035729     -0.019511     -0.712197
  O      -0.124365     -0.556753     -2.134604
  O      -0.706929     -1.227187      0.059736
  C      -2.149153     -1.274616      0.257970
  O      -0.677712      1.344285     -0.481732
  C      -0.278688      2.366933      0.508376
  H       3.405123     -0.518796      0.074456
  H       2.446633     -1.483576     -1.107908
  H       2.172379     -1.696366      0.656509
  H      -2.412228     -2.330313      0.278520
  H      -2.666363     -0.725348     -0.533352
  H      -2.345080     -0.794635      1.226045
  H      -0.444662      1.963275      1.508907
  H      -0.939268      3.206499      0.304066
  H       0.766683      2.629939      0.351245
17
Coordinates from ORCA-job TMP_cation_cpcm_200_default E -761.709018736865
  C       2.441856     -1.015987     -0.131171
  O       1.485600      0.110748     -0.142121
  P       0.055341     -0.010374     -0.742805
  O      -0.110595     -0.547456     -2.161851
  O      -0.680157     -1.204439      0.059731
  C      -2.118675     -1.243879      0.280039
  O      -0.647122      1.360906     -0.542654
  C      -0.316338      2.351556      0.504099
  H       3.403552     -0.560609      0.092570
  H       2.446193     -1.505044     -1.107234
  H       2.136858     -1.712835      0.651213
  H      -2.390745     -2.297622      0.285089
  H      -2.643555     -0.669711     -0.488032
  H      -2.289300     -0.782000      1.262295
  H      -0.507409      1.901771      1.480007
  H      -0.992864      3.179885      0.307036
  H       0.727361      2.645091      0.393789
17
Coordinates from ORCA-job TMP_cation_cpcm_200_default E -761.709224124012
  C       2.443696     -1.020652     -0.130152
  O       1.473873      0.094368     -0.104339
  P       0.057048     -0.016878     -0.738547
  O      -0.070002     -0.536697     -2.165337
  O      -0.688232     -1.202339      0.059063
  C      -2.122344     -1.232952      0.292544
  O      -0.649594      1.350602     -0.557223
  C      -0.324177      2.344902      0.486532
  H       3.394601     -0.565768      0.137571
  H       2.476715     -1.452010     -1.132209
  H       2.134781     -1.761647      0.608486
  H      -2.407873     -2.283392      0.279440
  H      -2.650959     -0.634276     -0.453763
  H      -2.273353     -0.794659      1.289448
  H      -0.493631      1.891340      1.464615
  H      -1.014271      3.164875      0.301817
  H       0.713720      2.655184      0.362054
17
Coordinates from ORCA-job TMP_cation_cpcm_200_default E -761.709293923245
  C       2.454842     -1.032339     -0.135642
  O       1.494574      0.091665     -0.135146
  P       0.076509     -0.016927     -0.762761
  O      -0.053590     -0.562953     -2.177816
  O      -0.677470     -1.184903      0.049960
  C      -2.103816     -1.186566      0.312261
  O      -0.617627      1.359152     -0.616184
  C      -0.367172      2.311828      0.484775
  H       3.407431     -0.581480      0.133728
  H       2.494803     -1.472031     -1.133575
  H       2.135144     -1.759811      0.611491
  H      -2.420339     -2.228188      0.281091
  H      -2.636803     -0.554657     -0.402705
  H      -2.219370     -0.776471      1.326540
  H      -0.591037      1.821774      1.434091
  H      -1.049340      3.137006      0.293349
  H       0.673261      2.634900      0.436543
17
Coordinates from ORCA-job TMP_cation_cpcm_200_default E -761.709352555020
  C       2.455606     -1.022901     -0.133146
  O       1.481362      0.087933     -0.117292
  P       0.065634     -0.023207     -0.750199
  O      -0.045136     -0.562214     -2.169360
  O      -0.693161     -1.191319      0.052471
  C      -2.119873     -1.201462      0.306286
  O      -0.635281      1.350448     -0.597858
  C      -0.346887      2.319382      0.479112
  H       3.402008     -0.565214      0.146704
  H       2.504222     -1.444805     -1.138360
  H       2.142663     -1.765821      0.601882
  H      -2.432787     -2.244099      0.268294
  H      -2.652550     -0.568779     -0.408153
  H      -2.244761     -0.799866      1.323028
  H      -0.538209      1.845772      1.443973
  H      -1.033862      3.143492      0.300328
  H       0.691010      2.642660      0.392291
17
Coordinates from ORCA-job TMP_cation_cpcm_200_default E -761.709387096397
  C       2.454501     -1.022108     -0.130142
  O       1.481846      0.089689     -0.123334
  P       0.064145     -0.023268     -0.752883
  O      -0.043948     -0.562482     -2.172252
  O      -0.695155     -1.187474      0.053105
  C      -2.121278     -1.203355      0.306459
  O      -0.636062      1.352831     -0.600603
  C      -0.343222      2.320550      0.476743
  H       3.400584     -0.564860      0.151350
  H       2.505836     -1.450109     -1.132753
  H       2.136983     -1.760644      0.607607
  H      -2.433431     -2.245749      0.253640
  H      -2.654990     -0.560289     -0.397680
  H      -2.247427     -0.819015      1.329876
  H      -0.519317      1.843336      1.442824
  H      -1.039602      3.139089      0.308843
  H       0.690534      2.653857      0.379201
17
Coordinates from ORCA-job TMP_cation_cpcm_200_default E -761.709427810737
  C       2.451231     -1.023695     -0.122308
  O       1.486098      0.093964     -0.141006
  P       0.064744     -0.021720     -0.763941
  O      -0.041641     -0.563143     -2.183163
  O      -0.695005     -1.176439      0.051613
  C      -2.119185     -1.200760      0.310580
  O      -0.631581      1.359707     -0.615463
  C      -0.342378      2.319799      0.470613
  H       3.397180     -0.569026      0.163371
  H       2.509082     -1.467863     -1.117692
  H       2.120366     -1.750020      0.621964
  H      -2.433945     -2.239876      0.216001
  H      -2.655439     -0.525520     -0.360203
  H      -2.238987     -0.864764      1.351815
  H      -0.489813      1.827621      1.434034
  H      -1.061868      3.122621      0.325292
  H       0.681139      2.679114      0.358493
17
Coordinates from ORCA-job TMP_cation_cpcm_200_default E -761.709440428657
  C       2.449406     -1.024709     -0.117896
  O       1.488214      0.096011     -0.149030
  P       0.065825     -0.020931     -0.769500
  O      -0.041663     -0.564608     -2.188278
  O      -0.693733     -1.171973      0.049916
  C      -2.117103     -1.197570      0.313449
  O      -0.628452      1.362008     -0.623798
  C      -0.343732      2.318467      0.466883
  H       3.395109     -0.571018      0.169995
  H       2.510670     -1.475738     -1.110023
  H       2.112475     -1.745850      0.628665
  H      -2.435925     -2.233074      0.193395
  H      -2.653285     -0.502451     -0.336420
  H      -2.230098     -0.890362      1.364163
  H      -0.478538      1.818837      1.428279
  H      -1.074014      3.113156      0.330963
  H       0.674843      2.689806      0.349237
17
Coordinates from ORCA-job TMP_cation_cpcm_200_default E -761.709454970731
  C       2.446258     -1.024867     -0.111581
  O       1.489251      0.098889     -0.155792
  P       0.065991     -0.020271     -0.773513
  O      -0.044951     -0.567436     -2.191449
  O      -0.692057     -1.168355      0.049875
  C      -2.115528     -1.195833      0.315948
  O      -0.626478      1.363185     -0.630707
  C      -0.343018      2.318868      0.461059
  H       3.391350     -0.572053      0.179533
  H       2.511985     -1.481967     -1.100668
  H       2.103025     -1.741785      0.636063
  H      -2.439743     -2.224928      0.158068
  H      -2.649308     -0.473589     -0.305154
  H      -2.221124     -0.930156      1.378311
  H      -0.457322      1.813224      1.421889
  H      -1.087028      3.102723      0.337461
  H       0.668697      2.704352      0.330655
17
Coordinates from ORCA-job TMP_cation_cpcm_200_default E -761.709464165148
  C       2.444795     -1.024056     -0.108006
  O       1.488391      0.099977     -0.155634
  P       0.064961     -0.020816     -0.772009
  O      -0.048475     -0.571629     -2.188740
  O      -0.691978     -1.167837      0.053038
  C      -2.116494     -1.196725      0.316626
  O      -0.627061      1.362193     -0.631812
  C      -0.340539      2.321192      0.456132
  H       3.388837     -0.571334      0.186651
  H       2.514309     -1.480068     -1.097310
  H       2.099338     -1.742003      0.637486
  H      -2.444552     -2.220128      0.130409
  H      -2.646707     -0.456048     -0.285148
  H      -2.219859     -0.961537      1.386060
  H      -0.439404      1.815823      1.418738
  H      -1.092196      3.098805      0.339921
  H       0.666632      2.714190      0.313599
17
Coordinates from ORCA-job TMP_cation_cpcm_200_default E -761.709472788957
  C       2.443680     -1.022655     -0.105793
  O       1.486220      0.100498     -0.150515
  P       0.062502     -0.021812     -0.765379
  O      -0.054774     -0.576949     -2.180337
  O      -0.692650     -1.168735      0.061547
  C      -2.119594     -1.201835      0.315463
  O      -0.629654      1.360523     -0.627519
  C      -0.334867      2.327529      0.450948
  H       3.386595     -0.570317      0.193120
  H       2.516559     -1.473015     -1.097412
  H       2.097827     -1.745021      0.635144
  H      -2.448376     -2.219780      0.101221
  H      -2.645027     -0.446045     -0.271141
  H      -2.227069     -0.995517      1.390093
  H      -0.417247      1.827574      1.417860
  H      -1.092213      3.100400      0.340414
  H       0.668087      2.725156      0.292287
17
Coordinates from ORCA-job TMP_cation_cpcm_200_default E -761.709477412495
  C       2.443711     -1.021975     -0.105858
  O       1.484621      0.100039     -0.144498
  P       0.060553     -0.022744     -0.758243
  O      -0.059503     -0.581263     -2.171546
  O      -0.693638     -1.169139      0.071001
  C      -2.122566     -1.206965      0.314132
  O      -0.631664      1.359642     -0.622666
  C      -0.330225      2.333752      0.447441
  H       3.385816     -0.570361      0.196780
  H       2.518679     -1.465390     -1.100416
  H       2.098345     -1.749327      0.630411
  H      -2.449759     -2.221816      0.082565
  H      -2.644666     -0.443498     -0.265240
  H      -2.236944     -1.018184      1.391125
  H      -0.403935      1.839829      1.418132
  H      -1.089498      3.104938      0.338307
  H       0.670673      2.732461      0.278573
17
Coordinates from ORCA-job TMP_cation_cpcm_200_default E -761.709479571841
  C       2.444476     -1.022128     -0.107037
  O       1.484446      0.099402     -0.141427
  P       0.060040     -0.023203     -0.754260
  O      -0.061682     -0.584070     -2.166314
  O      -0.694140     -1.168501      0.077361
  C      -2.123858     -1.209398      0.313785
  O      -0.631955      1.359755     -0.620600
  C      -0.328635      2.337163      0.445919
  H       3.386251     -0.571122      0.197588
  H       2.520153     -1.461315     -1.103386
  H       2.099415     -1.752185      0.626717
  H      -2.449638     -2.223031      0.074459
  H      -2.644548     -0.442915     -0.262803
  H      -2.243241     -1.028729      1.391635
  H      -0.402761      1.846685      1.418328
  H      -1.086885      3.109058      0.334496
  H       0.672563      2.734532      0.275538
17
Coordinates from ORCA-job TMP_cation_cpcm_200_default E -761.709480930892
  C       2.445337     -1.022565     -0.108246
  O       1.484971      0.099002     -0.140735
  P       0.060395     -0.023330     -0.752987
  O      -0.062244     -0.585787     -2.164172
  O      -0.694171     -1.167372      0.080787
  C      -2.123839     -1.209825      0.314339
  O      -0.631413      1.360176     -0.620730
  C      -0.329009      2.338392      0.445278
  H       3.386968     -0.571880      0.197303
  H       2.521133     -1.459901     -1.105368
  H       2.100192     -1.753557      0.624547
  H      -2.449245     -2.222699      0.070860
  H      -2.644197     -0.441280     -0.259790
  H      -2.245565     -1.034121      1.392813
  H      -0.408491      1.849473      1.418051
  H      -1.084664      3.112257      0.329789
  H       0.673842      2.733019      0.278260
17
Coordinates from ORCA-job TMP_cation_cpcm_200_default E -761.709482115510
  C       2.446091     -1.022920     -0.109083
  O       1.485622      0.098888     -0.141261
  P       0.061074     -0.023359     -0.753231
  O      -0.062118     -0.587258     -2.163664
  O      -0.693968     -1.166043      0.082691
  C      -2.123104     -1.209303      0.315694
  O      -0.630730      1.360482     -0.622153
  C      -0.330260      2.338618      0.444457
  H       3.387476     -0.572275      0.197256
  H       2.522134     -1.459504     -1.106484
  H       2.100469     -1.754129      0.623255
  H      -2.449361     -2.220588      0.066277
  H      -2.643470     -0.436745     -0.252985
  H      -2.245047     -1.041158      1.395412
  H      -0.417751      1.850770      1.417078
  H      -1.082148      3.115357      0.323691
  H       0.675092      2.729166      0.283050
17
Coordinates from ORCA-job TMP_cation_cpcm_200_default E -761.709483030937
  C       2.446361     -1.022893     -0.109231
  O       1.486023      0.099220     -0.142569
  P       0.061642     -0.023273     -0.754579
  O      -0.061897     -0.588225     -2.164460
  O      -0.693522     -1.165112      0.082921
  C      -2.121960     -1.208481      0.317346
  O      -0.630391      1.360507     -0.624014
  C      -0.331639      2.338191      0.443501
  H       3.387508     -0.572051      0.197495
  H       2.522694     -1.459933     -1.106391
  H       2.100105     -1.753683      0.623200
  H      -2.450002     -2.217527      0.060773
  H      -2.642452     -0.430662     -0.243949
  H      -2.242176     -1.049434      1.398668
  H      -0.427374      1.851209      1.415774
  H      -1.079350      3.118135      0.317609
  H       0.676431      2.724011      0.287905
17
Coordinates from ORCA-job TMP_cation_cpcm_200_default E -761.709483598540
  C       2.446184     -1.022474     -0.108829
  O       1.485974      0.099726     -0.143706
  P       0.061767     -0.023193     -0.755981
  O      -0.061818     -0.588725     -2.165546
  O      -0.693149     -1.164855      0.082172
  C      -2.121097     -1.208005      0.318663
  O      -0.630539      1.360288     -0.625408
  C      -0.332400      2.337709      0.442556
  H       3.387140     -0.571351      0.198024
  H       2.522905     -1.460385     -1.105579
  H       2.099472     -1.752794      0.623836
  H      -2.451028     -2.214829      0.055490
  H      -2.641618     -0.425344     -0.235774
  H      -2.238866     -1.057176      1.401429
  H      -0.433736      1.851533      1.414663
  H      -1.076875      3.120167      0.313249
  H       0.677683      2.719709      0.290743
17
Coordinates from ORCA-job TMP_cation_cpcm_200_default E -761.709483845030
  C       2.445941     -1.022037     -0.108429
  O       1.485786      0.100053     -0.144304
  P       0.061633     -0.023166     -0.756823
  O      -0.061802     -0.588991     -2.166209
  O      -0.692972     -1.164958      0.081392
  C      -2.120739     -1.207878      0.319419
  O      -0.630735      1.360130     -0.626190
  C      -0.332643      2.337447      0.441931
  H       3.386824     -0.570749      0.198403
  H       2.522991     -1.460614     -1.104878
  H       2.099066     -1.752099      0.624422
  H      -2.451922     -2.213237      0.052117
  H      -2.641189     -0.422278     -0.230853
  H      -2.236658     -1.062081      1.403046
  H      -0.436776      1.851812      1.414014
  H      -1.075313      3.121328      0.310965
  H       0.678510      2.717318      0.291976
17
Coordinates from ORCA-job TMP_cation_cpcm_200_default E -761.709483937106
  C       2.445821     -1.021792     -0.108260
  O       1.485678      0.100144     -0.144469
  P       0.061478     -0.023177     -0.757109
  O      -0.061771     -0.589164     -2.166387
  O      -0.692943     -1.165045      0.081070
  C      -2.120712     -1.207955      0.319804
  O      -0.630768      1.360138     -0.626560
  C      -0.332662      2.337471      0.441584
  H       3.386712     -0.570485      0.198538
  H       2.523069     -1.460669     -1.104577
  H       2.098954     -1.751796      0.624670
  H      -2.452444     -2.212553      0.050286
  H      -2.641081     -0.420919     -0.228454
  H      -2.235721     -1.064775      1.403851
  H      -0.438088      1.852166      1.413695
  H      -1.074490      3.122012      0.309825
  H       0.678969      2.716398      0.292493
