17
Coordinates from ORCA-job TMP_cation_cpcm_5_default E -761.666860448806
  C       2.322150     -1.110107     -0.121247
  O       1.446904     -0.246841      0.586848
  P      -0.001093      0.003392     -0.032977
  O      -0.049654      0.153953     -1.490261
  O      -0.851133     -1.206662      0.564270
  C      -2.124125     -1.458547     -0.009074
  O      -0.530506      1.251111      0.807508
  C      -0.191013      2.546951      0.340395
  H       3.337969     -0.827674      0.154216
  H       2.176116     -0.993877     -1.196468
  H       2.136428     -2.148361      0.159357
  H      -2.350663     -2.509116      0.170324
  H      -2.100650     -1.254852     -1.080809
  H      -2.881254     -0.829776      0.462504
  H       0.789643      2.839662      0.719716
  H      -0.952799      3.229495      0.716423
  H      -0.176319      2.561249     -0.750724
17
Coordinates from ORCA-job TMP_cation_cpcm_5_default E -761.675711946536
  C       2.341198     -1.135725     -0.131028
  O       1.433559     -0.196806      0.489130
  P      -0.037918      0.023259     -0.094066
  O      -0.127453      0.151661     -1.564758
  O      -0.854424     -1.191819      0.545501
  C      -2.136668     -1.517653     -0.008885
  O      -0.574258      1.281616      0.732517
  C      -0.171289      2.619051      0.376260
  H       3.349589     -0.811180      0.128532
  H       2.214673     -1.149494     -1.215340
  H       2.166589     -2.142897      0.270416
  H      -2.334777     -2.562508      0.230576
  H      -2.145411     -1.359360     -1.097066
  H      -2.903932     -0.873065      0.447627
  H       0.790950      2.858876      0.851783
  H      -0.944871      3.291071      0.747636
  H      -0.065554      2.714974     -0.708835
17
Coordinates from ORCA-job TMP_cation_cpcm_5_default E -761.680811927449
  C       2.353312     -1.146511     -0.135389
  O       1.422101     -0.146964      0.387564
  P      -0.065789      0.038648     -0.151015
  O      -0.194586      0.165972     -1.635944
  O      -0.857132     -1.175861      0.516541
  C      -2.151482     -1.561593     -0.009406
  O      -0.606798      1.304123      0.655475
  C      -0.143938      2.660632      0.408939
  H       3.350617     -0.769838      0.087629
  H       2.220994     -1.285637     -1.210573
  H       2.187626     -2.096548      0.387371
  H      -2.314316     -2.598754      0.280025
  H      -2.191261     -1.439456     -1.101159
  H      -2.917525     -0.910921      0.442373
  H       0.781682      2.834372      0.977731
  H      -0.934881      3.322344      0.757653
  H       0.061375      2.805994     -0.657815
17
Coordinates from ORCA-job TMP_cation_cpcm_5_default E -761.685341247779
  C       2.351510     -1.142381     -0.133658
  O       1.405770     -0.074216      0.242637
  P      -0.097464      0.053800     -0.225311
  O      -0.284027      0.185942     -1.723300
  O      -0.852619     -1.156024      0.469685
  C      -2.162389     -1.602795     -0.009314
  O      -0.647092      1.328584      0.545792
  C      -0.100346      2.682359      0.451614
  H       3.338239     -0.703811     -0.001458
  H       2.185876     -1.454408     -1.166529
  H       2.201904     -1.981557      0.551718
  H      -2.271602     -2.631262      0.328316
  H      -2.233832     -1.519639     -1.099373
  H      -2.923688     -0.957145      0.448192
  H       0.746719      2.755602      1.147193
  H      -0.910820      3.346869      0.741670
  H       0.253860      2.870082     -0.567875
17
Coordinates from ORCA-job TMP_cation_cpcm_5_default E -761.687960894362
  C       2.330157     -1.131574     -0.120803
  O       1.394973     -0.004185      0.091332
  P      -0.118569      0.071139     -0.293549
  O      -0.377305      0.221362     -1.792577
  O      -0.831445     -1.139765      0.413127
  C      -2.154759     -1.629352     -0.012862
  O      -0.675760      1.350783      0.449646
  C      -0.061912      2.680457      0.490801
  H       3.315363     -0.671503     -0.119096
  H       2.110649     -1.619325     -1.071883
  H       2.203631     -1.820648      0.716284
  H      -2.208788     -2.654558      0.346226
  H      -2.253277     -1.568959     -1.099157
  H      -2.910641     -1.001425      0.467175
  H       0.694336      2.662243      1.284807
  H      -0.875872      3.363738      0.719619
  H       0.419220      2.891572     -0.469089
17
Coordinates from ORCA-job TMP_cation_cpcm_5_default E -761.689253279091
  C       2.296046     -1.123653     -0.101672
  O       1.393592      0.044212     -0.023632
  P      -0.127249      0.090375     -0.337481
  O      -0.454985      0.270118     -1.824283
  O      -0.798868     -1.135278      0.361357
  C      -2.129668     -1.646923     -0.021328
  O      -0.690711      1.367536      0.399877
  C      -0.039142      2.672131      0.513764
  H       3.289093     -0.694265     -0.211325
  H       2.023045     -1.736403     -0.962098
  H       2.190938     -1.677402      0.832227
  H      -2.142995     -2.676765      0.328655
  H      -2.253382     -1.584197     -1.103745
  H      -2.879888     -1.043236      0.493000
  H       0.661552      2.602542      1.353180
  H      -0.842602      3.377426      0.711834
  H       0.505224      2.893783     -0.408328
17
Coordinates from ORCA-job TMP_cation_cpcm_5_default E -761.690194249680
  C       2.258755     -1.113954     -0.070719
  O       1.400542      0.082232     -0.143677
  P      -0.128341      0.109056     -0.386447
  O      -0.533222      0.342102     -1.847774
  O      -0.751111     -1.147901      0.284090
  C      -2.099002     -1.660509     -0.032508
  O      -0.700506      1.373854      0.367225
  C      -0.024061      2.656278      0.528301
  H       3.262022     -0.750378     -0.280851
  H       1.934230     -1.840184     -0.817591
  H       2.176075     -1.517623      0.939069
  H      -2.077314     -2.704000      0.274841
  H      -2.280588     -1.563683     -1.103556
  H      -2.822084     -1.090475      0.552350
  H       0.645676      2.552197      1.389128
  H      -0.812613      3.380873      0.718693
  H       0.551542      2.892115     -0.370572
17
Coordinates from ORCA-job TMP_cation_cpcm_5_default E -761.690737457136
  C       2.233796     -1.104884     -0.037054
  O       1.412620      0.098552     -0.247851
  P      -0.124187      0.119637     -0.435236
  O      -0.593007      0.419242     -1.864938
  O      -0.704790     -1.173704      0.194114
  C      -2.076008     -1.667185     -0.041580
  O      -0.704080      1.365795      0.351243
  C      -0.018235      2.637720      0.534182
  H       3.244933     -0.809481     -0.308920
  H       1.875116     -1.910767     -0.679402
  H       2.165563     -1.379359      1.016426
  H      -2.036411     -2.726514      0.204152
  H      -2.338147     -1.515297     -1.089225
  H      -2.747884     -1.131174      0.629699
  H       0.644428      2.517952      1.398946
  H      -0.797581      3.370783      0.731893
  H       0.563875      2.888685     -0.356449
17
Coordinates from ORCA-job TMP_cation_cpcm_5_default E -761.691025068378
  C       2.226869     -1.099732     -0.010625
  O       1.425082      0.095349     -0.324012
  P      -0.118115      0.120383     -0.477636
  O      -0.623593      0.479409     -1.881048
  O      -0.673279     -1.200933      0.114339
  C      -2.065890     -1.664491     -0.045273
  O      -0.702903      1.347153      0.345051
  C      -0.020880      2.620407      0.535795
  H       3.242435     -0.845744     -0.307117
  H       1.856277     -1.953234     -0.580378
  H       2.160020     -1.284413      1.062573
  H      -2.027299     -2.735424      0.143450
  H      -2.403008     -1.456298     -1.061646
  H      -2.678058     -1.154380      0.699504
  H       0.646310      2.497452      1.397110
  H      -0.800701      3.350191      0.744140
  H       0.556732      2.884306     -0.354228
17
Coordinates from ORCA-job TMP_cation_cpcm_5_default E -761.691249318952
  C       2.230822     -1.094290      0.013238
  O       1.437669      0.079522     -0.397627
  P      -0.111194      0.114036     -0.523330
  O      -0.638972      0.533833     -1.901476
  O      -0.650787     -1.229939      0.033728
  C      -2.063333     -1.653134     -0.045039
  O      -0.698426      1.317147      0.342399
  C      -0.028255      2.597797      0.537185
  H       3.249716     -0.863942     -0.291127
  H       1.862617     -1.986508     -0.494929
  H       2.154674     -1.199249      1.096748
  H      -2.040446     -2.732354      0.090704
  H      -2.471698     -1.386420     -1.021274
  H      -2.605732     -1.164006      0.765549
  H       0.646668      2.476460      1.393022
  H      -0.814918      3.316954      0.756419
  H       0.541596      2.874092     -0.354190
17
Coordinates from ORCA-job TMP_cation_cpcm_5_default E -761.691455600605
  C       2.238888     -1.088265      0.027657
  O       1.447026      0.058916     -0.459726
  P      -0.105460      0.104692     -0.561184
  O      -0.640893      0.569984     -1.920629
  O      -0.638806     -1.252173     -0.024379
  C      -2.064496     -1.637309     -0.041767
  O      -0.691559      1.284597      0.345241
  C      -0.036428      2.574522      0.540371
  H       3.260487     -0.863741     -0.271700
  H       1.882196     -2.006417     -0.440057
  H       2.144591     -1.136051      1.113977
  H      -2.063757     -2.719855      0.064864
  H      -2.518421     -1.331238     -0.986201
  H      -2.552350     -1.155654      0.807436
  H       0.642769      2.458687      1.393759
  H      -0.832813      3.281486      0.763865
  H       0.529027      2.857817     -0.351525
17
Coordinates from ORCA-job TMP_cation_cpcm_5_default E -761.691800861965
  C       2.252036     -1.061875      0.044194
  O       1.451626      0.018194     -0.571085
  P      -0.103301      0.084117     -0.621327
  O      -0.647449      0.612041     -1.951425
  O      -0.633830     -1.283660     -0.102812
  C      -2.073293     -1.610599     -0.036096
  O      -0.677854      1.227173      0.348785
  C      -0.038663      2.525365      0.551912
  H       3.274949     -0.836092     -0.248802
  H       1.922940     -2.023352     -0.349996
  H       2.126141     -1.011238      1.127377
  H      -2.110229     -2.693976      0.051589
  H      -2.575653     -1.265049     -0.941964
  H      -2.488680     -1.125618      0.849087
  H       0.629304      2.411883      1.414667
  H      -0.847293      3.221100      0.766492
  H       0.539247      2.811589     -0.330597
17
Coordinates from ORCA-job TMP_cation_cpcm_5_default E -761.692028093756
  C       2.261341     -1.003744      0.056701
  O       1.439436     -0.030456     -0.694751
  P      -0.112790      0.056113     -0.681447
  O      -0.667506      0.634129     -1.982699
  O      -0.646821     -1.313824     -0.170317
  C      -2.093319     -1.588300     -0.033070
  O      -0.665225      1.167466      0.343737
  C      -0.018664      2.457360      0.571377
  H       3.280922     -0.775111     -0.244790
  H       1.966902     -2.011857     -0.234720
  H       2.110746     -0.834670      1.124578
  H      -2.163893     -2.669553      0.058846
  H      -2.624323     -1.226296     -0.915805
  H      -2.451394     -1.087690      0.868008
  H       0.609196      2.329430      1.462228
  H      -0.826574      3.162800      0.756189
  H       0.601966      2.734201     -0.284063
17
Coordinates from ORCA-job TMP_cation_cpcm_5_default E -761.692205761518
  C       2.256179     -1.000967      0.040740
  O       1.431052     -0.013206     -0.685072
  P      -0.118416      0.061850     -0.665184
  O      -0.676772      0.599952     -1.980596
  O      -0.648627     -1.297663     -0.124811
  C      -2.094450     -1.593546     -0.032386
  O      -0.665826      1.182329      0.346447
  C      -0.009199      2.463810      0.577672
  H       3.276712     -0.763004     -0.250163
  H       1.967444     -2.002232     -0.279864
  H       2.101772     -0.863574      1.112417
  H      -2.149511     -2.671797      0.098936
  H      -2.591819     -1.279144     -0.951835
  H      -2.497666     -1.066513      0.833595
  H       0.595628      2.333657      1.484288
  H      -0.809988      3.182930      0.741343
  H       0.633487      2.727120     -0.265526
17
Coordinates from ORCA-job TMP_cation_cpcm_5_default E -761.692313050234
  C       2.248083     -0.973805      0.040554
  O       1.418650     -0.016776     -0.718727
  P      -0.128375      0.059539     -0.672931
  O      -0.703724      0.597450     -1.980490
  O      -0.656954     -1.299283     -0.133635
  C      -2.101456     -1.601372     -0.035511
  O      -0.661280      1.179977      0.342915
  C       0.012897      2.447376      0.584538
  H       3.269496     -0.743616     -0.253851
  H       1.967825     -1.987316     -0.248376
  H       2.092296     -0.805995      1.107779
  H      -2.150620     -2.678556      0.107621
  H      -2.597167     -1.303539     -0.961164
  H      -2.506726     -1.068123      0.825541
  H       0.588239      2.309700      1.509591
  H      -0.774288      3.186424      0.727135
  H       0.683107      2.697916     -0.240990
17
Coordinates from ORCA-job TMP_cation_cpcm_5_default E -761.692368905002
  C       2.241998     -0.955629      0.039927
  O       1.411313     -0.020449     -0.744084
  P      -0.135346      0.058690     -0.680667
  O      -0.723114      0.599127     -1.981747
  O      -0.663469     -1.302317     -0.148278
  C      -2.106329     -1.607476     -0.036366
  O      -0.655896      1.177436      0.340882
  C       0.028384      2.435880      0.589252
  H       3.264923     -0.726061     -0.249985
  H       1.973679     -1.977377     -0.231280
  H       2.079418     -0.771072      1.103528
  H      -2.151526     -2.683907      0.114149
  H      -2.608200     -1.318702     -0.961505
  H      -2.505773     -1.070470      0.825112
  H       0.575292      2.299120      1.531918
  H      -0.749255      3.189609      0.708052
  H       0.723902      2.673596     -0.218909
17
Coordinates from ORCA-job TMP_cation_cpcm_5_default E -761.692407818375
  C       2.238824     -0.944918      0.036885
  O       1.407598     -0.025004     -0.764605
  P      -0.139692      0.057912     -0.688943
  O      -0.734382      0.600605     -1.986438
  O      -0.668050     -1.305759     -0.163303
  C      -2.109543     -1.609650     -0.034014
  O      -0.649478      1.172776      0.340448
  C       0.037744      2.427421      0.593831
  H       3.263001     -0.705570     -0.240702
  H       1.987523     -1.971841     -0.231383
  H       2.061972     -0.757072      1.097758
  H      -2.153237     -2.684762      0.126032
  H      -2.620420     -1.328369     -0.956575
  H      -2.499930     -1.065649      0.827372
  H       0.552895      2.298153      1.555474
  H      -0.735017      3.190723      0.682504
  H       0.760192      2.651004     -0.194342
17
Coordinates from ORCA-job TMP_cation_cpcm_5_default E -761.692439840714
  C       2.237156     -0.945124      0.030653
  O       1.407671     -0.026669     -0.775101
  P      -0.141064      0.059284     -0.694143
  O      -0.738756      0.601922     -1.991394
  O      -0.669085     -1.307380     -0.174576
  C      -2.108941     -1.609573     -0.028727
  O      -0.642569      1.169841      0.342084
  C       0.040454      2.426282      0.597371
  H       3.262439     -0.687967     -0.226397
  H       2.004618     -1.971879     -0.254699
  H       2.040446     -0.773155      1.090801
  H      -2.151007     -2.682790      0.143526
  H      -2.628906     -1.336690     -0.948856
  H      -2.491647     -1.055957      0.830190
  H       0.521099      2.311266      1.578443
  H      -0.732005      3.193683      0.649764
  H       0.790097      2.634906     -0.168941
17
Coordinates from ORCA-job TMP_cation_cpcm_5_default E -761.692457124169
  C       2.237814     -0.952379      0.024708
  O       1.410097     -0.026556     -0.775195
  P      -0.139451      0.060881     -0.694687
  O      -0.736473      0.604182     -1.992824
  O      -0.666791     -1.307584     -0.178091
  C      -2.105932     -1.607084     -0.023639
  O      -0.638279      1.167962      0.345487
  C       0.037088      2.429756      0.598705
  H       3.263358     -0.680224     -0.215291
  H       2.016975     -1.975189     -0.283050
  H       2.026063     -0.801579      1.085159
  H      -2.148085     -2.678720      0.157708
  H      -2.630212     -1.339848     -0.943081
  H      -2.485463     -1.045604      0.831692
  H       0.495542      2.327748      1.591494
  H      -0.738784      3.195295      0.624974
  H       0.802535      2.628945     -0.154068
17
Coordinates from ORCA-job TMP_cation_cpcm_5_default E -761.692470505043
  C       2.239290     -0.962414      0.018042
  O       1.413068     -0.025217     -0.770683
  P      -0.136611      0.062713     -0.691918
  O      -0.732566      0.607995     -1.990339
  O      -0.662972     -1.307039     -0.177310
  C      -2.101866     -1.603901     -0.018656
  O      -0.635182      1.166781      0.350593
  C       0.031553      2.435228      0.599037
  H       3.264846     -0.677011     -0.205825
  H       2.027357     -1.979079     -0.315159
  H       2.014708     -0.836301      1.078998
  H      -2.144617     -2.673929      0.171499
  H      -2.627192     -1.343003     -0.939374
  H      -2.481389     -1.034810      0.831653
  H       0.469887      2.347115      1.601821
  H      -0.748351      3.197316      0.599863
  H       0.810036      2.625556     -0.142241
17
Coordinates from ORCA-job TMP_cation_cpcm_5_default E -761.692483173527
  C       2.241265     -0.975094      0.009328
  O       1.416458     -0.022594     -0.762724
  P      -0.132835      0.065116     -0.685517
  O      -0.728127      0.613969     -1.983104
  O      -0.658060     -1.305837     -0.172987
  C      -2.097012     -1.600465     -0.013343
  O      -0.632318      1.166217      0.358614
  C       0.024454      2.442652      0.598717
  H       3.266840     -0.676505     -0.196297
  H       2.038338     -1.983006     -0.354668
  H       2.003951     -0.879934      1.070630
  H      -2.140449     -2.668498      0.187456
  H      -2.620540     -1.348837     -0.937665
  H      -2.479346     -1.022698      0.829793
  H       0.438922      2.372587      1.612569
  H      -0.759015      3.200740      0.568549
  H       0.817473      2.622188     -0.129352
17
Coordinates from ORCA-job TMP_cation_cpcm_5_default E -761.692492619426
  C       2.243380     -0.986014      0.000450
  O       1.419133     -0.020292     -0.755590
  P      -0.129458      0.067079     -0.677988
  O      -0.725064      0.621256     -1.973200
  O      -0.654122     -1.304897     -0.168068
  C      -2.093431     -1.597738     -0.008854
  O      -0.629865      1.165612      0.367742
  C       0.018301      2.448968      0.598292
  H       3.268899     -0.676819     -0.189020
  H       2.049088     -1.985486     -0.390661
  H       1.995976     -0.919162      1.061508
  H      -2.137557     -2.663796      0.202173
  H      -2.613910     -1.356180     -0.937528
  H      -2.478995     -1.012124      0.827277
  H       0.407106      2.398178      1.623076
  H      -0.766182      3.204349      0.535541
  H       0.826701      2.617065     -0.115150
17
Coordinates from ORCA-job TMP_cation_cpcm_5_default E -761.692497395925
  C       2.244599     -0.989169     -0.003294
  O       1.419666     -0.019583     -0.753234
  P      -0.128444      0.067491     -0.674037
  O      -0.724807      0.625599     -1.966962
  O      -0.653376     -1.304757     -0.165692
  C      -2.093143     -1.597245     -0.007806
  O      -0.629371      1.165293      0.372610
  C       0.016345      2.450654      0.598092
  H       3.270114     -0.677753     -0.189225
  H       2.052788     -1.986157     -0.402021
  H       1.996154     -0.931030      1.057995
  H      -2.137524     -2.662668      0.206579
  H      -2.611450     -1.359894     -0.938706
  H      -2.480086     -1.009430      0.826055
  H       0.392847      2.409348      1.627824
  H      -0.766586      3.206439      0.519893
  H       0.832274      2.612864     -0.108069
17
Coordinates from ORCA-job TMP_cation_cpcm_5_default E -761.692499896802
  C       2.245200     -0.988422     -0.004157
  O       1.419170     -0.019625     -0.753435
  P      -0.128784      0.067234     -0.672662
  O      -0.725858      0.627593     -1.964037
  O      -0.654215     -1.304883     -0.165017
  C      -2.094357     -1.597991     -0.008465
  O      -0.629660      1.165288      0.374701
  C       0.016622      2.450099      0.598202
  H       3.270719     -0.678972     -0.193494
  H       2.052112     -1.986287     -0.400136
  H       2.000380     -0.928158      1.057863
  H      -2.138439     -2.663552      0.205490
  H      -2.611533     -1.361163     -0.940067
  H      -2.481500     -1.010967      0.825810
  H       0.388123      2.412603      1.629962
  H      -0.764030      3.207753      0.514044
  H       0.836051      2.609450     -0.104603
17
Coordinates from ORCA-job TMP_cation_cpcm_5_default E -761.692501108338
  C       2.245486     -0.988079     -0.004790
  O       1.418937     -0.019450     -0.753434
  P      -0.129123      0.067230     -0.672204
  O      -0.726389      0.628181     -1.963148
  O      -0.654726     -1.304737     -0.164619
  C      -2.095014     -1.598644     -0.008820
  O      -0.629597      1.165513      0.375862
  C       0.016792      2.449905      0.598500
  H       3.270992     -0.680329     -0.197059
  H       2.050663     -1.986510     -0.398508
  H       2.003587     -0.925723      1.057799
  H      -2.138516     -2.664346      0.204571
  H      -2.611799     -1.361621     -0.940561
  H      -2.482227     -1.012333      0.825913
  H       0.384068      2.415113      1.631935
  H      -0.762429      3.208625      0.509749
  H       0.839295      2.607205     -0.101187
17
Coordinates from ORCA-job TMP_cation_cpcm_5_default E -761.692502412950
  C       2.245892     -0.987951     -0.005893
  O       1.418743     -0.019127     -0.753355
  P      -0.129518      0.067304     -0.672016
  O      -0.726896      0.628936     -1.962550
  O      -0.655101     -1.304458     -0.164293
  C      -2.095490     -1.599420     -0.008985
  O      -0.629215      1.165681      0.377337
  C       0.016793      2.449769      0.599124
  H       3.271314     -0.682786     -0.202759
  H       2.047702     -1.986985     -0.396380
  H       2.008301     -0.922342      1.057492
  H      -2.138111     -2.665379      0.203232
  H      -2.612264     -1.361401     -0.940450
  H      -2.482560     -1.014230      0.826591
  H       0.376025      2.419307      1.635593
  H      -0.760566      3.209555      0.501959
  H       0.844950      2.603526     -0.094645
17
Coordinates from ORCA-job TMP_cation_cpcm_5_default E -761.692503232312
  C       2.246007     -0.987905     -0.006643
  O       1.418587     -0.018674     -0.753228
  P      -0.129788      0.067471     -0.672190
  O      -0.727387      0.629330     -1.962474
  O      -0.655046     -1.304162     -0.164108
  C      -2.095363     -1.600004     -0.008992
  O      -0.628846      1.165808      0.378036
  C       0.016813      2.449773      0.599681
  H       3.271374     -0.685302     -0.207675
  H       2.044157     -1.987346     -0.394163
  H       2.012056     -0.919144      1.057355
  H      -2.137308     -2.666274      0.201696
  H      -2.612455     -1.360517     -0.939897
  H      -2.482385     -1.016041      0.827464
  H       0.369224      2.422268      1.638593
  H      -0.759243      3.210114      0.495673
  H       0.849605      2.600603     -0.089128
17
Coordinates from ORCA-job TMP_cation_cpcm_5_default E -761.692503872512
  C       2.245935     -0.987552     -0.007149
  O       1.418315     -0.018256     -0.753535
  P      -0.130054      0.067623     -0.672640
  O      -0.728239      0.629673     -1.962450
  O      -0.654805     -1.303967     -0.164114
  C      -2.094925     -1.600526     -0.009016
  O      -0.628453      1.165730      0.378330
  C       0.017045      2.449625      0.600276
  H       3.271257     -0.687967     -0.212775
  H       2.039922     -1.987593     -0.390858
  H       2.015728     -0.914753      1.057395
  H      -2.136452     -2.667201      0.199602
  H      -2.612581     -1.359073     -0.939108
  H      -2.481880     -1.018105      0.828548
  H       0.362752      2.424368      1.641489
  H      -0.757775      3.210410      0.489791
  H       0.854210      2.597565     -0.083786
17
Coordinates from ORCA-job TMP_cation_cpcm_5_default E -761.692504247586
  C       2.245807     -0.987039     -0.007338
  O       1.418030     -0.018062     -0.754154
  P      -0.130236      0.067701     -0.672976
  O      -0.729207      0.629889     -1.962227
  O      -0.654620     -1.303959     -0.164221
  C      -2.094538     -1.600881     -0.009131
  O      -0.628193      1.165553      0.378325
  C       0.017406      2.449430      0.600709
  H       3.271109     -0.689852     -0.216417
  H       2.036796     -1.987708     -0.387735
  H       2.018307     -0.910806      1.057543
  H      -2.136025     -2.667908      0.197666
  H      -2.612688     -1.357817     -0.938543
  H      -2.481414     -1.019814      0.829414
  H       0.358637      2.425299      1.643400
  H      -0.756514      3.210558      0.486014
  H       0.857341      2.595418     -0.080329
17
Coordinates from ORCA-job TMP_cation_cpcm_5_default E -761.692504439797
  C       2.245756     -0.986378     -0.007256
  O       1.417781     -0.018200     -0.755050
  P      -0.130370      0.067633     -0.673234
  O      -0.730063      0.629956     -1.961966
  O      -0.654627     -1.304152     -0.164454
  C      -2.094420     -1.601058     -0.009362
  O      -0.628045      1.165253      0.378242
  C       0.017798      2.449093      0.600998
  H       3.271038     -0.690889     -0.218779
  H       2.034982     -1.987762     -0.384759
  H       2.020088     -0.907208      1.057800
  H      -2.136177     -2.668375      0.195917
  H      -2.612959     -1.356681     -0.938228
  H      -2.481042     -1.021120      0.830092
  H       0.356789      2.425302      1.644403
  H      -0.755553      3.210501      0.484265
  H       0.859025      2.594088     -0.078629
