17
Coordinates from ORCA-job TMP_cation_cpcm_1000_default E -761.683727522385
  C       2.322150     -1.110107     -0.121247
  O       1.446904     -0.246841      0.586848
  P      -0.001093      0.003392     -0.032977
  O      -0.049654      0.153953     -1.490261
  O      -0.851133     -1.206662      0.564270
  C      -2.124125     -1.458547     -0.009074
  O      -0.530506      1.251111      0.807508
  C      -0.191013      2.546951      0.340395
  H       3.337969     -0.827674      0.154216
  H       2.176116     -0.993877     -1.196468
  H       2.136428     -2.148361      0.159357
  H      -2.350663     -2.509116      0.170324
  H      -2.100650     -1.254852     -1.080809
  H      -2.881254     -0.829776      0.462504
  H       0.789643      2.839662      0.719716
  H      -0.952799      3.229495      0.716423
  H      -0.176319      2.561249     -0.750724
17
Coordinates from ORCA-job TMP_cation_cpcm_1000_default E -761.692361791162
  C       2.379114     -1.091502     -0.115224
  O       1.435912     -0.253572      0.566402
  P       0.002388     -0.027181     -0.101452
  O      -0.005083      0.100432     -1.574745
  O      -0.852507     -1.245643      0.480893
  C      -2.197058     -1.482489      0.020280
  O      -0.562843      1.232614      0.703255
  C      -0.178185      2.576523      0.336388
  H       3.373118     -0.799192      0.223581
  H       2.289445     -0.976725     -1.205005
  H       2.184030     -2.143538      0.145664
  H      -2.408982     -2.537281      0.194788
  H      -2.289230     -1.240746     -1.043048
  H      -2.902676     -0.860365      0.590218
  H       0.765879      2.841301      0.830950
  H      -0.971918      3.234696      0.691713
  H      -0.061404      2.672666     -0.744659
17
Coordinates from ORCA-job TMP_cation_cpcm_1000_default E -761.697346615412
  C       2.420944     -1.079897     -0.112254
  O       1.422076     -0.255839      0.536303
  P       0.003455     -0.045345     -0.164137
  O       0.019209      0.053863     -1.655856
  O      -0.852379     -1.269693      0.397042
  C      -2.246853     -1.488521      0.051458
  O      -0.598278      1.218738      0.596372
  C      -0.171479      2.591647      0.335230
  H       3.388863     -0.773065      0.281196
  H       2.379209     -0.970946     -1.204960
  H       2.217508     -2.133192      0.140301
  H      -2.437677     -2.549169      0.205215
  H      -2.434245     -1.191458     -0.986737
  H      -2.882253     -0.882421      0.714766
  H       0.713390      2.812132      0.944948
  H      -1.002107      3.225287      0.642935
  H       0.060619      2.737881     -0.721822
17
Coordinates from ORCA-job TMP_cation_cpcm_1000_default E -761.701996666098
  C       2.460874     -1.064512     -0.109404
  O       1.400637     -0.253595      0.489566
  P       0.005826     -0.066552     -0.244643
  O       0.048818     -0.020718     -1.757205
  O      -0.852436     -1.295040      0.283624
  C      -2.290922     -1.473247      0.098307
  O      -0.649434      1.197015      0.440570
  C      -0.169726      2.587141      0.335823
  H       3.390689     -0.728709      0.344601
  H       2.473427     -0.955115     -1.199215
  H       2.258047     -2.114815      0.139387
  H      -2.469399     -2.541372      0.196219
  H      -2.590132     -1.082313     -0.880570
  H      -2.808178     -0.905131      0.883928
  H       0.601506      2.735215      1.097323
  H      -1.042859      3.202284      0.541973
  H       0.233261      2.779464     -0.660285
17
Coordinates from ORCA-job TMP_cation_cpcm_1000_default E -761.704826349494
  C       2.484687     -1.040502     -0.108883
  O       1.375919     -0.234984      0.430735
  P       0.004057     -0.085045     -0.326209
  O       0.070679     -0.116585     -1.851605
  O      -0.855788     -1.314973      0.174981
  C      -2.313086     -1.441427      0.148038
  O      -0.702246      1.177218      0.267268
  C      -0.170842      2.556039      0.344055
  H       3.377710     -0.662737      0.383599
  H       2.538943     -0.936671     -1.194782
  H       2.295396     -2.084452      0.156618
  H      -2.508014     -2.510312      0.178172
  H      -2.704694     -0.954490     -0.750564
  H      -2.697466     -0.926579      1.037345
  H       0.436844      2.618252      1.248840
  H      -1.055456      3.184983      0.407617
  H       0.423358      2.772266     -0.545223
17
Coordinates from ORCA-job TMP_cation_cpcm_1000_default E -761.706063743511
  C       2.488775     -1.010708     -0.110503
  O       1.359712     -0.204371      0.388021
  P      -0.004229     -0.095123     -0.371510
  O       0.072137     -0.192381     -1.896379
  O      -0.860339     -1.329078      0.121016
  C      -2.316956     -1.419534      0.174202
  O      -0.736765      1.170385      0.157527
  C      -0.165360      2.518172      0.354267
  H       3.365709     -0.598091      0.383480
  H       2.555642     -0.924164     -1.196271
  H       2.315974     -2.047533      0.185643
  H      -2.539851     -2.483619      0.167904
  H      -2.749756     -0.883941     -0.675463
  H      -2.629155     -0.939941      1.109384
  H       0.318173      2.524588      1.332385
  H      -1.022626      3.186279      0.319500
  H       0.548914      2.729060     -0.443203
17
Coordinates from ORCA-job TMP_cation_cpcm_1000_default E -761.707079189065
  C       2.487909     -0.973093     -0.116529
  O       1.349056     -0.143673      0.318490
  P      -0.016562     -0.098916     -0.426615
  O       0.054189     -0.297057     -1.942133
  O      -0.861333     -1.337794      0.078802
  C      -2.311858     -1.396380      0.196549
  O      -0.770285      1.177375      0.024413
  C      -0.159234      2.469985      0.377569
  H       3.358061     -0.514525      0.348770
  H       2.558884     -0.948513     -1.204536
  H       2.328900     -1.987177      0.253230
  H      -2.566743     -2.453549      0.175263
  H      -2.777792     -0.833684     -0.616877
  H      -2.566104     -0.939462      1.160424
  H       0.160953      2.408961      1.418593
  H      -0.952635      3.201215      0.240732
  H       0.684594      2.666287     -0.286146
17
Coordinates from ORCA-job TMP_cation_cpcm_1000_default E -761.707572445721
  C       2.484593     -0.953585     -0.122541
  O       1.352627     -0.085002      0.251201
  P      -0.023630     -0.092487     -0.467764
  O       0.022515     -0.373008     -1.970805
  O      -0.853484     -1.334788      0.066290
  C      -2.300422     -1.384550      0.204555
  O      -0.783419      1.196811     -0.066239
  C      -0.158158      2.443743      0.402548
  H       3.360917     -0.464516      0.298231
  H       2.550666     -1.012627     -1.209459
  H       2.323798     -1.933214      0.329436
  H      -2.566185     -2.439503      0.191298
  H      -2.780434     -0.824938     -0.602967
  H      -2.538666     -0.926537      1.172531
  H       0.051473      2.333861      1.467533
  H      -0.898840      3.219093      0.218757
  H       0.756647      2.631247     -0.162606
17
Coordinates from ORCA-job TMP_cation_cpcm_1000_default E -761.707973565623
  C       2.480566     -0.946117     -0.129790
  O       1.371225     -0.014423      0.153127
  P      -0.021996     -0.077934     -0.524221
  O      -0.022891     -0.454442     -2.007555
  O      -0.831522     -1.319414      0.059498
  C      -2.276439     -1.366578      0.211613
  O      -0.781220      1.228892     -0.173574
  C      -0.170240      2.421325      0.437736
  H       3.373000     -0.431622      0.220739
  H       2.531962     -1.133470     -1.203066
  H       2.304421     -1.861596      0.436240
  H      -2.545330     -2.420994      0.216936
  H      -2.768134     -0.820271     -0.598338
  H      -2.506495     -0.896397      1.176289
  H      -0.085006      2.248084      1.511643
  H      -0.859165      3.235462      0.221762
  H       0.807264      2.609496     -0.009037
17
Coordinates from ORCA-job TMP_cation_cpcm_1000_default E -761.708225484715
  C       2.475257     -0.948935     -0.132547
  O       1.390739      0.030241      0.079037
  P      -0.014641     -0.064861     -0.569068
  O      -0.055917     -0.499001     -2.036310
  O      -0.807745     -1.301620      0.060447
  C      -2.252506     -1.350386      0.217907
  O      -0.767720      1.256051     -0.250185
  C      -0.186220      2.408298      0.461565
  H       3.382680     -0.429490      0.168195
  H       2.512787     -1.229327     -1.186297
  H       2.280286     -1.809655      0.508576
  H      -2.518732     -2.405371      0.236384
  H      -2.748969     -0.814260     -0.596023
  H      -2.481337     -0.869268      1.177622
  H      -0.174526      2.181794      1.529028
  H      -0.853108      3.239581      0.241780
  H       0.819672      2.606208      0.089889
17
Coordinates from ORCA-job TMP_cation_cpcm_1000_default E -761.708641036134
  C       2.463247     -0.963822     -0.132712
  O       1.424416      0.080050     -0.024446
  P       0.003901     -0.043537     -0.637849
  O      -0.096628     -0.539131     -2.082142
  O      -0.763806     -1.268792      0.062816
  C      -2.208340     -1.320876      0.232459
  O      -0.733208      1.298774     -0.361575
  C      -0.220701      2.390557      0.489128
  H       3.394292     -0.456674      0.110127
  H       2.480030     -1.361032     -1.149247
  H       2.232590     -1.743917      0.594524
  H      -2.469119     -2.377000      0.260006
  H      -2.712556     -0.789020     -0.579328
  H      -2.430467     -0.832200      1.190047
  H      -0.298483      2.079737      1.532625
  H      -0.875898      3.232969      0.277716
  H       0.810733      2.613913      0.217850
17
Coordinates from ORCA-job TMP_cation_cpcm_1000_default E -761.709070566200
  C       2.449521     -0.994417     -0.131976
  O       1.468830      0.110635     -0.125044
  P       0.036062     -0.019510     -0.713293
  O      -0.123981     -0.557010     -2.135509
  O      -0.706729     -1.227217      0.058805
  C      -2.148616     -1.273791      0.258517
  O      -0.677341      1.344366     -0.483104
  C      -0.279575      2.366080      0.508485
  H       3.405213     -0.518780      0.074842
  H       2.447328     -1.483870     -1.107801
  H       2.172037     -1.696101      0.656514
  H      -2.412439     -2.329302      0.279098
  H      -2.666396     -0.723807     -0.531959
  H      -2.343183     -0.793894      1.226960
  H      -0.447663      1.961793      1.508408
  H      -0.939293      3.206176      0.303565
  H       0.766223      2.628648      0.353492
17
Coordinates from ORCA-job TMP_cation_cpcm_1000_default E -761.709372536076
  C       2.442028     -1.016209     -0.131267
  O       1.486233      0.110863     -0.143674
  P       0.055961     -0.010230     -0.744321
  O      -0.110246     -0.547725     -2.163070
  O      -0.679580     -1.204160      0.058733
  C      -2.117682     -1.242488      0.280810
  O      -0.646275      1.361226     -0.544695
  C      -0.317837      2.350291      0.504303
  H       3.403771     -0.561012      0.092638
  H       2.446690     -1.506074     -1.106924
  H       2.136330     -1.712304      0.651513
  H      -2.390714     -2.295984      0.286035
  H      -2.643135     -0.667522     -0.486296
  H      -2.286627     -0.780622      1.263422
  H      -0.511744      1.899241      1.479067
  H      -0.993455      3.179203      0.306571
  H       0.726281      2.643506      0.397154
17
Coordinates from ORCA-job TMP_cation_cpcm_1000_default E -761.709576636577
  C       2.443641     -1.020728     -0.130089
  O       1.473946      0.094377     -0.104930
  P       0.057283     -0.016792     -0.739579
  O      -0.069382     -0.536266     -2.166423
  O      -0.687992     -1.202357      0.058073
  C      -2.121733     -1.232296      0.293042
  O      -0.649504      1.350588     -0.558168
  C      -0.324938      2.344165      0.486559
  H       3.394441     -0.565913      0.138123
  H       2.477145     -1.452220     -1.132068
  H       2.134250     -1.761620      0.608453
  H      -2.407848     -2.282578      0.280265
  H      -2.650845     -0.633146     -0.452542
  H      -2.271421     -0.793873      1.290139
  H      -0.495696      1.890017      1.464142
  H      -1.014555      3.164470      0.301553
  H       0.713209      2.654172      0.363450
17
Coordinates from ORCA-job TMP_cation_cpcm_1000_default E -761.709646635268
  C       2.454883     -1.032485     -0.135614
  O       1.494772      0.091634     -0.135961
  P       0.076876     -0.016830     -0.763961
  O      -0.052837     -0.562655     -2.179033
  O      -0.677213     -1.184945      0.048616
  C      -2.103060     -1.185558      0.312855
  O      -0.617403      1.359124     -0.617283
  C      -0.368276      2.310821      0.484846
  H       3.407387     -0.581632      0.134063
  H       2.495266     -1.472483     -1.133386
  H       2.134770     -1.759661      0.611618
  H      -2.420485     -2.226915      0.282084
  H      -2.636564     -0.552989     -0.401146
  H      -2.216803     -0.775423      1.327375
  H      -0.594022      1.820091      1.433364
  H      -1.049692      3.136508      0.292943
  H       0.672399      2.633398      0.438619
17
Coordinates from ORCA-job TMP_cation_cpcm_1000_default E -761.709705472849
  C       2.455513     -1.023092     -0.133122
  O       1.481795      0.088196     -0.118628
  P       0.066059     -0.022935     -0.751556
  O      -0.044972     -0.561901     -2.170633
  O      -0.692602     -1.191310      0.051209
  C      -2.118939     -1.200616      0.306729
  O      -0.634899      1.350670     -0.598891
  C      -0.347956      2.318537      0.479463
  H       3.402064     -0.565530      0.146412
  H       2.504079     -1.446178     -1.137842
  H       2.142076     -1.765078      0.602637
  H      -2.432428     -2.243100      0.269538
  H      -2.652118     -0.567766     -0.407203
  H      -2.242345     -0.798437      1.323463
  H      -0.541447      1.844136      1.443502
  H      -1.034167      3.143139      0.300028
  H       0.690286      2.641267      0.394893
17
Coordinates from ORCA-job TMP_cation_cpcm_1000_default E -761.709740279335
  C       2.454419     -1.022156     -0.130078
  O       1.482083      0.089870     -0.124354
  P       0.064432     -0.023121     -0.754089
  O      -0.043493     -0.562175     -2.173420
  O      -0.694854     -1.187496      0.051915
  C      -2.120587     -1.202636      0.306866
  O      -0.635866      1.352940     -0.601529
  C      -0.344033      2.319723      0.476951
  H       3.400544     -0.564967      0.151367
  H       2.505905     -1.450945     -1.132349
  H       2.136469     -1.760068      0.608116
  H      -2.433333     -2.244882      0.254708
  H      -2.654781     -0.559316     -0.396690
  H      -2.245353     -0.817931      1.330367
  H      -0.521691      1.841828      1.442413
  H      -1.039852      3.138670      0.308724
  H       0.689992      2.652661      0.381084
17
Coordinates from ORCA-job TMP_cation_cpcm_1000_default E -761.709780221765
  C       2.451211     -1.023635     -0.122384
  O       1.486087      0.093977     -0.141340
  P       0.064927     -0.021673     -0.764803
  O      -0.040958     -0.562750     -2.184043
  O      -0.694907     -1.176710      0.050465
  C      -2.118720     -1.200194      0.310872
  O      -0.631588      1.359607     -0.615994
  C      -0.343025      2.319014      0.470850
  H       3.397130     -0.568938      0.163368
  H       2.509210     -1.467905     -1.117715
  H       2.120256     -1.749862      0.621945
  H      -2.434004     -2.239284      0.217897
  H      -2.655391     -0.525416     -0.360070
  H      -2.237329     -0.862817      1.351852
  H      -0.492112      1.826503      1.433852
  H      -1.061694      3.122472      0.324994
  H       0.680908      2.677612      0.360252
17
Coordinates from ORCA-job TMP_cation_cpcm_1000_default E -761.709793120893
  C       2.449362     -1.024724     -0.117902
  O       1.488307      0.096051     -0.149613
  P       0.066077     -0.020838     -0.770558
  O      -0.040903     -0.564214     -2.189342
  O      -0.693597     -1.172080      0.048674
  C      -2.116550     -1.196868      0.313825
  O      -0.628308      1.362027     -0.624611
  C      -0.344487      2.317610      0.467077
  H       3.395052     -0.571050      0.170069
  H       2.510811     -1.476080     -1.109870
  H       2.112179     -1.745577      0.628826
  H      -2.435979     -2.232325      0.195035
  H      -2.653184     -0.501894     -0.335845
  H      -2.228192     -0.888722      1.364467
  H      -0.480749      1.817365      1.427952
  H      -1.074234      3.112733      0.330830
  H       0.674398      2.688586      0.350985
17
Coordinates from ORCA-job TMP_cation_cpcm_1000_default E -761.709807455765
  C       2.446264     -1.024994     -0.111705
  O       1.489489      0.098903     -0.156549
  P       0.066361     -0.020099     -0.774709
  O      -0.044150     -0.566957     -2.192645
  O      -0.691824     -1.168395      0.048509
  C      -2.114833     -1.194986      0.316335
  O      -0.626165      1.363329     -0.631651
  C      -0.343991      2.317900      0.461437
  H       3.391426     -0.572236      0.179270
  H       2.511977     -1.482643     -1.100540
  H       2.102793     -1.741414      0.636311
  H      -2.439606     -2.224212      0.160550
  H      -2.649148     -0.473401     -0.305100
  H      -2.219104     -0.927508      1.378446
  H      -0.460319      1.811467      1.421611
  H      -1.087333      3.102298      0.337258
  H       0.668162      2.702949      0.333172
17
Coordinates from ORCA-job TMP_cation_cpcm_1000_default E -761.709816660959
  C       2.444792     -1.024242     -0.108102
  O       1.488739      0.100023     -0.156652
  P       0.065418     -0.020590     -0.773402
  O      -0.047682     -0.571138     -2.190123
  O      -0.691653     -1.167800      0.051510
  C      -2.115669     -1.195711      0.317061
  O      -0.626618      1.362411     -0.632968
  C      -0.341669      2.320099      0.456564
  H       3.388952     -0.571582      0.186271
  H       2.514210     -1.481100     -1.097022
  H       2.099036     -1.741454      0.637963
  H      -2.444393     -2.219271      0.132973
  H      -2.646433     -0.455620     -0.284977
  H      -2.217546     -0.958716      1.386307
  H      -0.442673      1.813709      1.418413
  H      -1.092755      3.098179      0.339777
  H       0.665945      2.712803      0.316408
17
Coordinates from ORCA-job TMP_cation_cpcm_1000_default E -761.709825289972
  C       2.443646     -1.022835     -0.105838
  O       1.486590      0.100585     -0.151692
  P       0.062982     -0.021561     -0.766922
  O      -0.053976     -0.576371     -2.181910
  O      -0.692282     -1.168698      0.059839
  C      -2.118713     -1.200743      0.315891
  O      -0.629202      1.360746     -0.628753
  C      -0.336036      2.326334      0.451447
  H       3.386705     -0.570521      0.192650
  H       2.516353     -1.474287     -1.096973
  H       2.097492     -1.744301      0.635837
  H      -2.448224     -2.218925      0.103977
  H      -2.644708     -0.445604     -0.271076
  H      -2.224589     -0.992399      1.390354
  H      -0.420491      1.825205      1.417572
  H      -1.092907      3.099602      0.340429
  H       0.667361      2.723773      0.295169
17
Coordinates from ORCA-job TMP_cation_cpcm_1000_default E -761.709830030911
  C       2.443653     -1.022070     -0.105842
  O       1.484876      0.100135     -0.145497
  P       0.060932     -0.022543     -0.759616
  O      -0.058821     -0.580730     -2.172962
  O      -0.693334     -1.169198      0.069412
  C      -2.121825     -1.206035      0.314469
  O      -0.631360      1.359768     -0.623691
  C      -0.331184      2.332688      0.447873
  H       3.385866     -0.570427      0.196416
  H       2.518498     -1.466454     -1.099977
  H       2.098061     -1.748657      0.631076
  H      -2.449736     -2.221102      0.084925
  H      -2.644379     -0.443085     -0.265198
  H      -2.234724     -1.015492      1.391365
  H      -0.406439      1.837742      1.417925
  H      -1.090136      3.104152      0.338474
  H       0.670052      2.731308      0.280847
17
Coordinates from ORCA-job TMP_cation_cpcm_1000_default E -761.709832208237
  C       2.444431     -1.022176     -0.107011
  O       1.484628      0.099474     -0.142267
  P       0.060361     -0.023054     -0.755500
  O      -0.061010     -0.583571     -2.167612
  O      -0.693904     -1.168619      0.075862
  C      -2.123232     -1.208553      0.314068
  O      -0.631727      1.359819     -0.621494
  C      -0.329478      2.336169      0.446316
  H       3.386277     -0.571114      0.197310
  H       2.520041     -1.462168     -1.103011
  H       2.099198     -1.751616      0.627275
  H      -2.449706     -2.222414      0.076709
  H      -2.644311     -0.442588     -0.262875
  H      -2.241228     -1.026146      1.391833
  H      -0.404828      1.844766      1.418165
  H      -1.087496      3.108271      0.334766
  H       0.671982      2.733521      0.277465
17
Coordinates from ORCA-job TMP_cation_cpcm_1000_default E -761.709833563027
  C       2.445323     -1.022607     -0.108249
  O       1.485129      0.099036     -0.141454
  P       0.060697     -0.023220     -0.754122
  O      -0.061552     -0.585329     -2.165366
  O      -0.693975     -1.167513      0.079385
  C      -2.123288     -1.209013      0.314596
  O      -0.631195      1.360214     -0.621559
  C      -0.329810      2.337442      0.445663
  H       3.387002     -0.571870      0.197079
  H       2.521102     -1.460584     -1.105092
  H       2.100032     -1.753111      0.624961
  H      -2.449353     -2.222149      0.073148
  H      -2.643989     -0.441050     -0.260017
  H      -2.243720     -1.031474      1.392970
  H      -0.410367      1.847648      1.417908
  H      -1.085289      3.111467      0.330106
  H       0.673252      2.732113      0.280044
17
Coordinates from ORCA-job TMP_cation_cpcm_1000_default E -761.709834728914
  C       2.446111     -1.022975     -0.109128
  O       1.485781      0.098881     -0.141884
  P       0.061376     -0.023277     -0.754279
  O      -0.061401     -0.586830     -2.164771
  O      -0.693796     -1.166199      0.081361
  C      -2.122606     -1.208496      0.315926
  O      -0.630491      1.360511     -0.622936
  C      -0.331054      2.337695      0.444855
  H       3.387527     -0.572301      0.197075
  H       2.522181     -1.460052     -1.106313
  H       2.100349     -1.753812      0.623517
  H      -2.449476     -2.220115      0.068739
  H      -2.643279     -0.436659     -0.253471
  H      -2.243345     -1.038260      1.395507
  H      -0.419480      1.848977      1.416956
  H      -1.082846      3.114525      0.324089
  H       0.674450      2.728388      0.284758
17
Coordinates from ORCA-job TMP_cation_cpcm_1000_default E -761.709835648106
  C       2.446419     -1.022982     -0.109331
  O       1.486214      0.099183     -0.143157
  P       0.061968     -0.023202     -0.755578
  O      -0.061167     -0.587837     -2.165506
  O      -0.693348     -1.165246      0.081675
  C      -2.121469     -1.207654      0.317586
  O      -0.630109      1.360547     -0.624796
  C      -0.332469      2.337287      0.443908
  H       3.387581     -0.572140      0.197350
  H       2.522819     -1.460397     -1.106322
  H       2.099992     -1.753476      0.623318
  H      -2.450091     -2.217088      0.063352
  H      -2.642247     -0.430627     -0.244558
  H      -2.240561     -1.046386      1.398760
  H      -0.429195      1.849436      1.415648
  H      -1.080086      3.117312      0.317970
  H       0.675747      2.723272      0.289682
17
Coordinates from ORCA-job TMP_cation_cpcm_1000_default E -761.709836228995
  C       2.446257     -1.022583     -0.108956
  O       1.486195      0.099692     -0.144330
  P       0.062120     -0.023117     -0.756993
  O      -0.061103     -0.588376     -2.166583
  O      -0.692952     -1.164953      0.080974
  C      -2.120567     -1.207155      0.318943
  O      -0.630233      1.360338     -0.626227
  C      -0.333276      2.336810      0.442947
  H       3.387213     -0.571480      0.197927
  H       2.523085     -1.460825     -1.105553
  H       2.099320     -1.752628      0.623878
  H      -2.451095     -2.214352      0.058000
  H      -2.641373     -0.425203     -0.236245
  H      -2.237221     -1.054245      1.401596
  H      -0.435812      1.849785      1.414503
  H      -1.077566      3.119415      0.313462
  H       0.677007      2.718877      0.292656
17
Coordinates from ORCA-job TMP_cation_cpcm_1000_default E -761.709836484934
  C       2.446002     -1.022143     -0.108552
  O       1.486011      0.100037     -0.144963
  P       0.061986     -0.023079     -0.757859
  O      -0.061112     -0.588641     -2.167265
  O      -0.692760     -1.165048      0.080189
  C      -2.120182     -1.207029      0.319714
  O      -0.630442      1.360179     -0.627015
  C      -0.333525      2.336545      0.442313
  H       3.386875     -0.570882      0.198350
  H       2.523190     -1.461050     -1.104845
  H       2.098866     -1.751929      0.624450
  H      -2.451973     -2.212755      0.054593
  H      -2.640926     -0.422098     -0.231251
  H      -2.234971     -1.059220      1.403247
  H      -0.438933      1.850075      1.413842
  H      -1.075959      3.120613      0.311128
  H       0.677853      2.716425      0.293923
17
Coordinates from ORCA-job TMP_cation_cpcm_1000_default E -761.709836580492
  C       2.445867     -1.021885     -0.108369
  O       1.485890      0.100143     -0.145148
  P       0.061819     -0.023084     -0.758162
  O      -0.061101     -0.588806     -2.167461
  O      -0.692728     -1.165140      0.079850
  C      -2.120144     -1.207119      0.320106
  O      -0.630495      1.360183     -0.627384
  C      -0.333529      2.336568      0.441955
  H       3.386736     -0.570606      0.198534
  H       2.523286     -1.461087     -1.104530
  H       2.098712     -1.751618      0.624694
  H      -2.452496     -2.212072      0.052724
  H      -2.640816     -0.420720     -0.228795
  H      -2.233998     -1.061985      1.404074
  H      -0.440241      1.850441      1.413516
  H      -1.075097      3.121318      0.309975
  H       0.678337      2.715468      0.294420
