17
Coordinates from ORCA-job TMP_cation_cpcm_80_default E -761.682742538184
  C       2.322150     -1.110107     -0.121247
  O       1.446904     -0.246841      0.586848
  P      -0.001093      0.003392     -0.032977
  O      -0.049654      0.153953     -1.490261
  O      -0.851133     -1.206662      0.564270
  C      -2.124125     -1.458547     -0.009074
  O      -0.530506      1.251111      0.807508
  C      -0.191013      2.546951      0.340395
  H       3.337969     -0.827674      0.154216
  H       2.176116     -0.993877     -1.196468
  H       2.136428     -2.148361      0.159357
  H      -2.350663     -2.509116      0.170324
  H      -2.100650     -1.254852     -1.080809
  H      -2.881254     -0.829776      0.462504
  H       0.789643      2.839662      0.719716
  H      -0.952799      3.229495      0.716423
  H      -0.176319      2.561249     -0.750724
17
Coordinates from ORCA-job TMP_cation_cpcm_80_default E -761.691447970283
  C       2.340097     -1.134989     -0.131005
  O       1.433140     -0.196373      0.489427
  P      -0.038018      0.023525     -0.094730
  O      -0.127544      0.151071     -1.565310
  O      -0.854254     -1.191298      0.545936
  C      -2.135698     -1.517796     -0.008831
  O      -0.574551      1.281553      0.732336
  C      -0.171116      2.618343      0.376433
  H       3.348552     -0.810814      0.128850
  H       2.213203     -1.148066     -1.215144
  H       2.164688     -2.142288      0.269784
  H      -2.334024     -2.562276      0.231908
  H      -2.143636     -1.360533     -1.097017
  H      -2.902930     -0.871874      0.446089
  H       0.791689      2.857148      0.851590
  H      -0.944302      3.290517      0.748235
  H      -0.065295      2.714150     -0.708548
17
Coordinates from ORCA-job TMP_cation_cpcm_80_default E -761.696469666184
  C       2.351027     -1.145227     -0.135418
  O       1.421135     -0.145814      0.388011
  P      -0.066245      0.039693     -0.152711
  O      -0.195717      0.165465     -1.637094
  O      -0.856786     -1.174400      0.517460
  C      -2.149398     -1.562250     -0.009240
  O      -0.607423      1.304441      0.655338
  C      -0.143586      2.659608      0.409552
  H       3.348553     -0.769532      0.088365
  H       2.218269     -1.283577     -1.210473
  H       2.183812     -2.095650      0.386235
  H      -2.312413     -2.598479      0.283216
  H      -2.187386     -1.443016     -1.101201
  H      -2.915914     -0.909143      0.438439
  H       0.783241      2.831392      0.977458
  H      -0.933554      3.321878      0.759159
  H       0.062384      2.804608     -0.657096
17
Coordinates from ORCA-job TMP_cation_cpcm_80_default E -761.700962742761
  C       2.347886     -1.139633     -0.134116
  O       1.404073     -0.071811      0.243328
  P      -0.098700      0.055235     -0.228599
  O      -0.286920      0.183253     -1.725211
  O      -0.852624     -1.153315      0.471959
  C      -2.159165     -1.603998     -0.008819
  O      -0.648593      1.329487      0.544845
  C      -0.099378      2.680690      0.452925
  H       3.335088     -0.702620     -0.000331
  H       2.181550     -1.450376     -1.167127
  H       2.196335     -1.980219      0.549328
  H      -2.269262     -2.630312      0.334898
  H      -2.226513     -1.527375     -1.099509
  H      -2.922308     -0.954342      0.440104
  H       0.748873      2.750482      1.148106
  H      -0.908017      3.346843      0.743936
  H       0.257675      2.868012     -0.565717
17
Coordinates from ORCA-job TMP_cation_cpcm_80_default E -761.703675944286
  C       2.324649     -1.126104     -0.121873
  O       1.391541      0.002053      0.086778
  P      -0.121963      0.073524     -0.301499
  O      -0.385237      0.215763     -1.798232
  O      -0.832354     -1.134386      0.415532
  C      -2.150643     -1.632359     -0.012063
  O      -0.679063      1.353933      0.443204
  C      -0.058108      2.677807      0.494679
  H       3.310308     -0.667113     -0.121995
  H       2.102772     -1.617666     -1.070407
  H       2.197311     -1.812596      0.717363
  H      -2.204710     -2.653052      0.359566
  H      -2.242583     -1.585565     -1.099510
  H      -2.910914     -0.998821      0.453678
  H       0.693697      2.650636      1.293381
  H      -0.868859      3.365474      0.721238
  H       0.434157      2.888470     -0.459841
17
Coordinates from ORCA-job TMP_cation_cpcm_80_default E -761.705044994784
  C       2.288046     -1.115598     -0.103234
  O       1.388408      0.053590     -0.034942
  P      -0.132679      0.094043     -0.349847
  O      -0.468181      0.262938     -1.833135
  O      -0.800694     -1.126943      0.363599
  C      -2.124264     -1.652008     -0.020803
  O      -0.694854      1.373732      0.387968
  C      -0.032247      2.668520      0.520425
  H       3.281461     -0.689181     -0.220549
  H       2.009664     -1.737905     -0.955055
  H       2.184581     -1.659104      0.836950
  H      -2.136044     -2.674947      0.348905
  H      -2.238379     -1.610598     -1.105201
  H      -2.882187     -1.041215      0.473708
  H       0.656685      2.584234      1.368979
  H      -0.830237      3.381374      0.713088
  H       0.530921      2.889068     -0.390856
17
Coordinates from ORCA-job TMP_cation_cpcm_80_default E -761.706047582706
  C       2.249661     -1.101270     -0.072658
  O       1.393391      0.093954     -0.164678
  P      -0.135744      0.112848     -0.406112
  O      -0.551288      0.331866     -1.862792
  O      -0.753615     -1.137547      0.283976
  C      -2.093963     -1.666548     -0.031283
  O      -0.706118      1.382545      0.345795
  C      -0.013929      2.649250      0.538268
  H       3.252225     -0.744038     -0.296325
  H       1.917770     -1.842580     -0.801244
  H       2.172339     -1.483455      0.945949
  H      -2.068297     -2.701635      0.303034
  H      -2.266371     -1.598451     -1.105881
  H      -2.826347     -1.086192      0.531659
  H       0.631353      2.522488      1.415550
  H      -0.794009      3.385745      0.717305
  H       0.592940      2.883019     -0.340564
17
Coordinates from ORCA-job TMP_cation_cpcm_80_default E -761.706658918661
  C       2.224388     -1.085320     -0.037437
  O       1.403918      0.111039     -0.284575
  P      -0.133213      0.122129     -0.465607
  O      -0.618359      0.407744     -1.888510
  O      -0.706129     -1.164358      0.186016
  C      -2.072115     -1.673013     -0.039316
  O      -0.711733      1.375204      0.317373
  C      -0.004878      2.624260      0.547599
  H       3.233340     -0.803268     -0.330670
  H       1.856074     -1.913949     -0.644299
  H       2.166435     -1.318690      1.026500
  H      -2.025437     -2.724962      0.235271
  H      -2.332257     -1.551693     -1.091170
  H      -2.749516     -1.123825      0.615660
  H       0.618012      2.471660      1.437620
  H      -0.772398      3.374272      0.727145
  H       0.623868      2.872770     -0.311599
17
Coordinates from ORCA-job TMP_cation_cpcm_80_default E -761.707003342074
  C       2.217358     -1.073068     -0.007533
  O       1.415119      0.106164     -0.373967
  P      -0.128559      0.120719     -0.517659
  O      -0.654317      0.469035     -1.911985
  O      -0.673398     -1.195411      0.095268
  C      -2.063295     -1.669673     -0.042193
  O      -0.712454      1.354950      0.302340
  C      -0.004989      2.599990      0.550772
  H       3.229862     -0.838899     -0.329719
  H       1.836918     -1.954405     -0.526049
  H       2.163508     -1.199160      1.074764
  H      -2.016555     -2.735906      0.170085
  H      -2.409467     -1.486330     -1.060061
  H      -2.672153     -1.146697      0.696439
  H       0.614490      2.436079      1.441870
  H      -0.770349      3.350312      0.738825
  H       0.628279      2.862299     -0.301195
17
Coordinates from ORCA-job TMP_cation_cpcm_80_default E -761.707269471325
  C       2.220068     -1.061055      0.019014
  O       1.426290      0.087698     -0.455082
  P      -0.123136      0.112557     -0.569449
  O      -0.671487      0.523501     -1.937756
  O      -0.651160     -1.227769      0.006916
  C      -2.061241     -1.658287     -0.041216
  O      -0.709839      1.323209      0.294936
  C      -0.009872      2.571517      0.552800
  H       3.236133     -0.854468     -0.310957
  H       1.842675     -1.981246     -0.428638
  H       2.156270     -1.097111      1.107733
  H      -2.030725     -2.734784      0.113675
  H      -2.486185     -1.411129     -1.015320
  H      -2.592713     -1.157088      0.769350
  H       0.614892      2.403418      1.439912
  H      -0.779992      3.314121      0.751839
  H       0.620021      2.846917     -0.297757
17
Coordinates from ORCA-job TMP_cation_cpcm_80_default E -761.707579188695
  C       2.228688     -1.045671      0.039989
  O       1.434889      0.058856     -0.535010
  P      -0.118966      0.099111     -0.618838
  O      -0.675842      0.569329     -1.963531
  O      -0.640058     -1.258646     -0.072087
  C      -2.064859     -1.640545     -0.037408
  O      -0.703648      1.281843      0.295740
  C      -0.015350      2.537178      0.555998
  H       3.248725     -0.845911     -0.281523
  H       1.870072     -1.997948     -0.351154
  H       2.139699     -1.004615      1.127050
  H      -2.062452     -2.722453      0.075280
  H      -2.551672     -1.337922     -0.966391
  H      -2.521503     -1.152859      0.825724
  H       0.616675      2.370167      1.438503
  H      -0.793739      3.268796      0.763221
  H       0.609340      2.821291     -0.295563
17
Coordinates from ORCA-job TMP_cation_cpcm_80_default E -761.708006497059
  C       2.243238     -0.982197      0.075816
  O       1.433154     -0.016137     -0.698797
  P      -0.123318      0.062799     -0.710856
  O      -0.688095      0.637095     -2.008387
  O      -0.648390     -1.314523     -0.211335
  C      -2.084761     -1.608223     -0.034073
  O      -0.688749      1.194321      0.294244
  C      -0.004232      2.449147      0.570122
  H       3.263799     -0.786903     -0.245891
  H       1.928827     -1.995337     -0.172477
  H       2.112369     -0.770198      1.138758
  H      -2.143007     -2.692235      0.028477
  H      -2.653038     -1.222962     -0.883494
  H      -2.412802     -1.137029      0.894323
  H       0.620385      2.270558      1.456272
  H      -0.787461      3.175257      0.778674
  H       0.632080      2.736568     -0.271377
17
Coordinates from ORCA-job TMP_cation_cpcm_80_default E -761.708288304724
  C       2.246549     -0.977146      0.064191
  O       1.429423     -0.014389     -0.705686
  P      -0.124708      0.060404     -0.705473
  O      -0.684698      0.611050     -2.013125
  O      -0.649244     -1.309385     -0.182100
  C      -2.089282     -1.600395     -0.031579
  O      -0.685084      1.187594      0.304388
  C      -0.002332      2.443162      0.576917
  H       3.267289     -0.762136     -0.243690
  H       1.947691     -1.990446     -0.203260
  H       2.099993     -0.782216      1.128195
  H      -2.147101     -2.682182      0.062818
  H      -2.634268     -1.243882     -0.908128
  H      -2.443335     -1.101718      0.872387
  H       0.613189      2.268146      1.470243
  H      -0.786656      3.171362      0.774377
  H       0.642574      2.722177     -0.260476
17
Coordinates from ORCA-job TMP_cation_cpcm_80_default E -761.708569624461
  C       2.242706     -0.934376      0.057474
  O       1.412008     -0.024919     -0.758765
  P      -0.136279      0.049730     -0.718329
  O      -0.709230      0.587083     -2.023380
  O      -0.661012     -1.310577     -0.174230
  C      -2.103746     -1.596877     -0.031965
  O      -0.677319      1.170738      0.303112
  C       0.024838      2.409322      0.591480
  H       3.263168     -0.711487     -0.245454
  H       1.968144     -1.963285     -0.176255
  H       2.079028     -0.704966      1.111947
  H      -2.161280     -2.675136      0.098177
  H      -2.630178     -1.276328     -0.932805
  H      -2.472678     -1.069587      0.849016
  H       0.600773      2.220695      1.508770
  H      -0.745326      3.159569      0.763124
  H       0.706382      2.670402     -0.221918
17
Coordinates from ORCA-job TMP_cation_cpcm_80_default E -761.708657960364
  C       2.235760     -0.898257      0.058740
  O       1.398937     -0.034998     -0.799088
  P      -0.146624      0.042608     -0.733123
  O      -0.735083      0.582371     -2.029543
  O      -0.672050     -1.315815     -0.188520
  C      -2.114142     -1.600436     -0.034068
  O      -0.671528      1.161337      0.295758
  C       0.049749      2.382728      0.599802
  H       3.256619     -0.678553     -0.245296
  H       1.976335     -1.939564     -0.134963
  H       2.064692     -0.630942      1.103104
  H      -2.170458     -2.677448      0.107615
  H      -2.641961     -1.293000     -0.938460
  H      -2.478255     -1.065214      0.843912
  H       0.593151      2.182550      1.534808
  H      -0.704712      3.153238      0.752797
  H       0.759570      2.629395     -0.193476
17
Coordinates from ORCA-job TMP_cation_cpcm_80_default E -761.708699565532
  C       2.229261     -0.887885      0.058227
  O       1.394387     -0.033416     -0.809703
  P      -0.151501      0.043768     -0.736334
  O      -0.750760      0.579484     -2.029807
  O      -0.676101     -1.315339     -0.193883
  C      -2.116224     -1.606504     -0.035456
  O      -0.666343      1.163889      0.293081
  C       0.061548      2.378650      0.602206
  H       3.251931     -0.668755     -0.240405
  H       1.976504     -1.932022     -0.129498
  H       2.053690     -0.615967      1.100797
  H      -2.166939     -2.682932      0.113158
  H      -2.645482     -1.308848     -0.942282
  H      -2.481303     -1.068333      0.840374
  H       0.589627      2.177456      1.546067
  H      -0.685857      3.158171      0.745564
  H       0.783562      2.618584     -0.182105
17
Coordinates from ORCA-job TMP_cation_cpcm_80_default E -761.708730256752
  C       2.225923     -0.873453      0.060349
  O       1.391410     -0.043815     -0.832150
  P      -0.155646      0.040095     -0.748300
  O      -0.761726      0.583221     -2.035766
  O      -0.682287     -1.322737     -0.215973
  C      -2.120693     -1.607502     -0.035186
  O      -0.657437      1.154749      0.292596
  C       0.072126      2.366501      0.605512
  H       3.249516     -0.645385     -0.228571
  H       1.990908     -1.924003     -0.114071
  H       2.035474     -0.588578      1.097047
  H      -2.174047     -2.683356      0.116451
  H      -2.662799     -1.308643     -0.934170
  H      -2.469797     -1.066145      0.845412
  H       0.584097      2.168150      1.559145
  H      -0.672060      3.151609      0.736465
  H       0.807037      2.599295     -0.168788
17
Coordinates from ORCA-job TMP_cation_cpcm_80_default E -761.708745707246
  C       2.222958     -0.885545      0.055841
  O       1.394643     -0.036221     -0.824226
  P      -0.154352      0.045858     -0.745372
  O      -0.762203      0.579178     -2.036921
  O      -0.678903     -1.318613     -0.213696
  C      -2.115649     -1.609115     -0.032245
  O      -0.652903      1.161011      0.294316
  C       0.069476      2.377666      0.605037
  H       3.248568     -0.644895     -0.215434
  H       1.995417     -1.932360     -0.148515
  H       2.019920     -0.628785      1.097570
  H      -2.163881     -2.683850      0.128434
  H      -2.659020     -1.319138     -0.933452
  H      -2.468464     -1.062004      0.843517
  H       0.574462      2.188033      1.564114
  H      -0.679079      3.160336      0.726357
  H       0.809012      2.608446     -0.165323
17
Coordinates from ORCA-job TMP_cation_cpcm_80_default E -761.708754295180
  C       2.223954     -0.885075      0.054554
  O       1.395235     -0.039865     -0.829603
  P      -0.153715      0.044400     -0.749912
  O      -0.759556      0.579791     -2.041710
  O      -0.678755     -1.320800     -0.219896
  C      -2.115357     -1.605629     -0.028965
  O      -0.651917      1.156871      0.292926
  C       0.068507      2.374419      0.606253
  H       3.249140     -0.633940     -0.208594
  H       2.005652     -1.932610     -0.155880
  H       2.010221     -0.633423      1.095325
  H      -2.166203     -2.679740      0.134656
  H      -2.663544     -1.315022     -0.927069
  H      -2.461657     -1.054773      0.847068
  H       0.563966      2.186880      1.570563
  H      -0.681524      3.157142      0.718075
  H       0.815553      2.601375     -0.157790
17
Coordinates from ORCA-job TMP_cation_cpcm_80_default E -761.708759708004
  C       2.224533     -0.887381      0.051701
  O       1.395964     -0.040610     -0.831518
  P      -0.152584      0.044283     -0.752115
  O      -0.756659      0.580092     -2.044717
  O      -0.677262     -1.321280     -0.222392
  C      -2.113597     -1.602330     -0.024844
  O      -0.652182      1.155143      0.291320
  C       0.066549      2.373684      0.606959
  H       3.249438     -0.624119     -0.200253
  H       2.015723     -1.933978     -0.172428
  H       1.998871     -0.648658      1.092900
  H      -2.165641     -2.675538      0.143969
  H      -2.664413     -1.314421     -0.922226
  H      -2.456805     -1.046434      0.849201
  H       0.550117      2.189043      1.577626
  H      -0.684545      3.157108      0.706464
  H       0.822494      2.595398     -0.149646
17
Coordinates from ORCA-job TMP_cation_cpcm_80_default E -761.708762537094
  C       2.224599     -0.890272      0.049272
  O       1.396308     -0.039733     -0.830776
  P      -0.151898      0.045048     -0.751310
  O      -0.755938      0.581293     -2.043836
  O      -0.676063     -1.320830     -0.221881
  C      -2.112172     -1.601214     -0.022598
  O      -0.652359      1.155496      0.291578
  C       0.065400      2.375103      0.606874
  H       3.249448     -0.619069     -0.194249
  H       2.022069     -1.935481     -0.186803
  H       1.991494     -0.663511      1.091451
  H      -2.163921     -2.673691      0.150850
  H      -2.663045     -1.317434     -0.921270
  H      -2.455931     -1.041575      0.848808
  H       0.541560      2.193653      1.581648
  H      -0.685993      3.159323      0.697867
  H       0.826441      2.592894     -0.145626
17
Coordinates from ORCA-job TMP_cation_cpcm_80_default E -761.708765773325
  C       2.224873     -0.895646      0.045609
  O       1.396722     -0.037933     -0.827736
  P      -0.151065      0.046657     -0.747423
  O      -0.756091      0.584511     -2.038954
  O      -0.674602     -1.319780     -0.218876
  C      -2.110585     -1.600867     -0.020642
  O      -0.652033      1.156893      0.294670
  C       0.063919      2.379056      0.606192
  H       3.249597     -0.614097     -0.186367
  H       2.030784     -1.938300     -0.208319
  H       1.982969     -0.687377      1.089583
  H      -2.161149     -2.672152      0.160433
  H      -2.659412     -1.325058     -0.923047
  H      -2.457921     -1.035608      0.845664
  H       0.532319      2.204040      1.585703
  H      -0.688027      3.164012      0.686343
  H       0.829702      2.591649     -0.142832
17
Coordinates from ORCA-job TMP_cation_cpcm_80_default E -761.708767612671
  C       2.225602     -0.900527      0.042865
  O       1.397092     -0.036630     -0.823977
  P      -0.150544      0.047987     -0.742489
  O      -0.756658      0.587867     -2.032815
  O      -0.673892     -1.318828     -0.214875
  C      -2.110095     -1.601396     -0.020428
  O      -0.651123      1.158182      0.299535
  C       0.062718      2.383285      0.605418
  H       3.250118     -0.612652     -0.182208
  H       2.036651     -1.941037     -0.223557
  H       1.979504     -0.705522      1.088393
  H      -2.159434     -2.671656      0.167054
  H      -2.655568     -1.332796     -0.927021
  H      -2.462161     -1.031689      0.841025
  H       0.528527      2.214608      1.587162
  H      -0.690224      3.167974      0.679300
  H       0.829486      2.592832     -0.143381
17
Coordinates from ORCA-job TMP_cation_cpcm_80_default E -761.708768752687
  C       2.226589     -0.904424      0.040804
  O       1.397466     -0.035829     -0.820527
  P      -0.150231      0.048917     -0.737996
  O      -0.756954      0.590497     -2.027482
  O      -0.673647     -1.318039     -0.211041
  C      -2.110260     -1.602044     -0.021030
  O      -0.649992      1.158982      0.304640
  C       0.061632      2.386789      0.604953
  H       3.250879     -0.613232     -0.181109
  H       2.040069     -1.943391     -0.233333
  H       1.979424     -0.717695      1.087583
  H      -2.158564     -2.671406      0.171852
  H      -2.652155     -1.339496     -0.931506
  H      -2.466877     -1.028647      0.836091
  H       0.527297      2.223673      1.587647
  H      -0.692549      3.170681      0.675267
  H       0.827874      2.594663     -0.144814
17
Coordinates from ORCA-job TMP_cation_cpcm_80_default E -761.708769529559
  C       2.227692     -0.907872      0.038724
  O       1.397847     -0.035151     -0.817424
  P      -0.149980      0.049682     -0.734084
  O      -0.756874      0.592747     -2.023062
  O      -0.673481     -1.317267     -0.207636
  C      -2.110546     -1.602543     -0.021671
  O      -0.648878      1.159502      0.309497
  C       0.060455      2.389734      0.604901
  H       3.251740     -0.614601     -0.181672
  H       2.042250     -1.945502     -0.241224
  H       1.980717     -0.727320      1.086628
  H      -2.157770     -2.670909      0.176935
  H      -2.648954     -1.346090     -0.935906
  H      -2.471450     -1.025152      0.830957
  H       0.525288      2.232004      1.588835
  H      -0.694975      3.172851      0.671290
  H       0.826915      2.595886     -0.145086
17
Coordinates from ORCA-job TMP_cation_cpcm_80_default E -761.708770149848
  C       2.228240     -0.908924      0.037380
  O       1.397843     -0.034860     -0.816606
  P      -0.150079      0.049986     -0.732709
  O      -0.757018      0.593821     -2.021478
  O      -0.673584     -1.316890     -0.206572
  C      -2.110854     -1.602839     -0.022003
  O      -0.648234      1.159531      0.311775
  C       0.060117      2.390533      0.605487
  H       3.252144     -0.615612     -0.183699
  H       2.042334     -1.946172     -0.243707
  H       1.982461     -0.729607      1.085780
  H      -2.157187     -2.670452      0.180770
  H      -2.647572     -1.350538     -0.938350
  H      -2.473878     -1.022462      0.827680
  H       0.522252      2.235779      1.591168
  H      -0.695557      3.173813      0.668001
  H       0.828574      2.594892     -0.142917
17
Coordinates from ORCA-job TMP_cation_cpcm_80_default E -761.708771078916
  C       2.229339     -0.911487      0.034173
  O       1.397981     -0.033663     -0.814533
  P      -0.150039      0.050899     -0.730024
  O      -0.756657      0.596631     -2.018310
  O      -0.673268     -1.315953     -0.204566
  C      -2.110856     -1.603283     -0.022397
  O      -0.647433      1.159666      0.316224
  C       0.058808      2.392201      0.606940
  H       3.253070     -0.619368     -0.189309
  H       2.040714     -1.947669     -0.249062
  H       1.987126     -0.734452      1.083791
  H      -2.155245     -2.669122      0.189814
  H      -2.644161     -1.360300     -0.943194
  H      -2.478394     -1.016082      0.820604
  H       0.513341      2.243882      1.597124
  H      -0.697191      3.176067      0.659541
  H       0.832865      2.592034     -0.136817
17
Coordinates from ORCA-job TMP_cation_cpcm_80_default E -761.708771632509
  C       2.229276     -0.911086      0.033285
  O       1.397840     -0.033229     -0.815286
  P      -0.150159      0.051157     -0.730687
  O      -0.756790      0.597489     -2.018642
  O      -0.673140     -1.315886     -0.205673
  C      -2.110568     -1.603406     -0.022316
  O      -0.647392      1.159370      0.316335
  C       0.058773      2.391570      0.607972
  H       3.253087     -0.621245     -0.192732
  H       2.038113     -1.947433     -0.247619
  H       1.989359     -0.731633      1.083025
  H      -2.154268     -2.668667      0.192841
  H      -2.644005     -1.363116     -0.943737
  H      -2.478411     -1.013999      0.819001
  H       0.508206      2.244500      1.600689
  H      -0.696592      3.176422      0.655865
  H       0.836670      2.589192     -0.132321
17
Coordinates from ORCA-job TMP_cation_cpcm_80_default E -761.708772405470
  C       2.229481     -0.912408      0.030539
  O       1.397955     -0.031590     -0.814951
  P      -0.149938      0.052344     -0.730169
  O      -0.756754      0.600390     -2.017064
  O      -0.672276     -1.315307     -0.206155
  C      -2.109415     -1.603748     -0.022243
  O      -0.647100      1.159223      0.318382
  C       0.057755      2.392065      0.609856
  H       3.253470     -0.626694     -0.199745
  H       2.032981     -1.948135     -0.248916
  H       1.994312     -0.731489      1.081097
  H      -2.151544     -2.667430      0.200822
  H      -2.641753     -1.371200     -0.946292
  H      -2.479832     -1.008600      0.813885
  H       0.496316      2.249671      1.608090
  H      -0.696934      3.178326      0.646448
  H       0.843276      2.584580     -0.123583
17
Coordinates from ORCA-job TMP_cation_cpcm_80_default E -761.708772676885
  C       2.229427     -0.912426      0.029954
  O       1.397906     -0.031331     -0.815510
  P      -0.149894      0.052645     -0.730339
  O      -0.757340      0.601168     -2.016582
  O      -0.672086     -1.315347     -0.206704
  C      -2.109012     -1.603896     -0.022290
  O      -0.646851      1.159045      0.318620
  C       0.057801      2.392025      0.610464
  H       3.253473     -0.628178     -0.201840
  H       2.031341     -1.948203     -0.248162
  H       1.995631     -0.730117      1.080575
  H      -2.150943     -2.667249      0.202393
  H      -2.641490     -1.373010     -0.946686
  H      -2.479779     -1.007607      0.812878
  H       0.492725      2.250663      1.610427
  H      -0.696549      3.178811      0.643646
  H       0.845640      2.583007     -0.120842
17
Coordinates from ORCA-job TMP_cation_cpcm_80_default E -761.708772825916
  C       2.229816     -0.913543      0.028638
  O       1.397971     -0.030903     -0.815102
  P      -0.149751      0.053157     -0.729202
  O      -0.757982      0.602397     -2.014667
  O      -0.671789     -1.315143     -0.205894
  C      -2.108655     -1.604133     -0.022582
  O      -0.646257      1.159022      0.320398
  C       0.057442      2.392926      0.611173
  H       3.253808     -0.630377     -0.204700
  H       2.030094     -1.948962     -0.249614
  H       1.997849     -0.731354      1.079680
  H      -2.150239     -2.666815      0.205374
  H      -2.639989     -1.376714     -0.948503
  H      -2.481266     -1.005594      0.810170
  H       0.488023      2.254385      1.613371
  H      -0.696964      3.179926      0.639279
  H       0.847888      2.581726     -0.117818
