17
Coordinates from ORCA-job TMP_cation_cpcm_80_default E -761.708772825916
  C           2.22981606032224     -0.91354313937879      0.02863774368601
  O           1.39797147515221     -0.03090340208827     -0.81510201333765
  P          -0.14975149564376      0.05315731378337     -0.72920229650085
  O          -0.75798169836683      0.60239715011626     -2.01466668477762
  O          -0.67178887893757     -1.31514346774670     -0.20589421287426
  C          -2.10865546400592     -1.60413327096289     -0.02258231876608
  O          -0.64625720330874      1.15902167830810      0.32039783568837
  C           0.05744202847503      2.39292646308757      0.61117315842769
  H           3.25380766957694     -0.63037705912377     -0.20469958272972
  H           2.03009427225965     -1.94896177395165     -0.24961383520221
  H           1.99784940939687     -0.73135420296809      1.07967952427227
  H          -2.15023901143907     -2.66681480362506      0.20537419344757
  H          -2.63998888707891     -1.37671362924090     -0.94850258629392
  H          -2.48126580597884     -1.00559431602224      0.81016959351424
  H           0.48802312045221      2.25438519397801      1.61337082296125
  H          -0.69696353658550      3.17992571378805      0.63927865960970
  H           0.84788793570999      2.58172556204681     -0.11781801112487
