17
Coordinates from ORCA-job TMP_cation_cpcm_10_default E -761.701164916670
  C           2.44323437106301     -1.01965860661180     -0.10407254834934
  O           1.48042164494259      0.10099751528448     -0.12959419840050
  P           0.05318474574083     -0.02407267366383     -0.73367855044165
  O          -0.07737109242780     -0.59464024399987     -2.14301387613164
  O          -0.69792933906436     -1.16235289551645      0.10784630195606
  C          -2.13289029817962     -1.22897563195175      0.31214331690321
  O          -0.63726058225133      1.36042346165614     -0.60712812574748
  C          -0.31183526535468      2.35901342815985      0.43270935058769
  H           3.38625933266964     -0.56716581794569      0.19436118983729
  H           2.51238052063859     -1.45692836535274     -1.10171189289184
  H           2.10471022290190     -1.75117824982784      0.63126236653989
  H          -2.44934181306252     -2.22212235867606     -0.01341574782923
  H          -2.64777271051117     -0.42380118783368     -0.21416408363903
  H          -2.27316471849454     -1.13934110150652      1.39767997691214
  H          -0.38890355554662      1.89318634851556      1.41691535104405
  H          -1.05823483896734      3.14001807175877      0.30560802866762
  H           0.69451336590344      2.73659831751124      0.24825313098267
