17
Coordinates from ORCA-job TMP_cation_cpcm_40_default E -761.707723665045
  C           2.44555507850352     -1.02154593776805     -0.10773902000547
  O           1.48467884830501      0.10016603125876     -0.14108108350523
  P           0.05988646066672     -0.02352277142256     -0.75175962836498
  O          -0.06519477877409     -0.59053704710386     -2.16108487723351
  O          -0.69401420026236     -1.16447508055790      0.08724578705818
  C          -2.12344253922630     -1.21213732015818      0.31789842173337
  O          -0.63215298224651      1.35997443464910     -0.62208958681629
  C          -0.32825959571497      2.34193116169076      0.44006439647761
  H           3.38658295981637     -0.57012028967161      0.19844879587903
  H           2.52169760114625     -1.45879064757239     -1.10484627118773
  H           2.10004363355419     -1.75273389679980      0.62463373684995
  H          -2.45154212007659     -2.21558399661259      0.03964301059628
  H          -2.64252302895936     -0.42315572615575     -0.22872982686187
  H          -2.24489538454933     -1.07651617005260      1.40195725893700
  H          -0.42607921924328      1.86039714243664      1.41483501696894
  H          -1.07209160000971      3.12490000744386      0.31021710016742
  H           0.68175085707045      2.72175011639598      0.28238675930721
