17
Coordinates from ORCA-job TMP_cation_cpcm_14_default E -761.677752508825
  C       2.322150     -1.110107     -0.121247
  O       1.446904     -0.246841      0.586848
  P      -0.001093      0.003392     -0.032977
  O      -0.049654      0.153953     -1.490261
  O      -0.851133     -1.206662      0.564270
  C      -2.124125     -1.458547     -0.009074
  O      -0.530506      1.251111      0.807508
  C      -0.191013      2.546951      0.340395
  H       3.337969     -0.827674      0.154216
  H       2.176116     -0.993877     -1.196468
  H       2.136428     -2.148361      0.159357
  H      -2.350663     -2.509116      0.170324
  H      -2.100650     -1.254852     -1.080809
  H      -2.881254     -0.829776      0.462504
  H       0.789643      2.839662      0.719716
  H      -0.952799      3.229495      0.716423
  H      -0.176319      2.561249     -0.750724
17
Coordinates from ORCA-job TMP_cation_cpcm_14_default E -761.686445411174
  C       2.379239     -1.091798     -0.115315
  O       1.436091     -0.253490      0.566265
  P       0.002407     -0.027125     -0.101163
  O      -0.005359      0.100399     -1.574533
  O      -0.852609     -1.245562      0.480982
  C      -2.197279     -1.482700      0.020172
  O      -0.562830      1.232868      0.703197
  C      -0.178098      2.576996      0.336473
  H       3.373334     -0.799255      0.223061
  H       2.289413     -0.977441     -1.205187
  H       2.184591     -2.143715      0.146186
  H      -2.409043     -2.537557      0.194551
  H      -2.289481     -1.241062     -1.043214
  H      -2.903137     -0.860967      0.590149
  H       0.765736      2.841933      0.831393
  H      -0.971929      3.235168      0.691569
  H      -0.061047      2.673307     -0.744586
17
Coordinates from ORCA-job TMP_cation_cpcm_14_default E -761.691460557900
  C       2.421355     -1.080765     -0.112467
  O       1.422744     -0.255799      0.536008
  P       0.003737     -0.045333     -0.163365
  O       0.018713      0.053737     -1.655349
  O      -0.852436     -1.269531      0.397241
  C      -2.247190     -1.488558      0.051159
  O      -0.598033      1.219152      0.596300
  C      -0.171661      2.592600      0.335391
  H       3.389545     -0.773343      0.279903
  H       2.379002     -0.972971     -1.205340
  H       2.218715     -2.133765      0.141752
  H      -2.437843     -2.549337      0.204412
  H      -2.434415     -1.191582     -0.987107
  H      -2.882880     -0.883214      0.714708
  H       0.712785      2.813555      0.945526
  H      -1.002622      3.225901      0.642880
  H       0.060483      2.739253     -0.721653
17
Coordinates from ORCA-job TMP_cation_cpcm_14_default E -761.696113122992
  C       2.461378     -1.066075     -0.109805
  O       1.401911     -0.253131      0.488895
  P       0.006283     -0.066348     -0.243092
  O       0.047436     -0.020627     -1.756301
  O      -0.852267     -1.294647      0.284111
  C      -2.291210     -1.473304      0.097604
  O      -0.648843      1.197828      0.440627
  C      -0.169991      2.588781      0.336281
  H       3.391917     -0.728857      0.341694
  H       2.472223     -0.959644     -1.199973
  H       2.259583     -2.115584      0.142915
  H      -2.469237     -2.541612      0.194765
  H      -2.589795     -1.082846     -0.881602
  H      -2.809094     -0.906309      0.883382
  H       0.600532      2.737414      1.098314
  H      -1.043723      3.203231      0.541975
  H       0.232895      2.781729     -0.659791
17
Coordinates from ORCA-job TMP_cation_cpcm_14_default E -761.698897223369
  C       2.484582     -1.042733     -0.109450
  O       1.377920     -0.233710      0.430509
  P       0.004346     -0.084117     -0.322352
  O       0.067391     -0.114896     -1.848749
  O      -0.855242     -1.313990      0.177826
  C      -2.313066     -1.442591      0.145986
  O      -0.700701      1.179003      0.270260
  C      -0.170456      2.558825      0.344861
  H       3.379553     -0.663019      0.377999
  H       2.535074     -0.944039     -1.196048
  H       2.296185     -2.085158      0.162427
  H      -2.506341     -2.511805      0.176688
  H      -2.702314     -0.958768     -0.755213
  H      -2.701242     -0.927823      1.033416
  H       0.439035      2.622531      1.248267
  H      -1.055599      3.186907      0.409832
  H       0.420875      2.775384     -0.546258
17
Coordinates from ORCA-job TMP_cation_cpcm_14_default E -761.700117028710
  C       2.488302     -1.013357     -0.111212
  O       1.362139     -0.202019      0.387456
  P      -0.004172     -0.093694     -0.366607
  O       0.067313     -0.190573     -1.892924
  O      -0.859231     -1.327603      0.125513
  C      -2.316758     -1.421510      0.171363
  O      -0.735024      1.172846      0.161613
  C      -0.164444      2.521835      0.355672
  H       3.368035     -0.598084      0.375524
  H       2.549880     -0.934347     -1.197892
  H       2.316221     -2.047700      0.193638
  H      -2.536649     -2.486259      0.166880
  H      -2.746379     -0.891104     -0.683041
  H      -2.635117     -0.940421      1.103393
  H       0.322177      2.529659      1.332187
  H      -1.022655      3.188858      0.323100
  H       0.546361      2.733474     -0.444662
17
Coordinates from ORCA-job TMP_cation_cpcm_14_default E -761.701107270318
  C       2.486915     -0.976127     -0.117295
  O       1.351975     -0.141119      0.319209
  P      -0.016964     -0.097093     -0.418720
  O       0.047411     -0.293530     -1.936256
  O      -0.859708     -1.335876      0.087102
  C      -2.311987     -1.400165      0.192018
  O      -0.768080      1.180351      0.033285
  C      -0.156989      2.475340      0.379198
  H       3.361015     -0.515168      0.338102
  H       2.550120     -0.960515     -1.206002
  H       2.328971     -1.986761      0.262065
  H      -2.561543     -2.458685      0.174484
  H      -2.772652     -0.846226     -0.630256
  H      -2.577696     -0.938776      1.150275
  H       0.172302      2.417087      1.417502
  H      -0.953332      3.204367      0.247710
  H       0.680244      2.672893     -0.292422
17
Coordinates from ORCA-job TMP_cation_cpcm_14_default E -761.701590272351
  C       2.483185     -0.956116     -0.123311
  O       1.355491     -0.081599      0.251661
  P      -0.024651     -0.090513     -0.458792
  O       0.014154     -0.369572     -1.963994
  O      -0.851619     -1.332690      0.076352
  C      -2.300853     -1.389239      0.199222
  O      -0.781755      1.199962     -0.055852
  C      -0.154729      2.449372      0.404552
  H       3.363931     -0.464487      0.285029
  H       2.539672     -1.026072     -1.210181
  H       2.324558     -1.930809      0.339832
  H      -2.560364     -2.445802      0.190431
  H      -2.774512     -0.840157     -0.619119
  H      -2.553214     -0.925489      1.160427
  H       0.066182      2.342273      1.467508
  H      -0.899062      3.222608      0.226692
  H       0.753585      2.638329     -0.170458
17
Coordinates from ORCA-job TMP_cation_cpcm_14_default E -761.701945290337
  C       2.478166     -0.948846     -0.129647
  O       1.371709     -0.016306      0.163596
  P      -0.024714     -0.076604     -0.507723
  O      -0.030224     -0.441968     -1.995480
  O      -0.831674     -1.318411      0.073719
  C      -2.279890     -1.376335      0.203872
  O      -0.780990      1.230029     -0.149219
  C      -0.162422      2.431464      0.436621
  H       3.374205     -0.434924      0.212398
  H       2.519109     -1.136911     -1.203332
  H       2.306716     -1.864174      0.438088
  H      -2.539270     -2.433086      0.213239
  H      -2.762124     -0.842863     -0.620106
  H      -2.530334     -0.899905      1.159814
  H      -0.048142      2.267624      1.509316
  H      -0.862114      3.239238      0.231772
  H       0.801995      2.621977     -0.036927
17
Coordinates from ORCA-job TMP_cation_cpcm_14_default E -761.702174491765
  C       2.471968     -0.951698     -0.132369
  O       1.390418      0.028949      0.090523
  P      -0.018317     -0.063046     -0.551324
  O      -0.064399     -0.486264     -2.023308
  O      -0.808159     -1.300326      0.075985
  C      -2.256706     -1.362521      0.209094
  O      -0.769038      1.257409     -0.223831
  C      -0.176221      2.420653      0.460618
  H       3.383196     -0.433298      0.158431
  H       2.497779     -1.233171     -1.186268
  H       2.282808     -1.811987      0.511089
  H      -2.511425     -2.420219      0.232237
  H      -2.742975     -0.841114     -0.620298
  H      -2.508475     -0.874910      1.159165
  H      -0.132621      2.204544      1.529394
  H      -0.855309      3.244835      0.251800
  H       0.817475      2.622166      0.059061
17
Coordinates from ORCA-job TMP_cation_cpcm_14_default E -761.702496602529
  C       2.460008     -0.963484     -0.131733
  O       1.415755      0.071733      0.008256
  P      -0.004900     -0.044878     -0.606914
  O      -0.098685     -0.519070     -2.060397
  O      -0.772594     -1.272937      0.080454
  C      -2.221662     -1.342327      0.219835
  O      -0.743641      1.293036     -0.314645
  C      -0.200409      2.409664      0.482869
  H       3.390626     -0.455825      0.111800
  H       2.469037     -1.339958     -1.156253
  H       2.241726     -1.759345      0.582091
  H      -2.468341     -2.401717      0.250197
  H      -2.713400     -0.826262     -0.609482
  H      -2.471866     -0.849161      1.167489
  H      -0.223666      2.123973      1.536099
  H      -0.872753      3.241545      0.283857
  H       0.814766      2.635013      0.156478
17
Coordinates from ORCA-job TMP_cation_cpcm_14_default E -761.702912632950
  C       2.445887     -0.992394     -0.130669
  O       1.458982      0.107285     -0.096745
  P       0.026778     -0.021076     -0.687368
  O      -0.126940     -0.546869     -2.116107
  O      -0.715242     -1.230146      0.076360
  C      -2.162644     -1.294502      0.246992
  O      -0.689378      1.339642     -0.448197
  C      -0.257898      2.384794      0.503631
  H       3.400886     -0.515050      0.075522
  H       2.438323     -1.465224     -1.114622
  H       2.179722     -1.708667      0.648469
  H      -2.411652     -2.353588      0.267100
  H      -2.669571     -0.758056     -0.559352
  H      -2.384126     -0.813332      1.208189
  H      -0.378336      2.000102      1.518082
  H      -0.932981      3.215463      0.310679
  H       0.778191      2.651620      0.298037
17
Coordinates from ORCA-job TMP_cation_cpcm_14_default E -761.703186718878
  C       2.438980     -1.015061     -0.129913
  O       1.479627      0.109858     -0.125027
  P       0.048906     -0.011055     -0.724446
  O      -0.116489     -0.544719     -2.146301
  O      -0.685371     -1.205646      0.073550
  C      -2.129198     -1.259812      0.270954
  O      -0.654421      1.359140     -0.520466
  C      -0.299579      2.367338      0.501293
  H       3.401236     -0.559157      0.090395
  H       2.438046     -1.495950     -1.110000
  H       2.141489     -1.718745      0.649189
  H      -2.389126     -2.316622      0.270412
  H      -2.646694     -0.693155     -0.507235
  H      -2.320603     -0.801665      1.250325
  H      -0.456758      1.931026      1.489320
  H      -0.988148      3.187743      0.313030
  H       0.738106      2.666482      0.354920
17
Coordinates from ORCA-job TMP_cation_cpcm_14_default E -761.703382446007
  C       2.441356     -1.019613     -0.129100
  O       1.468864      0.093206     -0.088058
  P       0.051113     -0.017656     -0.720259
  O      -0.077647     -0.535076     -2.149188
  O      -0.693032     -1.203434      0.074308
  C      -2.132726     -1.248986      0.283942
  O      -0.655083      1.349855     -0.536595
  C      -0.307720      2.360931      0.483592
  H       3.392894     -0.564935      0.136747
  H       2.469675     -1.442423     -1.134990
  H       2.138350     -1.767461      0.605112
  H      -2.406074     -2.302544      0.262708
  H      -2.654267     -0.656310     -0.471817
  H      -2.305365     -0.815874      1.278818
  H      -0.445055      1.920482      1.472633
  H      -1.009142      3.173092      0.307213
  H       0.723860      2.676747      0.324936
17
Coordinates from ORCA-job TMP_cation_cpcm_14_default E -761.703469953516
  C       2.451971     -1.028739     -0.134083
  O       1.486765      0.091329     -0.115911
  P       0.067637     -0.018471     -0.741331
  O      -0.063947     -0.561532     -2.158968
  O      -0.684310     -1.187341      0.068596
  C      -2.117948     -1.208539      0.301275
  O      -0.627079      1.357336     -0.591594
  C      -0.344210      2.331671      0.481930
  H       3.404414     -0.576971      0.134259
  H       2.487805     -1.458232     -1.136700
  H       2.139466     -1.765387      0.607204
  H      -2.418274     -2.254689      0.261937
  H      -2.643916     -0.586158     -0.426971
  H      -2.261556     -0.801514      1.312377
  H      -0.529763      1.858296      1.447824
  H      -1.038685      3.148675      0.299850
  H       0.691631      2.660265      0.390308
17
Coordinates from ORCA-job TMP_cation_cpcm_14_default E -761.703521465168
  C       2.455421     -1.020802     -0.132707
  O       1.477182      0.086901     -0.103719
  P       0.059703     -0.024898     -0.731875
  O      -0.054260     -0.565518     -2.151843
  O      -0.698696     -1.191244      0.069940
  C      -2.131214     -1.215729      0.298313
  O      -0.639749      1.349744     -0.581205
  C      -0.331044      2.333461      0.476148
  H       3.401752     -0.562066      0.145685
  H       2.500668     -1.434713     -1.141414
  H       2.148728     -1.770182      0.598396
  H      -2.433296     -2.261160      0.248746
  H      -2.656987     -0.586928     -0.424414
  H      -2.278942     -0.821840      1.314276
  H      -0.494220      1.871420      1.451721
  H      -1.027301      3.151379      0.304777
  H       0.702254      2.662176      0.359174
17
Coordinates from ORCA-job TMP_cation_cpcm_14_default E -761.703557451023
  C       2.455291     -1.020882     -0.129974
  O       1.479198      0.088488     -0.112543
  P       0.059404     -0.024925     -0.736094
  O      -0.052789     -0.567934     -2.155481
  O      -0.699919     -1.185793      0.070616
  C      -2.131375     -1.214615      0.299825
  O      -0.638669      1.352708     -0.587807
  C      -0.330169      2.332712      0.473571
  H       3.401257     -0.562616      0.150293
  H       2.504034     -1.442077     -1.135579
  H       2.143083     -1.764691      0.604717
  H      -2.434461     -2.258955      0.232314
  H      -2.658461     -0.572131     -0.409580
  H      -2.278540     -0.841618      1.323929
  H      -0.481550      1.864759      1.448324
  H      -1.035235      3.145270      0.312817
  H       0.698902      2.672301      0.350649
17
Coordinates from ORCA-job TMP_cation_cpcm_14_default E -761.703597060445
  C       2.452027     -1.022946     -0.122220
  O       1.483664      0.092715     -0.130406
  P       0.060230     -0.023252     -0.747013
  O      -0.051784     -0.568603     -2.166313
  O      -0.698787     -1.174507      0.070378
  C      -2.128654     -1.211979      0.304234
  O      -0.634293      1.359423     -0.602581
  C      -0.329823      2.332456      0.467420
  H       3.397772     -0.567429      0.162775
  H       2.507589     -1.460202     -1.120762
  H       2.126015     -1.754868      0.618646
  H      -2.433670     -2.252463      0.193093
  H      -2.658388     -0.536461     -0.371194
  H      -2.269880     -0.888406      1.345932
  H      -0.454002      1.850051      1.439012
  H      -1.056938      3.129518      0.328309
  H       0.688921      2.696953      0.330688
17
Coordinates from ORCA-job TMP_cation_cpcm_14_default E -761.703609553622
  C       2.449590     -1.023457     -0.117740
  O       1.484652      0.094916     -0.136300
  P       0.060400     -0.022563     -0.751017
  O      -0.052796     -0.568854     -2.170383
  O      -0.697651     -1.170963      0.070053
  C      -2.127339     -1.211104      0.306216
  O      -0.632820      1.361113     -0.607983
  C      -0.329229      2.332859      0.463685
  H       3.394998     -0.569033      0.169959
  H       2.508480     -1.466152     -1.113756
  H       2.117953     -1.751665      0.624298
  H      -2.434403     -2.248293      0.170494
  H      -2.657015     -0.517504     -0.350349
  H      -2.263726     -0.914444      1.356333
  H      -0.438979      1.845208      1.434355
  H      -1.066554      3.122079      0.334009
  H       0.684439      2.707856      0.318124
17
Coordinates from ORCA-job TMP_cation_cpcm_14_default E -761.703625335111
  C       2.446171     -1.023305     -0.110717
  O       1.485018      0.097901     -0.142148
  P       0.060143     -0.022420     -0.754489
  O      -0.055718     -0.572023     -2.173185
  O      -0.696278     -1.167802      0.070532
  C      -2.126360     -1.209990      0.309013
  O      -0.631620      1.361569     -0.614433
  C      -0.327756      2.333970      0.456688
  H       3.390472     -0.569844      0.181918
  H       2.510941     -1.470602     -1.104324
  H       2.107647     -1.748559      0.630965
  H      -2.439081     -2.239224      0.129612
  H      -2.653600     -0.485331     -0.314594
  H      -2.254339     -0.960768      1.372016
  H      -0.414452      1.841390      1.427102
  H      -1.079286      3.111736      0.340402
  H       0.678096      2.723303      0.295642
17
Coordinates from ORCA-job TMP_cation_cpcm_14_default E -761.703634915816
  C       2.444206     -1.022136     -0.107116
  O       1.483483      0.099278     -0.140579
  P       0.058432     -0.022996     -0.751814
  O      -0.059926     -0.575431     -2.169550
  O      -0.696360     -1.168104      0.074567
  C      -2.127833     -1.212756      0.309109
  O      -0.633297      1.360310     -0.613230
  C      -0.323899      2.337691      0.451664
  H       3.387538     -0.569090      0.189288
  H       2.512566     -1.467495     -1.101357
  H       2.103645     -1.749205      0.631764
  H      -2.442776     -2.236193      0.101355
  H      -2.651718     -0.470486     -0.295973
  H      -2.254715     -0.993402      1.378453
  H      -0.394489      1.847274      1.424416
  H      -1.082170      3.109873      0.342452
  H       0.677314      2.732867      0.276552
17
Coordinates from ORCA-job TMP_cation_cpcm_14_default E -761.703643938270
  C       2.443235     -1.021021     -0.104803
  O       1.481864      0.099851     -0.135994
  P       0.056307     -0.024086     -0.745276
  O      -0.065963     -0.582161     -2.160571
  O      -0.696916     -1.168508      0.083579
  C      -2.130506     -1.217050      0.308760
  O      -0.635122      1.358858     -0.610313
  C      -0.319132      2.343749      0.445506
  H       3.385415     -0.568831      0.196654
  H       2.515706     -1.460336     -1.101404
  H       2.101534     -1.752397      0.629198
  H      -2.447082     -2.232939      0.067656
  H      -2.649594     -0.455935     -0.276308
  H      -2.260290     -1.032848      1.384054
  H      -0.374477      1.858686      1.421877
  H      -1.082630      3.111465      0.341503
  H       0.677652      2.743502      0.255883
17
Coordinates from ORCA-job TMP_cation_cpcm_14_default E -761.703648199840
  C       2.443334     -1.020738     -0.105006
  O       1.481050      0.099547     -0.131703
  P       0.054980     -0.024610     -0.739639
  O      -0.069923     -0.586401     -2.153059
  O      -0.697554     -1.168275      0.091655
  C      -2.132397     -1.220891      0.308186
  O      -0.636212      1.358594     -0.607223
  C      -0.315960      2.348734      0.442255
  H       3.385014     -0.569435      0.199433
  H       2.517481     -1.454668     -1.103801
  H       2.101680     -1.755591      0.625534
  H      -2.447906     -2.233178      0.050331
  H      -2.649076     -0.451881     -0.268471
  H      -2.267525     -1.054272      1.385590
  H      -0.366578      1.868590      1.421299
  H      -1.080028      3.115900      0.338204
  H       0.679618      2.748577      0.246414
17
Coordinates from ORCA-job TMP_cation_cpcm_14_default E -761.703650755042
  C       2.443934     -1.021056     -0.106090
  O       1.481208      0.099140     -0.129613
  P       0.054666     -0.024661     -0.736341
  O      -0.072297     -0.589362     -2.148194
  O      -0.697797     -1.167053      0.097775
  C      -2.133002     -1.223038      0.308280
  O      -0.636155      1.359179     -0.606104
  C      -0.314826      2.351873      0.440539
  H       3.385498     -0.570429      0.199769
  H       2.518472     -1.451856     -1.106166
  H       2.102329     -1.757536      0.622848
  H      -2.447322     -2.233320      0.040670
  H      -2.648798     -0.449759     -0.263388
  H      -2.272590     -1.067131      1.386739
  H      -0.368027      1.874884      1.420988
  H      -1.076982      3.120527      0.333225
  H       0.681688      2.749601      0.245064
17
Coordinates from ORCA-job TMP_cation_cpcm_14_default E -761.703652469227
  C       2.444412     -1.021448     -0.106845
  O       1.481689      0.099054     -0.129545
  P       0.054911     -0.024433     -0.735477
  O      -0.073417     -0.591143     -2.146245
  O      -0.697707     -1.165426      0.101299
  C      -2.132596     -1.223773      0.309123
  O      -0.635695      1.359915     -0.606724
  C      -0.314969      2.353338      0.439368
  H       3.385949     -0.571072      0.199475
  H       2.518878     -1.451430     -1.107241
  H       2.102534     -1.757982      0.621911
  H      -2.446674     -2.232120      0.033450
  H      -2.648440     -0.446228     -0.256664
  H      -2.274150     -1.077450      1.388719
  H      -0.374077      1.878040      1.420297
  H      -1.074162      3.124320      0.327653
  H       0.683514      2.747837      0.247445
17
Coordinates from ORCA-job TMP_cation_cpcm_14_default E -761.703654037370
  C       2.444649     -1.021635     -0.107048
  O       1.482143      0.099328     -0.130894
  P       0.055436     -0.024097     -0.736577
  O      -0.073553     -0.591996     -2.146693
  O      -0.697354     -1.163878      0.102427
  C      -2.131423     -1.223542      0.310674
  O      -0.635279      1.360446     -0.608565
  C      -0.315968      2.353518      0.438305
  H       3.386176     -0.571017      0.198896
  H       2.518738     -1.452663     -1.106987
  H       2.102379     -1.757052      0.622627
  H      -2.446630     -2.229319      0.026412
  H      -2.647845     -0.440429     -0.246834
  H      -2.272293     -1.087997      1.391826
  H      -0.383680      1.879241      1.419164
  H      -1.070953      3.127818      0.321061
  H       0.685456      2.743274      0.252206
17
Coordinates from ORCA-job TMP_cation_cpcm_14_default E -761.703655118412
  C       2.444485     -1.021339     -0.106637
  O       1.482255      0.100000     -0.132547
  P       0.055770     -0.023804     -0.738347
  O      -0.073743     -0.592518     -2.147990
  O      -0.696823     -1.162986      0.102215
  C      -2.130126     -1.223194      0.312314
  O      -0.635281      1.360545     -0.610402
  C      -0.316927      2.353255      0.437151
  H       3.386086     -0.570203      0.198255
  H       2.517991     -1.454424     -1.105726
  H       2.102036     -1.755241      0.624453
  H      -2.447278     -2.225720      0.018394
  H      -2.646928     -0.433512     -0.235411
  H      -2.268642     -1.099630      1.395203
  H      -0.393158      1.880097      1.417917
  H      -1.067332      3.131138      0.314464
  H       0.687614      2.737537      0.256694
17
Coordinates from ORCA-job TMP_cation_cpcm_14_default E -761.703655638773
  C       2.444268     -1.020847     -0.106029
  O       1.482107      0.100474     -0.133538
  P       0.055817     -0.023792     -0.739690
  O      -0.073552     -0.592822     -2.149150
  O      -0.696537     -1.162936      0.101171
  C      -2.129500     -1.222772      0.313375
  O      -0.635449      1.360290     -0.611667
  C      -0.317513      2.352741      0.436328
  H       3.385928     -0.569234      0.197939
  H       2.517489     -1.455551     -1.104448
  H       2.101932     -1.753797      0.626054
  H      -2.448540     -2.222863      0.013012
  H      -2.646266     -0.428480     -0.227614
  H      -2.265410     -1.107115      1.397453
  H      -0.398208      1.880186      1.417026
  H      -1.065325      3.132656      0.310864
  H       0.688760      2.733862      0.258913
17
Coordinates from ORCA-job TMP_cation_cpcm_14_default E -761.703655895262
  C       2.444175     -1.020421     -0.105660
  O       1.481965      0.100684     -0.133912
  P       0.055748     -0.023897     -0.740393
  O      -0.073249     -0.593127     -2.149727
  O      -0.696425     -1.163161      0.100333
  C      -2.129338     -1.222502      0.314002
  O      -0.635530      1.360065     -0.612415
  C      -0.317858      2.352398      0.435832
  H       3.385968     -0.568501      0.197438
  H       2.517099     -1.456213     -1.103649
  H       2.102213     -1.752850      0.627132
  H      -2.449690     -2.221026      0.009763
  H      -2.645863     -0.425440     -0.223070
  H      -2.263387     -1.111488      1.398765
  H      -0.401126      1.880267      1.416523
  H      -1.064126      3.133517      0.308773
  H       0.689422      2.731693      0.260265
