10
 energy: -20.117657496730 gnorm: 0.000782158147 xtb: 6.7.1pre (5071a88)
C           -0.20805556166013       -0.94334714425430       -0.10996097533006
C           -0.87229450911646        0.42404614289804       -0.06887991082987
O            0.17106011642959        1.31086627783059        0.05333252777923
C            1.36528791067941        0.65704865565216        0.20562583593408
O            2.39058123831356        1.14650942449722        0.48086277281907
O            1.13672755433808       -0.67686336246916       -0.00851676005209
H           -0.38313676938514       -1.53185160814457       -1.03721454549047
H           -0.53756347134772       -1.63255254368870        0.69653780638490
H           -1.46235138411407        0.69461613878084       -0.97203217881110
H           -1.60025512413714        0.55152801889788        0.76024543759632
