15
SL conformer 0/2 rel=+0.00 kJ/mol from g1_reference; GFN2-xTB opt; T6 conformer ensemble
O   2.05671678  1.05739519  1.02996940
S   1.19826001  0.83969000 -0.10191546
O   1.56085390  1.47764508 -1.33765243
C   0.94692648 -0.95432060 -0.37401475
C  -0.41033543 -1.19774133  0.24842371
C  -1.28598074  0.00903373 -0.10414548
C  -0.53313684  1.24428760  0.33881876
H   0.95421522 -1.11466063 -1.44766499
H   1.75795767 -1.49257412  0.10239357
H  -0.86029100 -2.12297512 -0.11348897
H  -0.30799714 -1.26549015  1.33313828
H  -1.43823882  0.04180072 -1.18461415
H  -2.26102814 -0.06431523  0.37897029
H  -0.81913693  2.15045918 -0.18224778
H  -0.55878500  1.39176565  1.41403002
