15
SL conformer 1/2 rel=+0.00 kJ/mol from 1; GFN2-xTB opt; T6 conformer ensemble
O   1.69811448 -0.70511944  1.74017947
S   1.33688895 -0.47831653  0.36774241
O   2.33797944 -0.73892748 -0.62995830
C  -0.20749312 -1.37961181 -0.03004109
C  -1.06693885 -0.30472114 -0.65837719
C  -0.82562772  0.98184979  0.13778236
C   0.66915519  1.21443681  0.15703241
H   0.03376393 -2.20127474 -0.69420857
H  -0.60948464 -1.74658867  0.90922337
H  -2.12342271 -0.57534095 -0.64812218
H  -0.76046513 -0.15128495 -1.69481337
H  -1.18779663  0.84834039  1.15889826
H  -1.35900859  1.82129668 -0.30980247
H   1.05066520  1.58874217 -0.78786575
H   1.01367019  1.82651983  0.98233065
