17
 energy: -29.400141646104 gnorm: 0.000641477992 xtb: 6.7.1pre (5071a88)
C            2.26171196485285       -1.05624630920033       -0.21229619545639
O            1.28460765453725       -0.15617496305930        0.21800357882225
P           -0.08211074332871        0.06369035091639       -0.61891015081502
O           -0.17284704924360       -0.61982721141395       -1.88836814602788
O           -1.17361763670874       -0.38107223752394        0.49631435453065
C           -2.09270298053913       -1.39692606423997        0.24217056514029
O           -0.23315291557342        1.63817448371141       -0.63530815236157
C           -0.10969075089381        2.50017519220141        0.46666845557850
H            3.23544606023895       -0.55269523034377       -0.13779142001571
H            2.06967346173499       -1.40384143303177       -1.23026407499324
H            2.30969571586790       -1.90945140351601        0.48002619574737
H           -1.88013673895077       -2.25772990963544        0.89439137209982
H           -2.07461305366885       -1.70479143152806       -0.80643713320669
H           -3.08697712885018       -1.03666123509851        0.54215922528946
H            0.17469944774890        1.97804713013592        1.38010634262935
H           -1.06343924443135        3.02836843537991        0.59969612601741
H            0.63345392720706        3.26696184624540        0.20983904702113
