12
 energy: -21.792722098591 gnorm: 0.000391247606 xtb: 6.7.1pre (5071a88)
C           -2.32411870563524       -0.13660017685490        0.13301095169020
O           -1.12401529168700       -0.78949756076371        0.34864407641390
C           -0.00107649079390        0.02450375383080       -0.07106546751994
O           -0.05512260216929        1.20184608162661       -0.58229607072217
O            1.19461316020025       -0.74905869155665        0.19665305552725
C            2.33291132139659       -0.05538534722305       -0.17228518248022
H           -3.12432361982750       -0.80419008151434        0.47042305500944
H           -2.47147844134358        0.10519965257238       -0.93126672679672
H           -2.37797078136688        0.81223399639499        0.68950653479766
H            2.42594390892761        0.89602747654797        0.37455258218940
H            2.33163663262572        0.18892953159407       -1.24614660196690
H            3.19300091967320       -0.69400864465418        0.05631333385812
