12
 energy: -21.147147423303 gnorm: 0.000925285797 xtb: 6.7.1pre (5071a88)
C           -2.32575989982567       -0.16156885875591        0.14410810293821
O           -1.05236643925920       -0.67565037054589        0.29464480943807
C           -0.00372390837309        0.08069377267636       -0.09620747587715
O           -0.05353000015723        1.16661913212327       -0.56724027554943
O            1.11257393615367       -0.63790494307019        0.15272243044863
C            2.33686635843549       -0.08020408170506       -0.16157665824495
H           -3.02983242565839       -0.91009272609056        0.51139351674830
H           -2.53415368539314        0.11781175003109       -0.90842030854144
H           -2.44275942325760        0.80679887084849        0.67124985302677
H            2.48797380841502        0.89279649008798        0.34804277379750
H            2.39631711464124        0.20369760448985       -1.23168737033776
H            3.10839457427890       -0.80299665008946        0.10901414215324
