10
Coordinates from ORCA-job EC_cation_cpcm_10_default E -342.055085518936
  C      -0.228298     -0.965635     -0.108228
  C      -0.902100      0.421840     -0.067018
  O       0.176233      1.313822      0.133428
  C       1.340608      0.644793      0.207428
  O       2.397095      1.153182      0.371781
  O       1.144204     -0.678482      0.071371
  H      -0.359577     -1.472810     -1.067700
  H      -0.560210     -1.622113      0.700299
  H      -1.402428      0.678085     -1.004464
  H      -1.605527      0.527318      0.763103
10
Coordinates from ORCA-job EC_cation_cpcm_10_default E -342.060016593980
  C      -0.230690     -0.951792     -0.107713
  C      -0.892725      0.411513     -0.066510
  O       0.168614      1.314137      0.133535
  C       1.364480      0.656169      0.212452
  O       2.421460      1.164839      0.374773
  O       1.139986     -0.684589      0.069114
  H      -0.368860     -1.482629     -1.073335
  H      -0.568241     -1.631350      0.703349
  H      -1.413771      0.678065     -1.010530
  H      -1.620254      0.525638      0.764865
10
Coordinates from ORCA-job EC_cation_cpcm_10_default E -342.061893497304
  C      -0.229135     -0.936196     -0.106815
  C      -0.879494      0.403194     -0.065220
  O       0.159086      1.314848      0.134736
  C       1.381962      0.664599      0.212990
  O       2.432696      1.170098      0.378018
  O       1.135150     -0.692314      0.065899
  H      -0.375979     -1.494498     -1.063563
  H      -0.569605     -1.638888      0.693196
  H      -1.423584      0.680691     -1.001596
  H      -1.631096      0.528467      0.752354
10
Coordinates from ORCA-job EC_cation_cpcm_10_default E -342.062127641250
  C      -0.225440     -0.933313     -0.106570
  C      -0.874993      0.404233     -0.064423
  O       0.157570      1.317180      0.135878
  C       1.385060      0.665908      0.218240
  O       2.434055      1.170880      0.374987
  O       1.136442     -0.694818      0.064672
  H      -0.378025     -1.502637     -1.055423
  H      -0.568370     -1.645070      0.684000
  H      -1.429585      0.683958     -0.993725
  H      -1.636715      0.533680      0.742363
10
Coordinates from ORCA-job EC_cation_cpcm_10_default E -342.062186937468
  C      -0.221669     -0.932017     -0.106368
  C      -0.871748      0.406196     -0.063659
  O       0.158450      1.318983      0.137184
  C       1.387395      0.667333      0.209973
  O       2.433704      1.170567      0.381126
  O       1.138796     -0.695179      0.064318
  H      -0.380231     -1.509769     -1.047850
  H      -0.568519     -1.648986      0.676691
  H      -1.435678      0.685901     -0.986236
  H      -1.640500      0.536972      0.734821
10
Coordinates from ORCA-job EC_cation_cpcm_10_default E -342.062219941297
  C      -0.220307     -0.931814     -0.106433
  C      -0.870796      0.407026     -0.063530
  O       0.160041      1.319161      0.137356
  C       1.386022      0.666428      0.216728
  O       2.434185      1.171022      0.376333
  O       1.139963     -0.694019      0.064523
  H      -0.381104     -1.510360     -1.046700
  H      -0.569553     -1.649899      0.674081
  H      -1.436953      0.684945     -0.984964
  H      -1.641497      0.537510      0.732608
10
Coordinates from ORCA-job EC_cation_cpcm_10_default E -342.062226818824
  C      -0.220253     -0.931532     -0.106456
  C      -0.870569      0.406856     -0.063571
  O       0.160748      1.318652      0.137247
  C       1.385467      0.666194      0.215848
  O       2.434056      1.170962      0.376793
  O       1.139933     -0.693179      0.064974
  H      -0.381141     -1.509566     -1.047458
  H      -0.570440     -1.649148      0.674599
  H      -1.436875      0.684026     -0.985549
  H      -1.640926      0.536736      0.733573
10
Coordinates from ORCA-job EC_cation_cpcm_10_default E -342.062227998237
  C      -0.219906     -0.931176     -0.106452
  C      -0.870112      0.406874     -0.063560
  O       0.161168      1.318463      0.137341
  C       1.385233      0.666094      0.215351
  O       2.434022      1.170949      0.376860
  O       1.139994     -0.692755      0.065437
  H      -0.381101     -1.509629     -1.047443
  H      -0.571078     -1.649127      0.674244
  H      -1.437318      0.683697     -0.985374
  H      -1.640902      0.536609      0.733596
10
Coordinates from ORCA-job EC_cation_cpcm_10_default E -342.062228033411
  C      -0.219872     -0.931136     -0.106445
  C      -0.870058      0.406883     -0.063579
  O       0.161165      1.318455      0.137417
  C       1.385220      0.666096      0.215347
  O       2.434047      1.170974      0.376656
  O       1.139961     -0.692769      0.065684
  H      -0.380946     -1.509671     -1.047458
  H      -0.571222     -1.649214      0.674110
  H      -1.437401      0.683752     -0.985318
  H      -1.640895      0.536631      0.733586
