10
Coordinates from ORCA-job EC_cation_cpcm_14_default E -342.065714392702
  C          -0.21968998776693     -0.93069964831168     -0.10643051263009
  C          -0.86960758352401      0.40675022179214     -0.06350888318121
  O           0.16171603810727      1.31836810844952      0.13777291680972
  C           1.38457636645093      0.66577949344477      0.21527197301985
  O           2.43398596331262      1.17095686359777      0.37636425243648
  O           1.14026853047912     -0.69229338979021      0.06588035199926
  H          -0.38122518686864     -1.50964311006736     -1.04724638848311
  H          -0.57149927572800     -1.64908381871956      0.67383486792181
  H          -1.43742574706860      0.68350346023311     -0.98514976991049
  H          -1.64109911739379      0.53636181937149      0.73321120201780
