10
Coordinates from ORCA-job EC_cation_cpcm_20_default E -342.061323201716
  C      -0.228298     -0.965635     -0.108228
  C      -0.902100      0.421840     -0.067018
  O       0.176233      1.313822      0.133428
  C       1.340608      0.644793      0.207428
  O       2.397095      1.153182      0.371781
  O       1.144204     -0.678482      0.071371
  H      -0.359577     -1.472810     -1.067700
  H      -0.560210     -1.622113      0.700299
  H      -1.402428      0.678085     -1.004464
  H      -1.605527      0.527318      0.763103
10
Coordinates from ORCA-job EC_cation_cpcm_20_default E -342.066158416745
  C      -0.230633     -0.951340     -0.107692
  C      -0.892340      0.411285     -0.066484
  O       0.168959      1.313976      0.133663
  C       1.363902      0.655886      0.212461
  O       2.421485      1.164850      0.374591
  O       1.140076     -0.684226      0.069238
  H      -0.369126     -1.482208     -1.073420
  H      -0.568570     -1.630927      0.703403
  H      -1.413586      0.677590     -1.010646
  H      -1.620167      0.525115      0.764885
10
Coordinates from ORCA-job EC_cation_cpcm_20_default E -342.067991748068
  C      -0.228964     -0.935444     -0.106786
  C      -0.878810      0.402873     -0.065168
  O       0.159869      1.314683      0.135137
  C       1.380828      0.664050      0.212759
  O       2.432671      1.170089      0.377719
  O       1.135523     -0.691618      0.066229
  H      -0.376475     -1.493910     -1.063632
  H      -0.570221     -1.638235      0.693202
  H      -1.423351      0.679937     -1.001734
  H      -1.631070      0.527577      0.752275
10
Coordinates from ORCA-job EC_cation_cpcm_20_default E -342.068235659287
  C      -0.225177     -0.932463     -0.106537
  C      -0.874176      0.403924     -0.064340
  O       0.158443      1.317041      0.136406
  C       1.383901      0.665335      0.218331
  O       2.434025      1.170883      0.374371
  O       1.136908     -0.694067      0.065030
  H      -0.378550     -1.502322     -1.055299
  H      -0.568944     -1.644664      0.683747
  H      -1.429501      0.683361     -0.993683
  H      -1.636929      0.532972      0.741974
10
Coordinates from ORCA-job EC_cation_cpcm_20_default E -342.068296813081
  C      -0.221278     -0.931158     -0.106330
  C      -0.870846      0.405975     -0.063533
  O       0.159387      1.318893      0.137788
  C       1.386369      0.666844      0.209500
  O       2.433569      1.170508      0.380916
  O       1.139363     -0.694404      0.064628
  H      -0.380786     -1.509915     -1.047327
  H      -0.568963     -1.648860      0.676108
  H      -1.435887      0.685559     -0.985803
  H      -1.640928      0.536558      0.734052
10
Coordinates from ORCA-job EC_cation_cpcm_20_default E -342.068332867211
  C      -0.220044     -0.931064     -0.106406
  C      -0.870053      0.406772     -0.063425
  O       0.160978      1.318996      0.137929
  C       1.384917      0.665891      0.216492
  O       2.434039      1.170967      0.375927
  O       1.140462     -0.693200      0.064860
  H      -0.381556     -1.510293     -1.046388
  H      -0.569978     -1.649666      0.673693
  H      -1.436965      0.684564     -0.984730
  H      -1.641801      0.537034      0.732049
10
Coordinates from ORCA-job EC_cation_cpcm_20_default E -342.068339804324
  C      -0.219968     -0.930777     -0.106430
  C      -0.869809      0.406610     -0.063462
  O       0.161703      1.318492      0.137808
  C       1.384344      0.665643      0.215728
  O       2.433936      1.170923      0.376333
  O       1.140450     -0.692348      0.065288
  H      -0.381624     -1.509495     -1.047120
  H      -0.570887     -1.648910      0.674169
  H      -1.436906      0.683600     -0.985287
  H      -1.641239      0.536262      0.732974
10
Coordinates from ORCA-job EC_cation_cpcm_20_default E -342.068341093667
  C      -0.219585     -0.930404     -0.106428
  C      -0.869317      0.406641     -0.063441
  O       0.162155      1.318314      0.137881
  C       1.384100      0.665538      0.215217
  O       2.433907      1.170912      0.376460
  O       1.140545     -0.691902      0.065710
  H      -0.381629     -1.509596     -1.047059
  H      -0.571541     -1.648893      0.673770
  H      -1.437403      0.683239     -0.985064
  H      -1.641233      0.536151      0.732953
10
Coordinates from ORCA-job EC_cation_cpcm_20_default E -342.068341122267
  C      -0.219549     -0.930365     -0.106423
  C      -0.869262      0.406650     -0.063458
  O       0.162153      1.318315      0.137936
  C       1.384091      0.665540      0.215210
  O       2.433931      1.170934      0.376299
  O       1.140521     -0.691919      0.065918
  H      -0.381491     -1.509646     -1.047067
  H      -0.571672     -1.648975      0.673646
  H      -1.437496      0.683286     -0.985005
  H      -1.641225      0.536180      0.732945
