10
Coordinates from ORCA-job EC_cation_cpcm_5_default E -342.042743011875
  C      -0.228298     -0.965635     -0.108228
  C      -0.902100      0.421840     -0.067018
  O       0.176233      1.313822      0.133428
  C       1.340608      0.644793      0.207428
  O       2.397095      1.153182      0.371781
  O       1.144204     -0.678482      0.071371
  H      -0.359577     -1.472810     -1.067700
  H      -0.560210     -1.622113      0.700299
  H      -1.402428      0.678085     -1.004464
  H      -1.605527      0.527318      0.763103
10
Coordinates from ORCA-job EC_cation_cpcm_5_default E -342.047884041366
  C      -0.230795     -0.952657     -0.107775
  C      -0.893462      0.411953     -0.066582
  O       0.167908      1.314400      0.133928
  C       1.365576      0.656692      0.212774
  O       2.421586      1.164939      0.374043
  O       1.139769     -0.685325      0.069527
  H      -0.368129     -1.483348     -1.073263
  H      -0.567864     -1.632272      0.703077
  H      -1.413929      0.679096     -1.010396
  H      -1.620660      0.526522      0.764667
10
Coordinates from ORCA-job EC_cation_cpcm_5_default E -342.049852942170
  C      -0.229444     -0.937652     -0.106952
  C      -0.880807      0.403829     -0.065402
  O       0.157275      1.314886      0.137287
  C       1.384072      0.665603      0.214060
  O       2.433354      1.170591      0.373734
  O       1.134115     -0.693916      0.068709
  H      -0.373763     -1.495172     -1.063880
  H      -0.569658     -1.640597      0.692394
  H      -1.422965      0.682849     -1.001726
  H      -1.632179      0.529578      0.751778
10
Coordinates from ORCA-job EC_cation_cpcm_5_default E -342.050071517474
  C      -0.225930     -0.934928     -0.106626
  C      -0.876535      0.404819     -0.064578
  O       0.155480      1.317073      0.139289
  C       1.387300      0.667031      0.217852
  O       2.434831      1.171441      0.370335
  O       1.135112     -0.696620      0.068591
  H      -0.375264     -1.502664     -1.056191
  H      -0.569006     -1.646384      0.683440
  H      -1.428312      0.686118     -0.994248
  H      -1.637676      0.534113      0.742136
10
Coordinates from ORCA-job EC_cation_cpcm_5_default E -342.050131351530
  C      -0.222465     -0.933688     -0.106312
  C      -0.873502      0.406592     -0.063789
  O       0.156224      1.318656      0.141338
  C       1.389126      0.668135      0.211846
  O       2.434941      1.171457      0.373471
  O       1.137178     -0.697016      0.069274
  H      -0.376926     -1.508515     -1.049702
  H      -0.569891     -1.649902      0.676559
  H      -1.433256      0.687734     -0.987805
  H      -1.641430      0.536547      0.735122
10
Coordinates from ORCA-job EC_cation_cpcm_5_default E -342.050153554621
  C      -0.220607     -0.933138     -0.106254
  C      -0.871983      0.407581     -0.063492
  O       0.157763      1.319019      0.142354
  C       1.388028      0.667380      0.218234
  O       2.435542      1.171998      0.367901
  O       1.138507     -0.696053      0.070216
  H      -0.377759     -1.509696     -1.047819
  H      -0.571363     -1.651412      0.672842
  H      -1.434924      0.687093     -0.985794
  H      -1.643203      0.537229      0.731811
10
Coordinates from ORCA-job EC_cation_cpcm_5_default E -342.050162206079
  C      -0.220712     -0.932950     -0.106247
  C      -0.871933      0.407354     -0.063539
  O       0.158295      1.318446      0.142716
  C       1.387595      0.667232      0.216407
  O       2.435372      1.171911      0.368296
  O       1.138317     -0.695348      0.071244
  H      -0.377412     -1.508745     -1.048784
  H      -0.572311     -1.650691      0.673528
  H      -1.434531      0.686444     -0.986578
  H      -1.642680      0.536347      0.732957
10
Coordinates from ORCA-job EC_cation_cpcm_5_default E -342.050164093360
  C      -0.220506     -0.932657     -0.106195
  C      -0.871597      0.407311     -0.063522
  O       0.158581      1.318082      0.143764
  C       1.387282      0.667105      0.215912
  O       2.435435      1.172007      0.366872
  O       1.138156     -0.694995      0.072900
  H      -0.376784     -1.508376     -1.049166
  H      -0.573360     -1.650738      0.673137
  H      -1.434390      0.686328     -0.986736
  H      -1.642816      0.535934      0.733034
10
Coordinates from ORCA-job EC_cation_cpcm_5_default E -342.050165627717
  C      -0.220357     -0.932469     -0.106103
  C      -0.871377      0.407300     -0.063513
  O       0.158603      1.317757      0.145658
  C       1.387049      0.666999      0.215822
  O       2.435667      1.172225      0.363914
  O       1.137865     -0.694931      0.075521
  H      -0.375616     -1.507949     -1.049582
  H      -0.574605     -1.651099      0.672390
  H      -1.433948      0.686649     -0.986899
  H      -1.643280      0.535518      0.732791
