10
Coordinates from ORCA-job EC_cation_cpcm_5_default E -342.050165627717
  C          -0.22035736341845     -0.93246935053060     -0.10610316636233
  C          -0.87137727805273      0.40730023131703     -0.06351297609374
  O           0.15860311756121      1.31775689671009      0.14565842277431
  C           1.38704926242686      0.66699938925108      0.21582212605504
  O           2.43566661688939      1.17222543136028      0.36391443162314
  O           1.13786492871924     -0.69493106477781      0.07552120361591
  H          -0.37561572954582     -1.50794918965574     -1.04958208405918
  H          -0.57460532429353     -1.65109943612120      0.67239026457767
  H          -1.43394818795636      0.68664868628245     -0.98689904968500
  H          -1.64328004232983      0.53551840616440      0.73279083755420
