10
Coordinates from ORCA-job EC_cation_cpcm_7_default E -342.049774845663
  C      -0.228298     -0.965635     -0.108228
  C      -0.902100      0.421840     -0.067018
  O       0.176233      1.313822      0.133428
  C       1.340608      0.644793      0.207428
  O       2.397095      1.153182      0.371781
  O       1.144204     -0.678482      0.071371
  H      -0.359577     -1.472810     -1.067700
  H      -0.560210     -1.622113      0.700299
  H      -1.402428      0.678085     -1.004464
  H      -1.605527      0.527318      0.763103
10
Coordinates from ORCA-job EC_cation_cpcm_7_default E -342.054793151736
  C      -0.230738     -0.952170     -0.107729
  C      -0.893045      0.411703     -0.066530
  O       0.168341      1.314280      0.133364
  C       1.364976      0.656412      0.212411
  O       2.421438      1.164828      0.375040
  O       1.139928     -0.684882      0.068942
  H      -0.368675     -1.482997     -1.073256
  H      -0.567952     -1.631698      0.703321
  H      -1.413956      0.678444     -1.010426
  H      -1.620315      0.526080      0.764863
10
Coordinates from ORCA-job EC_cation_cpcm_7_default E -342.056708334875
  C      -0.229275     -0.936833     -0.106832
  C      -0.880070      0.403468     -0.065258
  O       0.158485      1.315022      0.134089
  C       1.382921      0.665060      0.213138
  O       2.432687      1.170075      0.378722
  O       1.134893     -0.692859      0.065307
  H      -0.375703     -1.495045     -1.063467
  H      -0.568989     -1.639408      0.693262
  H      -1.423905      0.681253     -1.001447
  H      -1.631045      0.529266      0.752486
10
Coordinates from ORCA-job EC_cation_cpcm_7_default E -342.056934813657
  C      -0.225654     -0.934011     -0.106596
  C      -0.875664      0.404487     -0.064491
  O       0.156909      1.317341      0.135017
  C       1.386035      0.666387      0.218162
  O       2.434049      1.170841      0.376084
  O       1.136121     -0.695394      0.063939
  H      -0.377787     -1.502972     -1.055466
  H      -0.567750     -1.645370      0.684296
  H      -1.429828      0.684346     -0.993708
  H      -1.636432      0.534346      0.742763
10
Coordinates from ORCA-job EC_cation_cpcm_7_default E -342.056993037919
  C      -0.221976     -0.932702     -0.106393
  C      -0.872458      0.406379     -0.063755
  O       0.157746      1.319127      0.136127
  C       1.388273      0.667753      0.210390
  O       2.433768      1.170567      0.382087
  O       1.138420     -0.695769      0.063410
  H      -0.380068     -1.509779     -1.048170
  H      -0.567946     -1.649049      0.677291
  H      -1.435725      0.686051     -0.986511
  H      -1.640033      0.537421      0.735523
10
Coordinates from ORCA-job EC_cation_cpcm_7_default E -342.057023348512
  C      -0.220514     -0.932414     -0.106460
  C      -0.871382      0.407237     -0.063617
  O       0.159345      1.319366      0.136249
  C       1.386957      0.666887      0.216914
  O       2.434240      1.171006      0.377591
  O       1.139644     -0.694635      0.063516
  H      -0.381060     -1.510542     -1.046855
  H      -0.568967     -1.650013      0.674565
  H      -1.437182      0.685095     -0.985087
  H      -1.641082      0.538012      0.733184
10
Coordinates from ORCA-job EC_cation_cpcm_7_default E -342.057030212173
  C      -0.220473     -0.932148     -0.106492
  C      -0.871187      0.407067     -0.063669
  O       0.160056      1.318863      0.136081
  C       1.386421      0.666662      0.215901
  O       2.434073      1.170913      0.378210
  O       1.139612     -0.693794      0.063940
  H      -0.381084     -1.509770     -1.047619
  H      -0.569801     -1.649261      0.675121
  H      -1.437138      0.684198     -0.985677
  H      -1.640479      0.537270      0.734204
10
Coordinates from ORCA-job EC_cation_cpcm_7_default E -342.057031276546
  C      -0.220164     -0.931811     -0.106501
  C      -0.870765      0.407074     -0.063676
  O       0.160454      1.318672      0.136083
  C       1.386195      0.666569      0.215412
  O       2.434016      1.170887      0.378382
  O       1.139651     -0.693381      0.064335
  H      -0.381053     -1.509823     -1.047635
  H      -0.570373     -1.649219      0.674832
  H      -1.437575      0.683871     -0.985529
  H      -1.640386      0.537161      0.734295
10
Coordinates from ORCA-job EC_cation_cpcm_7_default E -342.057031301955
  C      -0.220135     -0.931774     -0.106497
  C      -0.870718      0.407080     -0.063702
  O       0.160456      1.318665      0.136102
  C       1.386182      0.666570      0.215412
  O       2.434033      1.170904      0.378246
  O       1.139618     -0.693390      0.064537
  H      -0.380912     -1.509869     -1.047648
  H      -0.570492     -1.649298      0.674714
  H      -1.437679      0.683918     -0.985472
  H      -1.640353      0.537193      0.734308
