10
Coordinates from ORCA-job EC_cation_cpcm_14_default E -342.058644259179
  C      -0.228298     -0.965635     -0.108228
  C      -0.902100      0.421840     -0.067018
  O       0.176233      1.313822      0.133428
  C       1.340608      0.644793      0.207428
  O       2.397095      1.153182      0.371781
  O       1.144204     -0.678482      0.071371
  H      -0.359577     -1.472810     -1.067700
  H      -0.560210     -1.622113      0.700299
  H      -1.402428      0.678085     -1.004464
  H      -1.605527      0.527318      0.763103
10
Coordinates from ORCA-job EC_cation_cpcm_14_default E -342.063519727444
  C      -0.230657     -0.951535     -0.107701
  C      -0.892506      0.411383     -0.066495
  O       0.168808      1.314044      0.133613
  C       1.364150      0.656007      0.212460
  O       2.421473      1.164845      0.374660
  O       1.140035     -0.684384      0.069190
  H      -0.369007     -1.482388     -1.073384
  H      -0.568428     -1.631110      0.703379
  H      -1.413662      0.677797     -1.010597
  H      -1.620204      0.525341      0.764875
10
Coordinates from ORCA-job EC_cation_cpcm_14_default E -342.065371577557
  C      -0.229038     -0.935768     -0.106799
  C      -0.879105      0.403011     -0.065191
  O       0.159525      1.314751      0.134991
  C       1.381316      0.664286      0.212863
  O       2.432683      1.170095      0.377808
  O       1.135356     -0.691923      0.066114
  H      -0.376248     -1.494159     -1.063606
  H      -0.569963     -1.638520      0.693194
  H      -1.423440      0.680270     -1.001677
  H      -1.631087      0.527958      0.752304
10
Coordinates from ORCA-job EC_cation_cpcm_14_default E -342.065611182475
  C      -0.225291     -0.932832     -0.106551
  C      -0.874531      0.404058     -0.064376
  O       0.158059      1.317096      0.136213
  C       1.384400      0.665583      0.218291
  O       2.434038      1.170883      0.374588
  O       1.136699     -0.694397      0.064912
  H      -0.378304     -1.502451     -1.055358
  H      -0.568707     -1.644842      0.683850
  H      -1.429521      0.683629     -0.993706
  H      -1.636844      0.533273      0.742137
10
Coordinates from ORCA-job EC_cation_cpcm_14_default E -342.065671520424
  C      -0.221450     -0.931532     -0.106346
  C      -0.871240      0.406071     -0.063587
  O       0.158974      1.318926      0.137571
  C       1.386809      0.667054      0.209709
  O       2.433630      1.170537      0.380940
  O       1.139109     -0.694744      0.064541
  H      -0.380522     -1.509838     -1.047564
  H      -0.568786     -1.648915      0.676355
  H      -1.435772      0.685718     -0.986000
  H      -1.640751      0.536726      0.734381
10
Coordinates from ORCA-job EC_cation_cpcm_14_default E -342.065706203245
  C      -0.220158     -0.931390     -0.106417
  C      -0.870376      0.406882     -0.063469
  O       0.160565      1.319061      0.137731
  C       1.385393      0.666122      0.216598
  O       2.434105      1.170995      0.376030
  O       1.140238     -0.693560      0.064765
  H      -0.381335     -1.510312     -1.046530
  H      -0.569811     -1.649771      0.673850
  H      -1.436937      0.684743     -0.984838
  H      -1.641682      0.537230      0.732280
10
Coordinates from ORCA-job EC_cation_cpcm_14_default E -342.065713118660
  C      -0.220092     -0.931105     -0.106440
  C      -0.870139      0.406716     -0.063508
  O       0.161282      1.318555      0.137618
  C       1.384827      0.665880      0.215784
  O       2.433991      1.170945      0.376455
  O       1.140217     -0.692713      0.065206
  H      -0.381388     -1.509514     -1.047275
  H      -0.570712     -1.649017      0.674345
  H      -1.436867      0.683798     -0.985409
  H      -1.641118      0.536456      0.733224
10
Coordinates from ORCA-job EC_cation_cpcm_14_default E -342.065714359529
  C      -0.219725     -0.930739     -0.106436
  C      -0.869662      0.406741     -0.063490
  O       0.161719      1.318371      0.137706
  C       1.384588      0.665778      0.215278
  O       2.433961      1.170933      0.376549
  O       1.140296     -0.692277      0.065652
  H      -0.381372     -1.509597     -1.047235
  H      -0.571361     -1.648999      0.673964
  H      -1.437339      0.683453     -0.985207
  H      -1.641106      0.536337      0.733221
10
Coordinates from ORCA-job EC_cation_cpcm_14_default E -342.065714392702
  C      -0.219690     -0.930700     -0.106431
  C      -0.869608      0.406750     -0.063509
  O       0.161716      1.318368      0.137773
  C       1.384576      0.665779      0.215272
  O       2.433986      1.170957      0.376364
  O       1.140269     -0.692293      0.065880
  H      -0.381225     -1.509643     -1.047246
  H      -0.571499     -1.649084      0.673835
  H      -1.437426      0.683503     -0.985150
  H      -1.641099      0.536362      0.733211
