17
TMP_cation_cpcm_1e6
C            2.32214989137958       -1.11010661237768       -0.12124670486073
O            1.44690446338674       -0.24684136606417        0.58684779386525
P           -0.00109274727313        0.00339185141932       -0.03297715639507
O           -0.04965437197680        0.15395280204951       -1.49026141423178
O           -0.85113311346336       -1.20666194274582        0.56426985938951
C           -2.12412487045855       -1.45854652666681       -0.00907442503069
O           -0.53050641306642        1.25111111152061        0.80750770103266
C           -0.19101281401426        2.54695091016866        0.34039500911361
H            3.33796892613697       -0.82767448600957        0.15421574761644
H            2.17611552291816       -0.99387711666429       -1.19646799083538
H            2.13642849519632       -2.14836074928993        0.15935748661460
H           -2.35066280619126       -2.50911570097127        0.17032352898556
H           -2.10065005596795       -1.25485216143129       -1.08080879126714
H           -2.88125419410228       -0.82977643226471        0.46250395572526
H            0.78964291264677        2.83966219200862        0.71971574150527
H           -0.95279940398986        3.22949478815808        0.71642348554491
H           -0.17631943116065        2.56124944916056       -0.75072383677236
