12
GBL conformer 1/2 rel=+0.00 kJ/mol from 0; GFN2-xTB opt; T6 conformer ensemble
O   2.32332921  1.16330179  0.32672200
C   1.22154931  0.73299987  0.16060542
C   0.68700617 -0.62563275  0.59601402
C  -0.59405367 -0.76909826 -0.21696726
C  -0.96763378  0.69371566 -0.48537926
O   0.25083748  1.42284835 -0.45637378
H   1.42398035 -1.40488939  0.41784577
H   0.49012062 -0.57809520  1.66911315
H  -0.39184782 -1.28463971 -1.15640422
H  -1.38462806 -1.29787954  0.30967203
H  -1.43197183  0.85497467 -1.45945668
H  -1.62668796  1.09239450  0.29460880
