33
Coordinates from ORCA-job DME_m1_shell2_reduced_opt_relaxed E -625.085425237141
  C           2.50687438676033      0.19891045694185     -1.47175359804647
  O           1.08043782776860      0.14556028698985     -1.52691837003993
  C           0.47504772313401     -0.15577001891292     -0.27637680917882
  C          -1.01720948238499     -0.17326747633370     -0.49895381482827
  O          -1.37284014940117      1.06321009405367     -1.12975265619344
  C          -2.78422952607374      1.18165816126607     -1.32082501451009
  H           2.84534688981696      0.41090615747191     -2.49029276375426
  H           2.84205118526935      0.99839327870046     -0.79535940779451
  H           2.91191789010919     -0.76781274163581     -1.14045460550112
  H           0.75063865548466      0.60251716072941      0.47527687777447
  H           0.80624578503782     -1.14294952404663      0.08709259889076
  H          -1.29942532728811     -1.01338796357874     -1.15314519908305
  H          -1.54006321848136     -0.26724266911285      0.46735560348601
  H          -3.15268544953939      0.38759149204326     -1.98835175596977
  H          -3.30433125443095      1.12836106997035     -0.35257418980158
  H          -2.96273435520317      2.15568656835454     -1.78183205226753
  Li         -0.04342699036028      1.38511171377267     -2.67838197201762
  C          -2.14663884610312      2.71097437151442     -4.61424686900692
  O          -1.05236544155291      2.83938083351773     -3.70151445327634
  C          -0.41811069603810      4.11787763403692     -3.75752780487736
  C           0.95708800976972      3.96179613184098     -3.12878657524811
  O           0.92663037912821      3.14534589625258     -1.95454829720366
  C           0.30386640218211      3.78341656685844     -0.83833706568837
  H          -2.50947072154897      1.68265601170796     -4.52449309112403
  H          -2.94440438922628      3.42578362264155     -4.36063740231728
  H          -1.80479750929466      2.87821327752154     -5.64507867505894
  H          -1.03893456217609      4.86818026664481     -3.24263855035945
  H          -0.29272771361618      4.43538302914457     -4.80596309486646
  H           1.61502939190985      3.42567726542449     -3.82458614335146
  H           1.38789619903898      4.95042832133557     -2.89925237959422
  H           0.78505480713730      4.75030908430443     -0.63291622120598
  H          -0.77231725007858      3.93459731831474     -1.00262958030061
  H           0.43593135025095      3.11887032226578      0.01904933231451
