33
Coordinates from ORCA-job DME_m1_shell2_oxidized_opt_relaxed E -624.548979490706
  C       2.344360      0.046144     -1.918585
  O       0.919528      0.169964     -1.780500
  C       0.435851     -0.365961     -0.540138
  C      -1.069173     -0.264952     -0.565331
  O      -1.398898      1.101596     -0.865624
  C      -2.811148      1.352391     -0.832047
  H       2.609264      0.471853     -2.888165
  H       2.861261      0.592263     -1.118916
  H       2.638191     -1.009692     -1.894466
  H       0.853529      0.209672      0.300777
  H       0.735533     -1.418019     -0.432472
  H      -1.494513     -0.924580     -1.337011
  H      -1.479050     -0.551444      0.413378
  H      -3.337719      0.719688     -1.558655
  H      -3.209132      1.164166      0.172159
  H      -2.956631      2.404274     -1.087085
  Li     -0.095773      1.789246     -2.128678
  C      -1.624059      2.197505     -4.758346
  O      -0.585536      2.571416     -3.841180
  C      -0.322630      3.983055     -3.832441
  C       0.879870      4.185830     -2.933943
  O       0.670616      3.536635     -1.666808
  C       0.045485      4.376001     -0.680993
  H      -1.746411      1.115410     -4.681157
  H      -2.567546      2.697118     -4.501939
  H      -1.340041      2.457399     -5.784853
  H      -1.209545      4.522979     -3.465313
  H      -0.096302      4.338481     -4.848276
  H       1.761429      3.709923     -3.378357
  H       1.092224      5.253829     -2.798120
  H       0.703456      5.215606     -0.429199
  H      -0.921146      4.760808     -1.031895
  H      -0.112000      3.757762      0.204825
33
Coordinates from ORCA-job DME_m1_shell2_oxidized_opt_relaxed E -624.551749180207
  C       2.348949      0.039955     -1.944720
  O       0.925042      0.181618     -1.768288
  C       0.431423     -0.391078     -0.544723
  C      -1.074727     -0.274854     -0.546679
  O      -1.415910      1.089211     -0.863681
  C      -2.827587      1.364416     -0.790671
  H       2.599333      0.475307     -2.913388
  H       2.887704      0.564174     -1.143336
  H       2.626089     -1.021438     -1.937812
  H       0.865176      0.155529      0.308940
  H       0.728048     -1.447016     -0.467026
  H      -1.519154     -0.940331     -1.303929
  H      -1.476637     -0.546882      0.439831
  H      -3.378486      0.738034     -1.505550
  H      -3.200477      1.169970      0.222426
  H      -2.966765      2.418760     -1.037126
  Li     -0.110055      1.794913     -2.119799
  C      -1.586520      2.172090     -4.800673
  O      -0.596561      2.579956     -3.837957
  C      -0.323906      3.992019     -3.839837
  C       0.873710      4.205768     -2.929710
  O       0.638990      3.557157     -1.664117
  C       0.036654      4.399731     -0.664566
  H      -1.674378      1.086246     -4.738114
  H      -2.551956      2.646481     -4.579399
  H      -1.269041      2.457608     -5.812630
  H      -1.209727      4.535646     -3.471703
  H      -0.104425      4.339262     -4.859393
  H       1.761483      3.728180     -3.361373
  H       1.074729      5.274958     -2.794386
  H       0.707339      5.235259     -0.427865
  H      -0.926532      4.799989     -1.016341
  H      -0.118481      3.785730      0.224244
33
Coordinates from ORCA-job DME_m1_shell2_oxidized_opt_relaxed E -624.553737431681
  C       2.347378      0.021889     -1.956488
  O       0.928004      0.194283     -1.749682
  C       0.425382     -0.416504     -0.549239
  C      -1.078963     -0.290545     -0.534077
  O      -1.432411      1.068288     -0.862359
  C      -2.842145      1.354718     -0.740460
  H       2.588678      0.470700     -2.920226
  H       2.905467      0.515199     -1.148501
  H       2.596687     -1.046146     -1.969424
  H       0.872929      0.099331      0.317978
  H       0.719911     -1.474701     -0.503266
  H      -1.539271     -0.959223     -1.280489
  H      -1.473993     -0.554294      0.457123
  H      -3.413986      0.730360     -1.440597
  H      -3.180920      1.149939      0.282154
  H      -2.980364      2.410053     -0.978544
  Li     -0.127403      1.803179     -2.110444
  C      -1.544960      2.159483     -4.846777
  O      -0.609192      2.594505     -3.837553
  C      -0.330664      4.004309     -3.852169
  C       0.861566      4.231683     -2.930370
  O       0.602214      3.585868     -1.668637
  C       0.037430      4.442179     -0.657296
  H      -1.601053      1.072326     -4.792467
  H      -2.527897      2.614083     -4.663474
  H      -1.191331      2.468952     -5.839672
  H      -1.213526      4.550550     -3.478247
  H      -0.120901      4.342180     -4.875690
  H       1.755638      3.753156     -3.347406
  H       1.047095      5.303000     -2.798007
  H       0.728485      5.267218     -0.442642
  H      -0.917875      4.864856     -1.007932
  H      -0.116664      3.835493      0.235527
33
Coordinates from ORCA-job DME_m1_shell2_oxidized_opt_relaxed E -624.555117906280
  C       2.340123     -0.002314     -1.958497
  O       0.927778      0.208646     -1.727632
  C       0.418647     -0.438636     -0.551747
  C      -1.083749     -0.309426     -0.527009
  O      -1.447059      1.043741     -0.861955
  C      -2.853153      1.332201     -0.687363
  H       2.579132      0.462635     -2.914564
  H       2.918187      0.454567     -1.143481
  H       2.555141     -1.076817     -1.995609
  H       0.872757      0.046120      0.330756
  H       0.711494     -1.498194     -0.537238
  H      -1.552298     -0.982009     -1.265609
  H      -1.473131     -0.570522      0.467035
  H      -3.445908      0.708594     -1.370228
  H      -3.153642      1.119073      0.345001
  H      -2.994908      2.388162     -0.917885
  Li     -0.146311      1.813883     -2.101485
  C      -1.500272      2.154517     -4.893825
  O      -0.621628      2.612480     -3.840353
  C      -0.343926      4.019523     -3.867438
  C       0.841838      4.260690     -2.935019
  O       0.564617      3.618774     -1.677489
  C       0.047116      4.493236     -0.654512
  H      -1.529560      1.066903     -4.839926
  H      -2.498681      2.589661     -4.752621
  H      -1.109476      2.479313     -5.867107
  H      -1.224213      4.567643     -3.488910
  H      -0.138756      4.350094     -4.893425
  H       1.742128      3.783388     -3.339842
  H       1.012838      5.334542     -2.807626
  H       0.763706      5.301244     -0.461203
  H      -0.900110      4.942222     -0.994412
  H      -0.105374      3.892431      0.241866
33
Coordinates from ORCA-job DME_m1_shell2_oxidized_opt_relaxed E -624.556377164806
  C       2.322130     -0.036445     -1.960105
  O       0.924065      0.232653     -1.693583
  C       0.408272     -0.464648     -0.552935
  C      -1.093606     -0.336807     -0.522047
  O      -1.467332      1.009020     -0.863246
  C      -2.863322      1.300059     -0.610897
  H       2.564004      0.456332     -2.901147
  H       2.931993      0.360848     -1.137692
  H       2.483268     -1.117384     -2.041035
  H       0.862566     -0.024016      0.352818
  H       0.700035     -1.524156     -0.583663
  H      -1.564686     -1.017451     -1.252244
  H      -1.476884     -0.597656      0.474377
  H      -3.490387      0.677279     -1.262506
  H      -3.105560      1.084292      0.435596
  H      -3.012134      2.356264     -0.834389
  Li     -0.175181      1.831382     -2.089193
  C      -1.426296      2.144332     -4.960557
  O      -0.639048      2.637268     -3.848211
  C      -0.372881      4.042172     -3.890244
  C       0.801448      4.305666     -2.943608
  O       0.510125      3.667571     -1.691091
  C       0.070200      4.563247     -0.647707
  H      -1.423987      1.057163     -4.895385
  H      -2.444405      2.549430     -4.891691
  H      -0.977200      2.477008     -5.904583
  H      -1.253963      4.589221     -3.511443
  H      -0.165306      4.366501     -4.916975
  H       1.711937      3.836648     -3.335939
  H       0.952149      5.383091     -2.823469
  H       0.828132      5.337691     -0.479201
  H      -0.865423      5.054802     -0.957908
  H      -0.079378      3.964989      0.250550
33
Coordinates from ORCA-job DME_m1_shell2_oxidized_opt_relaxed E -624.557034095245
  C       2.303077     -0.055493     -1.965179
  O       0.918992      0.252644     -1.666850
  C       0.400040     -0.478290     -0.550727
  C      -1.104511     -0.355753     -0.522501
  O      -1.482667      0.985457     -0.866121
  C      -2.866504      1.284457     -0.558375
  H       2.550252      0.465956     -2.889442
  H       2.938817      0.289365     -1.139151
  H       2.423545     -1.137098     -2.091073
  H       0.846834     -0.065961      0.371692
  H       0.693001     -1.535938     -0.612151
  H      -1.569657     -1.043008     -1.250336
  H      -1.486470     -0.618630      0.473736
  H      -3.522957      0.659881     -1.178000
  H      -3.064194      1.080991      0.499616
  H      -3.020417      2.339272     -0.785709
  Li     -0.197559      1.844746     -2.080686
  C      -1.361940      2.127429     -5.007519
  O      -0.651056      2.650989     -3.857495
  C      -0.404566      4.057120     -3.906453
  C       0.759138      4.341727     -2.950553
  O       0.469945      3.702888     -1.700223
  C       0.097300      4.604347     -0.634633
  H      -1.346131      1.041480     -4.922413
  H      -2.390306      2.511146     -5.005000
  H      -0.861988      2.450681     -5.928333
  H      -1.292787      4.596758     -3.534743
  H      -0.187915      4.381492     -4.931051
  H       1.679090      3.887445     -3.339562
  H       0.892574      5.421825     -2.833934
  H       0.891059      5.343997     -0.477552
  H      -0.827798      5.134309     -0.908727
  H      -0.050897      4.000138      0.260094
33
Coordinates from ORCA-job DME_m1_shell2_oxidized_opt_relaxed E -624.557609667979
  C       2.280916     -0.062379     -1.974354
  O       0.911790      0.272273     -1.640930
  C       0.391684     -0.485197     -0.544246
  C      -1.118013     -0.372070     -0.526553
  O      -1.497875      0.965833     -0.869976
  C      -2.867316      1.279590     -0.518184
  H       2.535520      0.497966     -2.873929
  H       2.940714      0.222618     -1.144604
  H       2.365703     -1.138913     -2.158654
  H       0.824327     -0.089966      0.391634
  H       0.689186     -1.539705     -0.627470
  H      -1.569659     -1.063814     -1.258312
  H      -1.503372     -0.639982      0.466755
  H      -3.552040      0.647180     -1.097539
  H      -3.024463      1.105984      0.551881
  H      -3.026491      2.329895     -0.763651
  Li     -0.219353      1.856051     -2.073078
  C      -1.295472      2.101346     -5.046571
  O      -0.661027      2.656580     -3.868605
  C      -0.444102      4.066491     -3.919783
  C       0.707135      4.377244     -2.956980
  O       0.433616      3.732732     -1.707408
  C       0.136768      4.627966     -0.613355
  H      -1.281509      1.017400     -4.933661
  H      -2.326348      2.470803     -5.117409
  H      -0.739204      2.400494     -5.942694
  H      -1.346557      4.590421     -3.562355
  H      -0.213991      4.395024     -4.940266
  H       1.638226      3.947386     -3.349231
  H       0.818769      5.459980     -2.840082
  H       0.970679      5.323293     -0.463373
  H      -0.773510      5.202784     -0.839564
  H      -0.011387      4.011058      0.273195
33
Coordinates from ORCA-job DME_m1_shell2_oxidized_opt_relaxed E -624.558056441397
  C       2.257514     -0.057355     -1.984994
  O       0.902544      0.290465     -1.616969
  C       0.383345     -0.485880     -0.533618
  C      -1.131750     -0.386259     -0.532715
  O      -1.512750      0.949845     -0.873438
  C      -2.868750      1.280678     -0.492483
  H       2.522055      0.550722     -2.850435
  H       2.935889      0.159601     -1.149674
  H       2.311916     -1.122052     -2.238603
  H       0.797349     -0.093921      0.411315
  H       0.690706     -1.536228     -0.627156
  H      -1.563786     -1.078397     -1.275433
  H      -1.525766     -0.663037      0.454420
  H      -3.575155      0.631762     -1.025475
  H      -2.991973      1.151401      0.588668
  H      -3.035627      2.321920     -0.770489
  Li     -0.240226      1.864564     -2.065716
  C      -1.233675      2.070965     -5.075450
  O      -0.669055      2.654088     -3.878714
  C      -0.486461      4.068746     -3.929670
  C       0.649881      4.411221     -2.961751
  O       0.401515      3.755851     -1.712943
  C       0.189103      4.635699     -0.588563
  H      -1.238148      0.989957     -4.933110
  H      -2.257237      2.438590     -5.221474
  H      -0.618920      2.336440     -5.943924
  H      -1.408113      4.570092     -3.591729
  H      -0.243113      4.402334     -4.945864
  H       1.593903      4.015112     -3.360835
  H       0.731989      5.496294     -2.840093
  H       1.065048      5.279895     -0.449068
  H      -0.699640      5.259178     -0.761394
  H       0.040734      4.004078      0.288022
33
Coordinates from ORCA-job DME_m1_shell2_oxidized_opt_relaxed E -624.558342319356
  C       2.239707     -0.046658     -1.991321
  O       0.894083      0.304142     -1.599616
  C       0.376731     -0.481911     -0.522332
  C      -1.141137     -0.396668     -0.538559
  O      -1.524347      0.939135     -0.875778
  C      -2.872853      1.280363     -0.482732
  H       2.514730      0.603343     -2.822448
  H       2.926330      0.109934     -1.149248
  H       2.273193     -1.096807     -2.304637
  H       0.773362     -0.082068      0.426387
  H       0.697695     -1.527926     -0.614617
  H      -1.553776     -1.085475     -1.295007
  H      -1.546462     -0.683613      0.440760
  H      -3.588353      0.610501     -0.976077
  H      -2.974940      1.192942      0.605344
  H      -3.049528      2.310148     -0.795412
  Li     -0.256058      1.869495     -2.059815
  C      -1.193409      2.047646     -5.090870
  O      -0.674081      2.647226     -3.884211
  C      -0.517712      4.065474     -3.935487
  C       0.604238      4.437432     -2.964140
  O       0.378220      3.769532     -1.717425
  C       0.240541      4.633099     -0.570199
  H      -1.225526      0.970036     -4.926962
  H      -2.202604      2.427586     -5.294210
  H      -0.533479      2.281329     -5.935654
  H      -1.455775      4.546256     -3.614127
  H      -0.267515      4.401172     -4.949673
  H       1.560507      4.074880     -3.367844
  H       0.654531      5.523703     -2.835388
  H       1.149518      5.233813     -0.445854
  H      -0.625033      5.297294     -0.701136
  H       0.092549      3.991011      0.298935
33
Coordinates from ORCA-job DME_m1_shell2_oxidized_opt_relaxed E -624.558639670564
  C       2.222089     -0.029495     -1.992802
  O       0.883639      0.320454     -1.581674
  C       0.368633     -0.472438     -0.507625
  C      -1.150101     -0.407039     -0.545587
  O      -1.538613      0.928849     -0.878996
  C      -2.883741      1.274022     -0.481654
  H       2.511459      0.665954     -2.781042
  H       2.910355      0.057561     -1.142150
  H       2.235863     -1.059229     -2.371146
  H       0.743990     -0.056638      0.442735
  H       0.710049     -1.512326     -0.590733
  H      -1.538654     -1.090024     -1.319664
  H      -1.571106     -0.707036      0.422745
  H      -3.599851      0.574765     -0.931150
  H      -2.968588      1.234115      0.611307
  H      -3.075896      2.287083     -0.836632
  Li     -0.274047      1.874510     -2.053375
  C      -1.158111      2.024444     -5.102579
  O      -0.678726      2.636958     -3.887331
  C      -0.549649      4.058747     -3.941233
  C       0.553191      4.466857     -2.965939
  O       0.352550      3.781369     -1.723690
  C       0.310870      4.623166     -0.553501
  H      -1.228569      0.952038     -4.918543
  H      -2.144246      2.428244     -5.364048
  H      -0.452488      2.221578     -5.920146
  H      -1.505030      4.515963     -3.636885
  H      -0.297120      4.394102     -4.955191
  H       1.524848      4.148169     -3.372093
  H       0.559447      5.553038     -2.826895
  H       1.255369      5.173039     -0.457525
  H      -0.522123      5.334951     -0.634723
  H       0.167651      3.970615      0.308412
33
Coordinates from ORCA-job DME_m1_shell2_oxidized_opt_relaxed E -624.558886239591
  C       2.206949     -0.007507     -1.987457
  O       0.872015      0.340176     -1.564594
  C       0.358730     -0.457567     -0.492122
  C      -1.158873     -0.415103     -0.552904
  O      -1.556387      0.920398     -0.883677
  C      -2.903289      1.259997     -0.488120
  H       2.512325      0.728031     -2.731770
  H       2.890344      0.012600     -1.129034
  H       2.204826     -1.014392     -2.424850
  H       0.711958     -0.023855      0.458693
  H       0.723396     -1.490125     -0.562032
  H      -1.522903     -1.092377     -1.343615
  H      -1.596015     -0.728086      0.403673
  H      -3.611355      0.529174     -0.897935
  H      -2.976992      1.262898      0.606883
  H      -3.114568      2.254149     -0.882895
  Li     -0.293917      1.880847     -2.046844
  C      -1.128020      2.003414     -5.110616
  O      -0.682411      2.626154     -3.887290
  C      -0.580799      4.051032     -3.946870
  C       0.498792      4.498018     -2.966280
  O       0.324301      3.791577     -1.731162
  C       0.397387      4.606224     -0.542855
  H      -1.236521      0.937327     -4.910631
  H      -2.087506      2.433111     -5.423761
  H      -0.382546      2.167182     -5.900355
  H      -1.552158      4.484516     -3.657734
  H      -0.330201      4.383921     -4.962095
  H       1.487245      4.231001     -3.371450
  H       0.452446      5.581678     -2.814857
  H       1.375350      5.101735     -0.490944
  H      -0.394512      5.367089     -0.566320
  H       0.266255      3.943128      0.312466
33
Coordinates from ORCA-job DME_m1_shell2_oxidized_opt_relaxed E -624.559069860633
  C       2.203282      0.010041     -1.978227
  O       0.865620      0.354233     -1.558214
  C       0.351957     -0.443198     -0.484594
  C      -1.163764     -0.414445     -0.557326
  O      -1.569198      0.920276     -0.888240
  C      -2.922385      1.247692     -0.501170
  H       2.516099      0.760924     -2.703712
  H       2.878860      0.004109     -1.113816
  H       2.199104     -0.987235     -2.437693
  H       0.694330      0.000654      0.465567
  H       0.729465     -1.471639     -0.544521
  H      -1.516497     -1.090127     -1.354467
  H      -1.608598     -0.732806      0.393755
  H      -3.618717      0.500135     -0.900315
  H      -2.998575      1.263979      0.593657
  H      -3.144449      2.233160     -0.911087
  Li     -0.304803      1.885932     -2.044336
  C      -1.119203      1.991485     -5.110241
  O      -0.682224      2.619153     -3.884381
  C      -0.595808      4.045726     -3.950295
  C       0.467745      4.515869     -2.965302
  O       0.307690      3.794425     -1.737071
  C       0.458332      4.587527     -0.540267
  H      -1.242655      0.928686     -4.902724
  H      -2.066780      2.433796     -5.440927
  H      -0.360599      2.142177     -5.890024
  H      -1.575043      4.466969     -3.668139
  H      -0.349395      4.375314     -4.967361
  H       1.467285      4.284461     -3.366433
  H       0.385583      5.596399     -2.804689
  H       1.452248      5.053116     -0.523768
  H      -0.307372      5.374456     -0.522509
  H       0.341810      3.915121      0.309517
33
Coordinates from ORCA-job DME_m1_shell2_oxidized_opt_relaxed E -624.559364994886
  C       2.202449      0.042715     -1.956787
  O       0.856306      0.380177     -1.552153
  C       0.339814     -0.415894     -0.477381
  C      -1.172911     -0.405904     -0.564663
  O      -1.592798      0.926029     -0.898095
  C      -2.959076      1.226164     -0.529411
  H       2.523246      0.805103     -2.666408
  H       2.862846      0.019520     -1.081580
  H       2.203825     -0.947573     -2.431339
  H       0.669685      0.037400      0.472795
  H       0.731986     -1.439509     -0.525128
  H      -1.513708     -1.083315     -1.365439
  H      -1.624513     -0.728747      0.381702
  H      -3.632785      0.460170     -0.931921
  H      -3.047888      1.243909      0.564378
  H      -3.195022      2.204943     -0.946916
  Li     -0.321208      1.896998     -2.041674
  C      -1.109708      1.972433     -5.103665
  O      -0.679288      2.610033     -3.876816
  C      -0.618646      4.038614     -3.954761
  C       0.417533      4.542915     -2.960839
  O       0.280474      3.796813     -1.745648
  C       0.563235      4.547958     -0.543382
  H      -1.237603      0.912435     -4.886137
  H      -2.050394      2.419867     -5.445941
  H      -0.343287      2.116553     -5.876622
  H      -1.609339      4.441611     -3.683672
  H      -0.377580      4.363030     -4.974318
  H       1.432922      4.370648     -3.353875
  H       0.279230      5.616023     -2.784563
  H       1.575372      4.969494     -0.594143
  H      -0.158814      5.369410     -0.449223
  H       0.478987      3.856341      0.294271
33
Coordinates from ORCA-job DME_m1_shell2_oxidized_opt_relaxed E -624.559577036689
  C       2.206224      0.069806     -1.936986
  O       0.851358      0.400861     -1.552110
  C       0.330816     -0.394275     -0.478150
  C      -1.180780     -0.392766     -0.570737
  O      -1.611131      0.935671     -0.907654
  C      -2.987512      1.212804     -0.555213
  H       2.528372      0.827330     -2.651169
  H       2.855263      0.060952     -1.053277
  H       2.220001     -0.924928     -2.401387
  H       0.657092      0.058119      0.473666
  H       0.725889     -1.417144     -0.522930
  H      -1.519004     -1.075473     -1.368046
  H      -1.631337     -0.715086      0.376563
  H      -3.644412      0.444479     -0.980461
  H      -3.091991      1.211840      0.537122
  H      -3.228846      2.195217     -0.960721
  Li     -0.330568      1.907392     -2.041444
  C      -1.106838      1.957475     -5.092786
  O      -0.674880      2.605538     -3.869755
  C      -0.634035      4.034826     -3.956696
  C       0.382524      4.559342     -2.954833
  O       0.261664      3.796492     -1.749915
  C       0.638813      4.512155     -0.550539
  H      -1.216249      0.896583     -4.869729
  H      -2.057238      2.390372     -5.426549
  H      -0.348793      2.111573     -5.871458
  H      -1.632830      4.425436     -3.695984
  H      -0.392269      4.356984     -4.976609
  H       1.406677      4.428019     -3.342246
  H       0.209645      5.626181     -2.766290
  H       1.658258      4.904933     -0.652565
  H      -0.050871      5.351875     -0.395656
  H       0.580333      3.803783      0.275191
33
Coordinates from ORCA-job DME_m1_shell2_oxidized_opt_relaxed E -624.559771042234
  C       2.215550      0.084022     -1.924751
  O       0.853415      0.409852     -1.560696
  C       0.328478     -0.383629     -0.488460
  C      -1.184328     -0.376850     -0.574851
  O      -1.617828      0.948456     -0.915436
  C      -2.999226      1.213930     -0.573901
  H       2.531536      0.817475     -2.666436
  H       2.859326      0.123724     -1.037806
  H       2.247134     -0.927016     -2.350291
  H       0.662034      0.058393      0.465653
  H       0.712968     -1.410622     -0.539699
  H      -1.530869     -1.067075     -1.362121
  H      -1.625983     -0.693279      0.379076
  H      -3.649634      0.462622     -1.038294
  H      -3.119895      1.175852      0.515774
  H      -3.235012      2.210195     -0.947861
  Li     -0.328077      1.913792     -2.045993
  C      -1.116821      1.947852     -5.079716
  O      -0.669475      2.604440     -3.867011
  C      -0.635846      4.033404     -3.958468
  C       0.374929      4.560200     -2.951937
  O       0.257566      3.791928     -1.751768
  C       0.661870      4.490005     -0.550876
  H      -1.186794      0.883201     -4.857708
  H      -2.092176      2.348731     -5.380568
  H      -0.387369      2.126552     -5.879508
  H      -1.637728      4.421359     -3.705871
  H      -0.387145      4.355930     -4.976766
  H       1.401165      4.440339     -3.337871
  H       0.198056      5.625873     -2.757107
  H       1.681635      4.876816     -0.667261
  H      -0.021696      5.328926     -0.367466
  H       0.613586      3.770969      0.266640
33
Coordinates from ORCA-job DME_m1_shell2_oxidized_opt_relaxed E -624.559874933906
  C       2.213351      0.096637     -1.918392
  O       0.850877      0.420762     -1.558412
  C       0.323072     -0.380642     -0.494594
  C      -1.191555     -0.372438     -0.581589
  O      -1.626669      0.950659     -0.920798
  C      -3.006257      1.216382     -0.576384
  H       2.528135      0.822516     -2.668154
  H       2.857902      0.153707     -1.032587
  H       2.250341     -0.918776     -2.332408
  H       0.655417      0.050801      0.464658
  H       0.702612     -1.409027     -0.556221
  H      -1.536376     -1.064959     -1.367708
  H      -1.629981     -0.691305      0.373214
  H      -3.659872      0.477475     -1.056373
  H      -3.129015      1.161594      0.512283
  H      -3.238543      2.219921     -0.932984
  Li     -0.332767      1.921112     -2.044256
  C      -1.102514      1.936079     -5.073131
  O      -0.666745      2.604381     -3.865033
  C      -0.647590      4.032262     -3.958996
  C       0.350119      4.569511     -2.945861
  O       0.242227      3.795935     -1.748141
  C       0.692028      4.477342     -0.555073
  H      -1.147695      0.870141     -4.849634
  H      -2.090642      2.308879     -5.369243
  H      -0.380976      2.127755     -5.876949
  H      -1.657195      4.410088     -3.723873
  H      -0.384778      4.356344     -4.973694
  H       1.378767      4.468474     -3.332527
  H       0.161937      5.632304     -2.745554
  H       1.718169      4.838815     -0.694674
  H       0.030768      5.328004     -0.346907
  H       0.646790      3.755634      0.260640
33
Coordinates from ORCA-job DME_m1_shell2_oxidized_opt_relaxed E -624.559912169441
  C       2.214043      0.100075     -1.918802
  O       0.851441      0.420465     -1.558863
  C       0.322468     -0.384038     -0.498497
  C      -1.193063     -0.372343     -0.585072
  O      -1.625665      0.950990     -0.921958
  C      -3.002659      1.223860     -0.575833
  H       2.524205      0.820035     -2.676316
  H       2.860902      0.171513     -1.035496
  H       2.256949     -0.919250     -2.322291
  H       0.654879      0.043826      0.462391
  H       0.698921     -1.413240     -0.564428
  H      -1.537309     -1.063453     -1.372924
  H      -1.631388     -0.693587      0.368980
  H      -3.661684      0.494627     -1.063448
  H      -3.127558      1.160537      0.512124
  H      -3.228039      2.232131     -0.923638
  Li     -0.330569      1.921987     -2.044462
  C      -1.102275      1.931270     -5.069461
  O      -0.664537      2.602847     -3.865852
  C      -0.647605      4.030604     -3.959188
  C       0.346551      4.569420     -2.943793
  O       0.239031      3.796214     -1.745218
  C       0.690186      4.476027     -0.552495
  H      -1.134941      0.864446     -4.847341
  H      -2.097552      2.291895     -5.357476
  H      -0.390361      2.130048     -5.880149
  H      -1.660161      4.406015     -3.733246
  H      -0.376780      4.354944     -4.972000
  H       1.375163      4.469378     -3.330791
  H       0.158953      5.632168     -2.742660
  H       1.720008      4.827995     -0.689482
  H       0.034653      5.331865     -0.347005
  H       0.637137      3.757095      0.265336
33
Coordinates from ORCA-job DME_m1_shell2_oxidized_opt_relaxed E -624.559939920588
  C       2.213333      0.104197     -1.918110
  O       0.850728      0.420646     -1.556591
  C       0.320585     -0.388757     -0.500797
  C      -1.195161     -0.375497     -0.589617
  O      -1.625161      0.948847     -0.922856
  C      -2.999218      1.229413     -0.573267
  H       2.519270      0.822149     -2.679264
  H       2.861988      0.182877     -1.036542
  H       2.260821     -0.916966     -2.316350
  H       0.650477      0.036694      0.462129
  H       0.697511     -1.417452     -0.570094
  H      -1.536393     -1.063057     -1.382133
  H      -1.636429     -0.701264      0.361443
  H      -3.663957      0.507079     -1.063652
  H      -3.124056      1.160890      0.514416
  H      -3.218293      2.240842     -0.915845
  Li     -0.329656      1.923226     -2.043191
  C      -1.100180      1.926877     -5.066981
  O      -0.661785      2.600702     -3.866255
  C      -0.647685      4.028436     -3.959931
  C       0.339572      4.571726     -2.940919
  O       0.231943      3.798374     -1.741701
  C       0.692854      4.476235     -0.552035
  H      -1.124624      0.859592     -4.845937
  H      -2.099447      2.280296     -5.350859
  H      -0.394878      2.130808     -5.882283
  H      -1.663639      4.400590     -3.744110
  H      -0.369680      4.351808     -4.971336
  H       1.369627      4.476234     -3.325323
  H       0.146914      5.633464     -2.739617
  H       1.728046      4.812114     -0.690286
  H       0.050370      5.342922     -0.350892
  H       0.629547      3.762321      0.269430
33
Coordinates from ORCA-job DME_m1_shell2_oxidized_opt_relaxed E -624.559965633669
  C       2.214848      0.106152     -1.916756
  O       0.851228      0.417772     -1.555347
  C       0.319724     -0.395985     -0.503706
  C      -1.195813     -0.379831     -0.594596
  O      -1.621470      0.946545     -0.923715
  C      -2.992539      1.235937     -0.570398
  H       2.514477      0.818888     -2.685221
  H       2.864565      0.197187     -1.036964
  H       2.269077     -0.918737     -2.304300
  H       0.647837      0.026967      0.461076
  H       0.697382     -1.424100     -0.575874
  H      -1.535387     -1.062718     -1.392096
  H      -1.641102     -0.709602      0.353065
  H      -3.663654      0.522302     -1.065122
  H      -3.117801      1.159263      0.516707
  H      -3.203148      2.251549     -0.905634
  Li     -0.325447      1.923621     -2.042944
  C      -1.104826      1.924611     -5.064581
  O      -0.657317      2.597970     -3.867673
  C      -0.642757      4.025983     -3.962133
  C       0.338752      4.571501     -2.939355
  O       0.226001      3.800139     -1.738621
  C       0.686641      4.479860     -0.549926
  H      -1.119519      0.856571     -4.846692
  H      -2.109317      2.272897     -5.336897
  H      -0.411881      2.135973     -5.888630
  H      -1.660641      4.397614     -3.754386
  H      -0.359250      4.347377     -4.972789
  H       1.370720      4.476087     -3.318204
  H       0.143063      5.633067     -2.740402
  H       1.727697      4.800322     -0.682055
  H       0.056110      5.358044     -0.361405
  H       0.607090      3.773138      0.276220
33
Coordinates from ORCA-job DME_m1_shell2_oxidized_opt_relaxed E -624.559983474744
  C       2.216442      0.106590     -1.914179
  O       0.851626      0.415169     -1.553832
  C       0.319001     -0.402178     -0.505563
  C      -1.196147     -0.384140     -0.598990
  O      -1.618097      0.944264     -0.924932
  C      -2.987124      1.239246     -0.567812
  H       2.511842      0.815369     -2.687833
  H       2.866035      0.205907     -1.035102
  H       2.275115     -0.920888     -2.294038
  H       0.645435      0.018086      0.461037
  H       0.697915     -1.429602     -0.580041
  H      -1.534822     -1.063263     -1.400140
  H      -1.645196     -0.716367      0.345918
  H      -3.662779      0.531506     -1.064972
  H      -3.111431      1.156419      0.518951
  H      -3.192059      2.257768     -0.897486
  Li     -0.321378      1.924551     -2.042757
  C      -1.109670      1.924162     -5.063379
  O      -0.652464      2.596091     -3.869056
  C      -0.637850      4.024379     -3.964889
  C       0.338490      4.571689     -2.938681
  O       0.219496      3.802783     -1.736583
  C       0.681433      4.484398     -0.549168
  H      -1.117264      0.855572     -4.848317
  H      -2.117973      2.270133     -5.324586
  H      -0.426988      2.141416     -5.894414
  H      -1.656675      4.396024     -3.761649
  H      -0.351615      4.344142     -4.975301
  H       1.372816      4.476392     -3.310827
  H       0.139503      5.633301     -2.743314
  H       1.727598      4.790293     -0.676709
  H       0.062809      5.373062     -0.371501
  H       0.587319      3.784091      0.280791
33
Coordinates from ORCA-job DME_m1_shell2_oxidized_opt_relaxed E -624.559995036139
  C       2.218427      0.104775     -1.912100
  O       0.852541      0.412075     -1.553442
  C       0.319272     -0.406726     -0.506683
  C      -1.195642     -0.387009     -0.601742
  O      -1.614573      0.943038     -0.926117
  C      -2.982573      1.240739     -0.566388
  H       2.511932      0.810806     -2.688934
  H       2.867278      0.208917     -1.033050
  H       2.279226     -0.924188     -2.287479
  H       0.645239      0.011252      0.461052
  H       0.698399     -1.433969     -0.582626
  H      -1.534957     -1.064117     -1.404227
  H      -1.646836     -0.719392      0.342037
  H      -3.660766      0.536035     -1.064404
  H      -3.105451      1.154942      0.520294
  H      -3.184755      2.260756     -0.893060
  Li     -0.316904      1.925381     -2.043231
  C      -1.115135      1.925252     -5.063038
  O      -0.647951      2.595231     -3.870689
  C      -0.633207      4.023781     -3.967343
  C       0.340793      4.571016     -2.939226
  O       0.215094      3.805290     -1.735717
  C       0.674188      4.489394     -0.548262
  H      -1.118468      0.856250     -4.850179
  H      -2.126186      2.270811     -5.313743
  H      -0.440352      2.146086     -5.899447
  H      -1.651862      4.396135     -3.764455
  H      -0.346751      4.343011     -4.977803
  H       1.376830      4.473493     -3.305786
  H       0.141680      5.633415     -2.748029
  H       1.723776      4.785977     -0.670107
  H       0.062494      5.384368     -0.379444
  H       0.568544      3.793541      0.284016
33
Coordinates from ORCA-job DME_m1_shell2_oxidized_opt_relaxed E -624.560002681299
  C       2.219602      0.102273     -1.910998
  O       0.853234      0.409720     -1.553440
  C       0.319712     -0.409271     -0.507088
  C      -1.195181     -0.388485     -0.603084
  O      -1.612296      0.942524     -0.927120
  C      -2.979921      1.240816     -0.565854
  H       2.513831      0.808622     -2.687283
  H       2.867593      0.205528     -1.031283
  H       2.279942     -0.926310     -2.287480
  H       0.645700      0.007138      0.461244
  H       0.698331     -1.436673     -0.583904
  H      -1.535460     -1.064998     -1.405498
  H      -1.647086     -0.719932      0.340680
  H      -3.658992      0.535791     -1.062115
  H      -3.100792      1.156540      0.521176
  H      -3.182362      2.260578     -0.893243
  Li     -0.313508      1.926503     -2.043557
  C      -1.117823      1.926234     -5.063186
  O      -0.644320      2.595185     -3.871999
  C      -0.630930      4.023862     -3.968776
  C       0.341825      4.571093     -2.939783
  O       0.211252      3.808082     -1.735165
  C       0.669480      4.493352     -0.547853
  H      -1.119771      0.857082     -4.851033
  H      -2.130213      2.272093     -5.307530
  H      -0.446649      2.147861     -5.902151
  H      -1.649460      4.395898     -3.764740
  H      -0.345104      4.343648     -4.979183
  H       1.378975      4.471785     -3.302725
  H       0.143578      5.634325     -2.751952
  H       1.721213      4.783519     -0.666684
  H       0.062131      5.391943     -0.383392
  H       0.556813      3.800038      0.285646
33
Coordinates from ORCA-job DME_m1_shell2_oxidized_opt_relaxed E -624.560008266429
  C       2.220462      0.099067     -1.911290
  O       0.854032      0.407254     -1.554360
  C       0.320429     -0.410890     -0.507600
  C      -1.194599     -0.388726     -0.603243
  O      -1.610481      0.942756     -0.927681
  C      -2.977979      1.241090     -0.565917
  H       2.516774      0.807439     -2.684981
  H       2.867644      0.198527     -1.030624
  H       2.279236     -0.928147     -2.291788
  H       0.647286      0.004663      0.460744
  H       0.697590     -1.438846     -0.584874
  H      -1.536367     -1.065424     -1.404743
  H      -1.646039     -0.718667      0.341298
  H      -3.657111      0.533913     -1.058898
  H      -3.097028      1.161254      0.521670
  H      -3.181987      2.259541     -0.896552
  Li     -0.310361      1.927562     -2.043883
  C      -1.118951      1.926781     -5.063262
  O      -0.641335      2.595456     -3.873136
  C      -0.629827      4.024185     -3.969357
  C       0.342538      4.571325     -2.940178
  O       0.208151      3.810788     -1.734532
  C       0.664923      4.496691     -0.547028
  H      -1.120480      0.857589     -4.851114
  H      -2.132219      2.272657     -5.303488
  H      -0.449604      2.148055     -5.903676
  H      -1.648411      4.395306     -3.764003
  H      -0.344581      4.345059     -4.979579
  H       1.380201      4.469757     -3.301106
  H       0.146415      5.635456     -2.754923
  H       1.717894      4.783233     -0.663405
  H       0.059307      5.396833     -0.384968
  H       0.547825      3.804828      0.287124
33
Coordinates from ORCA-job DME_m1_shell2_oxidized_opt_relaxed E -624.560012134706
  C       2.220771      0.095984     -1.912683
  O       0.854627      0.405186     -1.555788
  C       0.320912     -0.411945     -0.508496
  C      -1.194278     -0.388149     -0.602663
  O      -1.609493      0.943396     -0.927654
  C      -2.976882      1.241848     -0.565915
  H       2.519647      0.807301     -2.682724
  H       2.867344      0.190113     -1.031032
  H       2.277587     -0.929421     -2.298412
  H       0.649184      0.003216      0.459528
  H       0.696241     -1.440584     -0.586117
  H      -1.537654     -1.065234     -1.403123
  H      -1.644617     -0.716850      0.342871
  H      -3.655789      0.531779     -1.054946
  H      -3.094501      1.167519      0.522252
  H      -3.182717      2.258534     -0.900951
  Li     -0.308037      1.928566     -2.043858
  C      -1.117874      1.926460     -5.063095
  O      -0.639231      2.595752     -3.873744
  C      -0.629871      4.024456     -3.969327
  C       0.341787      4.572167     -2.939963
  O       0.205079      3.813277     -1.733560
  C       0.661903      4.499043     -0.546147
  H      -1.118789      0.857300     -4.850597
  H      -2.131768      2.271401     -5.301862
  H      -0.449155      2.147451     -5.904050
  H      -1.648970      4.394112     -3.763959
  H      -0.344412      4.346262     -4.979233
  H       1.379679      4.469179     -3.299942
  H       0.147201      5.636838     -2.756148
  H       1.715465      4.783622     -0.661758
  H       0.057047      5.399820     -0.384694
  H       0.542902      3.807969      0.288437
33
Coordinates from ORCA-job DME_m1_shell2_oxidized_opt_relaxed E -624.560014978309
  C       2.221003      0.092547     -1.915017
  O       0.855271      0.402906     -1.557933
  C       0.321326     -0.413147     -0.510039
  C      -1.193980     -0.387091     -0.601623
  O      -1.608560      0.944420     -0.926977
  C      -2.975735      1.243586     -0.565443
  H       2.522085      0.806289     -2.681963
  H       2.867180      0.181984     -1.032604
  H       2.276100     -0.931417     -2.304884
  H       0.651764      0.001717      0.457424
  H       0.694496     -1.442569     -0.588043
  H      -1.539474     -1.064425     -1.401037
  H      -1.642886     -0.714803      0.344976
  H      -3.654622      0.531066     -1.050873
  H      -3.092442      1.174087      0.523173
  H      -3.182657      2.258703     -0.904580
  Li     -0.305816      1.929284     -2.043691
  C      -1.115899      1.925690     -5.062688
  O      -0.637659      2.595879     -3.873990
  C      -0.629891      4.024561     -3.969167
  C       0.340828      4.573021     -2.939414
  O       0.202274      3.815345     -1.732367
  C       0.658247      4.501215     -0.544857
  H      -1.115102      0.856519     -4.850155
  H      -2.130601      2.268747     -5.300872
  H      -0.448160      2.147494     -5.904237
  H      -1.649654      4.392945     -3.764882
  H      -0.343593      4.346806     -4.978749
  H       1.378838      4.468709     -3.298699
  H       0.147294      5.638009     -2.756493
  H       1.711900      4.785758     -0.659649
  H       0.052963      5.401886     -0.384056
  H       0.538505      3.810644      0.290056
33
Coordinates from ORCA-job DME_m1_shell2_oxidized_opt_relaxed E -624.560016968316
  C       2.220936      0.089149     -1.917685
  O       0.855699      0.400913     -1.560123
  C       0.321430     -0.414451     -0.511844
  C      -1.193899     -0.386037     -0.600637
  O      -1.607815      0.945524     -0.925840
  C      -2.974643      1.245792     -0.564152
  H       2.523558      0.804405     -2.682598
  H       2.867055      0.174997     -1.034861
  H       2.274449     -0.933957     -2.310086
  H       0.654201     -0.000130      0.455117
  H       0.692662     -1.444538     -0.590438
  H      -1.541609     -1.063272     -1.399280
  H      -1.641517     -0.713230      0.346783
  H      -3.653908      0.531791     -1.046865
  H      -3.090626      1.179371      0.524763
  H      -3.181780      2.259918     -0.906072
  Li     -0.304072      1.929811     -2.043253
  C      -1.112840      1.924605     -5.062315
  O      -0.636573      2.595832     -3.873784
  C      -0.630003      4.024506     -3.969113
  C       0.339203      4.574100     -2.938578
  O       0.199503      3.817027     -1.731124
  C       0.654976      4.503214     -0.543712
  H      -1.109612      0.855413     -4.849957
  H      -2.128283      2.265265     -5.301063
  H      -0.445897      2.148098     -5.904105
  H      -1.650511      4.391843     -3.766715
  H      -0.342514      4.346662     -4.978421
  H       1.377477      4.469472     -3.296978
  H       0.145293      5.639064     -2.756174
  H       1.708391      4.788731     -0.658376
  H       0.049019      5.403565     -0.383332
  H       0.535594      3.812916      0.291465
33
Coordinates from ORCA-job DME_m1_shell2_oxidized_opt_relaxed E -624.560018447256
  C       2.220731      0.085200     -1.920797
  O       0.856080      0.398739     -1.562490
  C       0.321510     -0.416044     -0.513796
  C      -1.193785     -0.385063     -0.599769
  O      -1.606665      0.946823     -0.924318
  C      -2.972998      1.248616     -0.562038
  H       2.524192      0.800790     -2.685033
  H       2.867216      0.168907     -1.038021
  H       2.272632     -0.937698     -2.313987
  H       0.656837     -0.002596      0.452706
  H       0.690840     -1.446760     -0.593171
  H      -1.544021     -1.061871     -1.397762
  H      -1.640254     -0.711887      0.348352
  H      -3.653140      0.534287     -1.043035
  H      -3.088295      1.183548      0.527051
  H      -3.179478      2.262409     -0.905261
  Li     -0.302215      1.930052     -2.042766
  C      -1.109376      1.923508     -5.062128
  O      -0.635601      2.595622     -3.873384
  C      -0.629795      4.024339     -3.969231
  C       0.337842      4.574988     -2.937762
  O       0.197163      3.818338     -1.729993
  C       0.650517      4.505639     -0.542436
  H      -1.103420      0.854274     -4.850149
  H      -2.125501      2.261706     -5.301766
  H      -0.443132      2.149160     -5.903949
  H      -1.650898      4.391003     -3.768666
  H      -0.341210      4.346143     -4.978344
  H       1.376491      4.470358     -3.294963
  H       0.142920      5.639829     -2.755935
  H       1.703395      4.793482     -0.656370
  H       0.042913      5.405092     -0.383034
  H       0.531853      3.815434      0.292891
