33
Coordinates from ORCA-job DME_m1_shell2_oxidized_opt_relaxed E -624.560018447256
  C           2.22073053345262      0.08520045319828     -1.92079739715355
  O           0.85608014872962      0.39873850886364     -1.56249029383018
  C           0.32151031726772     -0.41604378114939     -0.51379614651630
  C          -1.19378536294167     -0.38506259006096     -0.59976865523206
  O          -1.60666480362890      0.94682348013446     -0.92431777514722
  C          -2.97299800302644      1.24861573078923     -0.56203824337508
  H           2.52419243031142      0.80079049655606     -2.68503257590112
  H           2.86721618884690      0.16890658017959     -1.03802081029447
  H           2.27263216083476     -0.93769814831381     -2.31398726942375
  H           0.65683668372681     -0.00259591139756      0.45270642564889
  H           0.69083958951270     -1.44676013926731     -0.59317125154230
  H          -1.54402072188078     -1.06187117877033     -1.39776194965902
  H          -1.64025396732574     -0.71188669649294      0.34835238959124
  H          -3.65314035298295      0.53428671443639     -1.04303520954674
  H          -3.08829512761903      1.18354758860149      0.52705115893842
  H          -3.17947775242068      2.26240851650420     -0.90526086458122
  Li         -0.30221540197544      1.93005173093251     -2.04276626844999
  C          -1.10937638158170      1.92350797744702     -5.06212769607981
  O          -0.63560118353900      2.59562233644480     -3.87338426370137
  C          -0.62979536772129      4.02433927442463     -3.96923066523679
  C           0.33784165620870      4.57498754887025     -2.93776190380379
  O           0.19716265155800      3.81833811097042     -1.72999331582020
  C           0.65051669043961      4.50563938840439     -0.54243576584793
  H          -1.10342023378261      0.85427398164950     -4.85014921934417
  H          -2.12550146192931      2.26170585256984     -5.30176611679815
  H          -0.44313213550156      2.14915950001455     -5.90394946263942
  H          -1.65089805776386      4.39100329168294     -3.76866629831731
  H          -0.34121034866954      4.34614283301058     -4.97834397724735
  H           1.37649144378690      4.47035751333228     -3.29496303894596
  H           0.14291956510564      5.63982905522192     -2.75593520573695
  H           1.70339476406221      4.79348216980854     -0.65636986338928
  H           0.04291270824540      5.40509165350625     -0.38303352224222
  H           0.53185313220152      3.81543415789846      0.29289105162523
