33
Coordinates from ORCA-job DME_m1_shell2_reduced_opt_relaxed E -625.078422819598
  C       2.344360      0.046144     -1.918585
  O       0.919528      0.169964     -1.780500
  C       0.435851     -0.365961     -0.540138
  C      -1.069173     -0.264952     -0.565331
  O      -1.398898      1.101596     -0.865624
  C      -2.811148      1.352391     -0.832047
  H       2.609264      0.471853     -2.888165
  H       2.861261      0.592263     -1.118916
  H       2.638191     -1.009692     -1.894466
  H       0.853529      0.209672      0.300777
  H       0.735533     -1.418019     -0.432472
  H      -1.494513     -0.924580     -1.337011
  H      -1.479050     -0.551444      0.413378
  H      -3.337719      0.719688     -1.558655
  H      -3.209132      1.164166      0.172159
  H      -2.956631      2.404274     -1.087085
  Li     -0.095773      1.789246     -2.128678
  C      -1.624059      2.197505     -4.758346
  O      -0.585536      2.571416     -3.841180
  C      -0.322630      3.983055     -3.832441
  C       0.879870      4.185830     -2.933943
  O       0.670616      3.536635     -1.666808
  C       0.045485      4.376001     -0.680993
  H      -1.746411      1.115410     -4.681157
  H      -2.567546      2.697118     -4.501939
  H      -1.340041      2.457399     -5.784853
  H      -1.209545      4.522979     -3.465313
  H      -0.096302      4.338481     -4.848276
  H       1.761429      3.709923     -3.378357
  H       1.092224      5.253829     -2.798120
  H       0.703456      5.215606     -0.429199
  H      -0.921146      4.760808     -1.031895
  H      -0.112000      3.757762      0.204825
33
Coordinates from ORCA-job DME_m1_shell2_reduced_opt_relaxed E -625.079056681138
  C       2.340764      0.050626     -1.916221
  O       0.918627      0.173390     -1.777807
  C       0.435349     -0.368463     -0.541531
  C      -1.068786     -0.259289     -0.554303
  O      -1.401593      1.102834     -0.865881
  C      -2.811617      1.349408     -0.829349
  H       2.600004      0.476421     -2.889509
  H       2.857051      0.603107     -1.117040
  H       2.630556     -1.009782     -1.889419
  H       0.860199      0.196830      0.302523
  H       0.730983     -1.426892     -0.450061
  H      -1.502546     -0.925029     -1.316015
  H      -1.472672     -0.526577      0.436501
  H      -3.336726      0.709516     -1.553981
  H      -3.200954      1.164365      0.182991
  H      -2.958966      2.400874     -1.093174
  Li     -0.100906      1.789099     -2.133476
  C      -1.621847      2.202996     -4.766377
  O      -0.591339      2.576591     -3.844848
  C      -0.320016      3.984693     -3.844602
  C       0.871122      4.191659     -2.933572
  O       0.667891      3.535699     -1.669911
  C       0.049300      4.363247     -0.676030
  H      -1.737858      1.118157     -4.688316
  H      -2.569328      2.700902     -4.508816
  H      -1.326557      2.469528     -5.791601
  H      -1.208165      4.533951     -3.494140
  H      -0.077093      4.323174     -4.866510
  H       1.758311      3.721664     -3.375717
  H       1.072618      5.262947     -2.786767
  H       0.704771      5.210010     -0.431278
  H      -0.929313      4.736425     -1.014976
  H      -0.087918      3.734284      0.209861
33
Coordinates from ORCA-job DME_m1_shell2_reduced_opt_relaxed E -625.079389647021
  C       2.338720      0.056782     -1.912883
  O       0.918072      0.177896     -1.772363
  C       0.436078     -0.372457     -0.540910
  C      -1.067196     -0.253435     -0.537557
  O      -1.404506      1.103068     -0.866342
  C      -2.813438      1.345389     -0.822430
  H       2.590918      0.480279     -2.889878
  H       2.854390      0.617177     -1.117518
  H       2.625078     -1.005716     -1.881314
  H       0.872057      0.177876      0.307480
  H       0.724082     -1.436257     -0.471285
  H      -1.513223     -0.929131     -1.283485
  H      -1.459683     -0.494495      0.466193
  H      -3.339156      0.696711     -1.540159
  H      -3.189512      1.167759      0.197843
  H      -2.964583      2.393850     -1.098499
  Li     -0.109020      1.786567     -2.142693
  C      -1.622796      2.214514     -4.780675
  O      -0.601734      2.586027     -3.849919
  C      -0.313350      3.989100     -3.860592
  C       0.865108      4.197105     -2.934141
  O       0.664501      3.531589     -1.675696
  C       0.048753      4.343598     -0.671179
  H      -1.734163      1.128297     -4.703738
  H      -2.573177      2.710277     -4.524784
  H      -1.313349      2.488142     -5.801273
  H      -1.200820      4.554691     -3.534243
  H      -0.045949      4.303473     -4.885897
  H       1.758749      3.734533     -3.373152
  H       1.053741      5.269478     -2.773254
  H       0.693773      5.201867     -0.434845
  H      -0.944336      4.696843     -0.993598
  H      -0.060684      3.704972      0.213434
33
Coordinates from ORCA-job DME_m1_shell2_reduced_opt_relaxed E -625.079556809274
  C       2.339412      0.061161     -1.909190
  O       0.918413      0.180749     -1.766552
  C       0.438379     -0.375557     -0.537505
  C      -1.064691     -0.250815     -0.523552
  O      -1.405271      1.101673     -0.866978
  C      -2.814728      1.341599     -0.814782
  H       2.587691      0.481634     -2.888439
  H       2.854679      0.627012     -1.117604
  H       2.625752     -1.001020     -1.873459
  H       0.882786      0.164543      0.313183
  H       0.720367     -1.441891     -0.481256
  H      -1.519380     -0.935002     -1.256452
  H      -1.447857     -0.474455      0.487814
  H      -3.343198      0.685743     -1.523851
  H      -3.180681      1.172446      0.210450
  H      -2.969947      2.386591     -1.101011
  Li     -0.115865      1.781770     -2.152898
  C      -1.627569      2.229032     -4.793518
  O      -0.611941      2.595647     -3.853732
  C      -0.306161      3.994656     -3.871582
  C       0.865947      4.198367     -2.935356
  O       0.663492      3.524541     -1.681674
  C       0.042870      4.325740     -0.671799
  H      -1.741450      1.143025     -4.718344
  H      -2.577845      2.726723     -4.541670
  H      -1.307621      2.504688     -5.810171
  H      -1.190418      4.574686     -3.562168
  H      -0.020665      4.292913     -4.896970
  H       1.762859      3.740323     -3.372670
  H       1.048583      5.270142     -2.764719
  H       0.674858      5.194731     -0.440039
  H      -0.959364      4.661253     -0.985261
  H      -0.048091      3.683718      0.212399
33
Coordinates from ORCA-job DME_m1_shell2_reduced_opt_relaxed E -625.079814481246
  C       2.342472      0.068738     -1.899739
  O       0.920073      0.184853     -1.754231
  C       0.444816     -0.379064     -0.527205
  C      -1.058237     -0.248078     -0.499083
  O      -1.404010      1.097057     -0.869021
  C      -2.814926      1.333385     -0.800203
  H       2.586171      0.483027     -2.882336
  H       2.856325      0.643226     -1.114294
  H       2.631941     -0.991440     -1.856487
  H       0.901565      0.148103      0.325076
  H       0.718572     -1.447897     -0.486385
  H      -1.524872     -0.947314     -1.209886
  H      -1.427284     -0.446239      0.522171
  H      -3.350035      0.663234     -1.489956
  H      -3.163770      1.182686      0.232926
  H      -2.978609      2.371091     -1.105607
  Li     -0.128161      1.769013     -2.175747
  C      -1.641234      2.263487     -4.816253
  O      -0.632766      2.615550     -3.860083
  C      -0.292726      4.006628     -3.887416
  C       0.873820      4.195066     -2.938552
  O       0.665237      3.505796     -1.694215
  C       0.026290      4.289374     -0.680878
  H      -1.769033      1.179256     -4.744124
  H      -2.587420      2.772099     -4.574381
  H      -1.302613      2.536985     -5.826517
  H      -1.167295      4.612384     -3.601229
  H       0.019137      4.282563     -4.910932
  H       1.773097      3.741785     -3.375263
  H       1.053566      5.264338     -2.752390
  H       0.631007      5.177935     -0.453180
  H      -0.987871      4.593026     -0.987456
  H      -0.039881      3.645716      0.203522
33
Coordinates from ORCA-job DME_m1_shell2_reduced_opt_relaxed E -625.080087682778
  C       2.346841      0.076340     -1.886939
  O       0.923009      0.187550     -1.740831
  C       0.452982     -0.377866     -0.512743
  C      -1.050451     -0.246629     -0.478371
  O      -1.400311      1.091018     -0.872786
  C      -2.812354      1.324714     -0.789344
  H       2.588723      0.484000     -2.872305
  H       2.857993      0.658472     -1.106174
  H       2.642377     -0.980985     -1.836141
  H       0.916044      0.146487      0.337812
  H       0.724390     -1.446832     -0.474382
  H      -1.522486     -0.959439     -1.171828
  H      -1.411741     -0.427168      0.548158
  H      -3.353944      0.639054     -1.457645
  H      -3.147493      1.194904      0.250228
  H      -2.984459      2.354497     -1.114534
  Li     -0.139022      1.752444     -2.202364
  C      -1.659347      2.303427     -4.835466
  O      -0.654573      2.635809     -3.865704
  C      -0.282240      4.018951     -3.896401
  C       0.886235      4.185032     -2.942856
  O       0.671928      3.481227     -1.707750
  C       0.008026      4.249521     -0.697165
  H      -1.809048      1.222225     -4.766168
  H      -2.597420      2.829919     -4.603999
  H      -1.304208      2.569709     -5.841048
  H      -1.144487      4.646086     -3.620004
  H       0.043922      4.283870     -4.917627
  H       1.782917      3.731529     -3.383415
  H       1.072991      5.250522     -2.743867
  H       0.586767      5.154107     -0.467459
  H      -1.011779      4.527402     -1.007757
  H      -0.046438      3.606467      0.187520
33
Coordinates from ORCA-job DME_m1_shell2_reduced_opt_relaxed E -625.080478691794
  C       2.353779      0.085672     -1.866726
  O       0.928407      0.188314     -1.724953
  C       0.462887     -0.369097     -0.491819
  C      -1.041531     -0.245596     -0.461911
  O      -1.393995      1.083732     -0.880743
  C      -2.806644      1.316567     -0.787410
  H       2.597408      0.483745     -2.855208
  H       2.858848      0.677704     -1.090101
  H       2.659995     -0.967344     -1.804773
  H       0.923505      0.166625      0.352936
  H       0.740207     -1.435181     -0.438745
  H      -1.510455     -0.971886     -1.143332
  H      -1.403741     -0.415367      0.565353
  H      -3.353923      0.613511     -1.431768
  H      -3.133104      1.211761      0.257011
  H      -2.985991      2.337397     -1.134853
  Li     -0.147827      1.729411     -2.236720
  C      -1.685235      2.350607     -4.850656
  O      -0.678717      2.656053     -3.872013
  C      -0.277537      4.031737     -3.897145
  C       0.902574      4.166464     -2.950109
  O       0.686709      3.447226     -1.724668
  C      -0.007302      4.199834     -0.720701
  H      -1.863819      1.273814     -4.786703
  H      -2.610635      2.900638     -4.626118
  H      -1.318502      2.607900     -5.853627
  H      -1.125332      4.674047     -3.612040
  H       0.047567      4.301214     -4.916495
  H       1.790140      3.708183     -3.402471
  H       1.107464      5.226337     -2.739522
  H       0.548010      5.116083     -0.481247
  H      -1.027037      4.459896     -1.044652
  H      -0.062830      3.556365      0.162576
33
Coordinates from ORCA-job DME_m1_shell2_reduced_opt_relaxed E -625.080915713926
  C       2.363079      0.098008     -1.839251
  O       0.936745      0.187120     -1.707655
  C       0.472134     -0.351425     -0.466454
  C      -1.033423     -0.243350     -0.452584
  O      -1.387138      1.077021     -0.894149
  C      -2.799547      1.310648     -0.802215
  H       2.611009      0.482570     -2.832055
  H       2.857939      0.704700     -1.067349
  H       2.683981     -0.949543     -1.760457
  H       0.919599      0.209186      0.369300
  H       0.763383     -1.411416     -0.382866
  H      -1.489754     -0.982899     -1.128370
  H      -1.406295     -0.407680      0.571532
  H      -3.348810      0.590825     -1.425872
  H      -3.126228      1.231213      0.244457
  H      -2.982201      2.322908     -1.172243
  Li     -0.152405      1.701789     -2.275950
  C      -1.718516      2.397430     -4.856952
  O      -0.703282      2.672289     -3.878625
  C      -0.280757      4.041998     -3.889573
  C       0.918428      4.141473     -2.960909
  O       0.708981      3.407238     -1.744282
  C      -0.010634      4.143098     -0.745072
  H      -1.925264      1.325243     -4.801295
  H      -2.629330      2.970269     -4.629937
  H      -1.349642      2.649745     -5.860370
  H      -1.113718      4.691205     -3.577873
  H       0.027980      4.330504     -4.908096
  H       1.791193      3.676109     -3.433447
  H       1.148427      5.194614     -2.740255
  H       0.528627      5.065063     -0.490663
  H      -1.027349      4.395523     -1.083511
  H      -0.073873      3.494892      0.133689
33
Coordinates from ORCA-job DME_m1_shell2_reduced_opt_relaxed E -625.081475239612
  C       2.377215      0.119177     -1.795432
  O       0.950449      0.186505     -1.680501
  C       0.483197     -0.318764     -0.428088
  C      -1.022175     -0.234218     -0.441627
  O      -1.377666      1.070759     -0.918913
  C      -2.789709      1.303083     -0.840573
  H       2.630693      0.481429     -2.795632
  H       2.855603      0.751274     -1.033080
  H       2.718557     -0.919932     -1.687904
  H       0.907339      0.280309      0.393322
  H       0.794881     -1.368121     -0.297595
  H      -1.455999     -0.994332     -1.109723
  H      -1.414575     -0.386007      0.577439
  H      -3.335640      0.558596     -1.438059
  H      -3.122888      1.260734      0.206958
  H      -2.975056      2.301418     -1.246079
  Li     -0.154859      1.659559     -2.337543
  C      -1.772097      2.462083     -4.857900
  O      -0.741974      2.694074     -3.886156
  C      -0.290102      4.054357     -3.875009
  C       0.937393      4.103868     -2.978703
  O       0.744883      3.346793     -1.774825
  C      -0.002607      4.053418     -0.775111
  H      -2.013854      1.396389     -4.813288
  H      -2.662278      3.063308     -4.620425
  H      -1.404607      2.711700     -5.863042
  H      -1.099609      4.711693     -3.520962
  H      -0.008395      4.370092     -4.892931
  H       1.786057      3.630387     -3.485441
  H       1.201682      5.146463     -2.742114
  H       0.514613      4.983304     -0.502161
  H      -1.019212      4.292613     -1.123543
  H      -0.065915      3.394357      0.095287
33
Coordinates from ORCA-job DME_m1_shell2_reduced_opt_relaxed E -625.082065845542
  C       2.397587      0.147140     -1.731265
  O       0.971125      0.187213     -1.640907
  C       0.494169     -0.266061     -0.375585
  C      -1.007343     -0.209737     -0.430088
  O      -1.362088      1.071165     -0.961841
  C      -2.774688      1.295292     -0.918554
  H       2.660103      0.476837     -2.741076
  H       2.853135      0.815030     -0.984866
  H       2.761426     -0.879962     -1.581238
  H       0.885717      0.383986      0.423610
  H       0.828249     -1.298583     -0.180196
  H      -1.407348     -0.998513     -1.086697
  H      -1.431336     -0.337258      0.580251
  H      -3.306362      0.516313     -1.484938
  H      -3.126701      1.304019      0.124786
  H      -2.961541      2.270795     -1.376630
  Li     -0.146864      1.599801     -2.430184
  C      -1.852339      2.542915     -4.843845
  O      -0.800323      2.722173     -3.887659
  C      -0.309606      4.068479     -3.848498
  C       0.957291      4.055130     -3.004268
  O       0.798830      3.263906     -1.819142
  C       0.024057      3.922990     -0.808745
  H      -2.133071      1.485844     -4.810226
  H      -2.715722      3.175504     -4.586247
  H      -1.491947      2.792292     -5.852431
  H      -1.084178      4.734456     -3.436351
  H      -0.067064      4.417507     -4.865595
  H       1.770067      3.577152     -3.562966
  H       1.261761      5.082669     -2.745278
  H       0.505845      4.867889     -0.519991
  H      -1.000577      4.131294     -1.153625
  H      -0.016918      3.248691      0.050932
33
Coordinates from ORCA-job DME_m1_shell2_reduced_opt_relaxed E -625.082630991750
  C       2.414446      0.161929     -1.691299
  O       0.988902      0.184611     -1.617771
  C       0.493060     -0.227791     -0.346958
  C      -1.008618     -0.193057     -0.438794
  O      -1.363188      1.078576     -0.992057
  C      -2.776047      1.291115     -0.998974
  H       2.683143      0.472586     -2.706109
  H       2.854868      0.852295     -0.955580
  H       2.789462     -0.857895     -1.514456
  H       0.854282      0.458073      0.437230
  H       0.840917     -1.246277     -0.104859
  H      -1.376949     -0.993457     -1.100545
  H      -1.461644     -0.315753      0.560122
  H      -3.284134      0.498296     -1.568874
  H      -3.161891      1.314977      0.033171
  H      -2.955345      2.257826     -1.479340
  Li     -0.132898      1.567563     -2.474875
  C      -1.903847      2.565803     -4.814286
  O      -0.832420      2.728011     -3.880690
  C      -0.333467      4.069869     -3.826236
  C       0.957610      4.031206     -3.025174
  O       0.830841      3.228977     -1.844969
  C       0.079544      3.867352     -0.805457
  H      -2.192305      1.510209     -4.780838
  H      -2.756740      3.205312     -4.536122
  H      -1.561164      2.819472     -5.828842
  H      -1.089883      4.730128     -3.372851
  H      -0.125562      4.442030     -4.843398
  H       1.743284      3.547408     -3.617520
  H       1.283719      5.052093     -2.763446
  H       0.561734      4.813921     -0.520419
  H      -0.957340      4.068251     -1.116170
  H       0.070974      3.182707      0.047030
33
Coordinates from ORCA-job DME_m1_shell2_reduced_opt_relaxed E -625.083717877724
  C       2.444451      0.170926     -1.625052
  O       1.018978      0.177936     -1.580469
  C       0.484269     -0.174850     -0.309648
  C      -1.016422     -0.157038     -0.454316
  O      -1.373130      1.099597     -1.046151
  C      -2.785618      1.272482     -1.151610
  H       2.723965      0.450504     -2.646344
  H       2.862830      0.896008     -0.910008
  H       2.823605     -0.838995     -1.403134
  H       0.810829      0.548163      0.456757
  H       0.833036     -1.179297     -0.014332
  H      -1.341993     -0.975217     -1.116876
  H      -1.507590     -0.257824      0.529021
  H      -3.233440      0.458973     -1.743637
  H      -3.237332      1.303089     -0.146261
  H      -2.955370      2.225733     -1.661777
  Li     -0.101420      1.523746     -2.538999
  C      -1.989328      2.586480     -4.751525
  O      -0.891389      2.740257     -3.850666
  C      -0.378681      4.074830     -3.793009
  C       0.945635      4.011369     -3.057099
  O       0.876302      3.196015     -1.882131
  C       0.195822      3.809619     -0.784026
  H      -2.269975      1.528166     -4.714775
  H      -2.835039      3.220938     -4.440228
  H      -1.674621      2.851646     -5.772544
  H      -1.105802      4.736272     -3.295239
  H      -0.214393      4.454912     -4.816469
  H       1.689667      3.520854     -3.697345
  H       1.291353      5.025662     -2.794629
  H       0.675008      4.767898     -0.534267
  H      -0.869711      3.977445     -1.002774
  H       0.278848      3.120067      0.060209
33
Coordinates from ORCA-job DME_m1_shell2_reduced_opt_relaxed E -625.084260798434
  C       2.470856      0.155902     -1.562828
  O       1.044044      0.163971     -1.553531
  C       0.473881     -0.144289     -0.288339
  C      -1.019842     -0.123544     -0.475459
  O      -1.366762      1.125396     -1.093551
  C      -2.775765      1.259444     -1.276038
  H       2.771190      0.408417     -2.585134
  H       2.872025      0.903454     -0.861943
  H       2.842470     -0.846731     -1.301829
  H       0.784317      0.597962      0.466305
  H       0.804602     -1.142568      0.045145
  H      -1.320531     -0.949457     -1.139799
  H      -1.538797     -0.209142      0.494085
  H      -3.167694      0.436582     -1.894257
  H      -3.281478      1.276531     -0.297320
  H      -2.941718      2.207757     -1.795137
  Li     -0.057812      1.493498     -2.593583
  C      -2.061314      2.598081     -4.683543
  O      -0.940897      2.750288     -3.809332
  C      -0.419249      4.081617     -3.758347
  C       0.937030      4.004664     -3.080860
  O       0.917684      3.182173     -1.908672
  C       0.274722      3.785524     -0.784689
  H      -2.331263      1.536996     -4.647832
  H      -2.902521      3.223213     -4.344097
  H      -1.774391      2.874473     -5.708924
  H      -1.120228      4.744238     -3.225711
  H      -0.292979      4.465058     -4.785975
  H       1.646178      3.511087     -3.757595
  H       1.296457      5.015566     -2.825603
  H       0.734646      4.760150     -0.565577
  H      -0.805618      3.913990     -0.948029
  H       0.422102      3.106063      0.058643
33
Coordinates from ORCA-job DME_m1_shell2_reduced_opt_relaxed E -625.084520418133
  C       2.497547      0.141009     -1.523367
  O       1.067759      0.144370     -1.543871
  C       0.462837     -0.152879     -0.291099
  C      -1.036042     -0.136504     -0.504229
  O      -1.379172      1.122414     -1.110062
  C      -2.783687      1.247340     -1.343056
  H       2.814483      0.381856     -2.542874
  H       2.880341      0.902759     -0.828505
  H       2.866357     -0.855015     -1.239263
  H       0.759165      0.589744      0.468137
  H       0.776792     -1.153193      0.051418
  H      -1.329385     -0.955549     -1.179692
  H      -1.561245     -0.228432      0.460399
  H      -3.136968      0.451958     -2.017628
  H      -3.327735      1.208694     -0.387431
  H      -2.941487      2.217181     -1.820696
  Li     -0.036147      1.477881     -2.593607
  C      -2.096689      2.591976     -4.628703
  O      -0.961603      2.752633     -3.771839
  C      -0.441300      4.082055     -3.745947
  C       0.925323      4.004875     -3.099537
  O       0.922663      3.198284     -1.916075
  C       0.333572      3.839731     -0.784214
  H      -2.351222      1.527569     -4.597043
  H      -2.939450      3.202230     -4.269343
  H      -1.832768      2.878604     -5.656141
  H      -1.129461      4.750831     -3.204896
  H      -0.330020      4.453095     -4.779435
  H       1.616800      3.496064     -3.783259
  H       1.292752      5.016872     -2.865422
  H       0.812485      4.812893     -0.607162
  H      -0.750923      3.973897     -0.905464
  H       0.509772      3.181120      0.070554
33
Coordinates from ORCA-job DME_m1_shell2_reduced_opt_relaxed E -625.084786368386
  C       2.500371      0.125149     -1.510736
  O       1.069840      0.138931     -1.543592
  C       0.466873     -0.163668     -0.292236
  C      -1.026027     -0.128461     -0.501125
  O      -1.359310      1.127705     -1.114699
  C      -2.767730      1.252485     -1.333431
  H       2.828441      0.360898     -2.527531
  H       2.880992      0.885851     -0.814044
  H       2.861521     -0.871093     -1.220193
  H       0.779267      0.566800      0.472014
  H       0.763671     -1.171426      0.043257
  H      -1.333357     -0.947884     -1.169476
  H      -1.545243     -0.212536      0.467319
  H      -3.124282      0.463076     -2.012786
  H      -3.303745      1.201129     -0.374536
  H      -2.932754      2.226844     -1.798054
  Li     -0.021009      1.475410     -2.615021
  C      -2.104121      2.603385     -4.631999
  O      -0.979130      2.763469     -3.758960
  C      -0.446263      4.090777     -3.752152
  C       0.925291      4.014261     -3.101925
  O       0.926950      3.200908     -1.920349
  C       0.312665      3.830062     -0.793440
  H      -2.361791      1.539954     -4.605284
  H      -2.949589      3.215872     -4.284573
  H      -1.827102      2.886789     -5.656232
  H      -1.130222      4.773531     -3.224094
  H      -0.326774      4.446823     -4.789331
  H       1.619303      3.512607     -3.787770
  H       1.290883      5.026699     -2.866429
  H       0.758734      4.818426     -0.616744
  H      -0.774252      3.931456     -0.921795
  H       0.501242      3.182136      0.066593
33
Coordinates from ORCA-job DME_m1_shell2_reduced_opt_relaxed E -625.084906371731
  C       2.500023      0.122110     -1.511405
  O       1.070029      0.134117     -1.549910
  C       0.470049     -0.172816     -0.297567
  C      -1.022817     -0.141038     -0.502067
  O      -1.352569      1.117164     -1.108288
  C      -2.762360      1.258209     -1.306975
  H       2.834721      0.354167     -2.526850
  H       2.876836      0.883538     -0.813241
  H       2.863559     -0.872269     -1.216877
  H       0.782300      0.558909      0.465529
  H       0.769083     -1.178955      0.040833
  H      -1.336447     -0.958870     -1.169349
  H      -1.536551     -0.234170      0.468987
  H      -3.134136      0.483723     -1.995143
  H      -3.289253      1.191273     -0.343777
  H      -2.925721      2.243993     -1.748516
  Li     -0.021488      1.472962     -2.614414
  C      -2.097230      2.608191     -4.641954
  O      -0.979028      2.766808     -3.760390
  C      -0.442196      4.092634     -3.758880
  C       0.926927      4.015579     -3.101978
  O       0.919579      3.202884     -1.920468
  C       0.291544      3.835175     -0.802133
  H      -2.360912      1.546198     -4.618989
  H      -2.943372      3.224946     -4.303604
  H      -1.813447      2.887762     -5.665643
  H      -1.127378      4.777498     -3.235237
  H      -0.317761      4.450399     -4.794449
  H       1.626429      3.514752     -3.782591
  H       1.295854      5.027425     -2.868288
  H       0.743234      4.819243     -0.615461
  H      -0.791500      3.949360     -0.951383
  H       0.457342      3.185465      0.061124
33
Coordinates from ORCA-job DME_m1_shell2_reduced_opt_relaxed E -625.084964766701
  C       2.505552      0.112458     -1.499817
  O       1.076383      0.125045     -1.549689
  C       0.469625     -0.174803     -0.298514
  C      -1.021995     -0.141884     -0.509409
  O      -1.346314      1.116819     -1.114999
  C      -2.754488      1.261969     -1.318645
  H       2.849732      0.335729     -2.514097
  H       2.877590      0.878377     -0.803817
  H       2.867027     -0.879683     -1.194433
  H       0.777965      0.561836      0.461568
  H       0.766599     -1.178387      0.049319
  H      -1.334695     -0.959896     -1.177062
  H      -1.539430     -0.238652      0.459747
  H      -3.123515      0.497733     -2.019795
  H      -3.287684      1.179584     -0.359903
  H      -2.915240      2.255260     -1.744464
  Li     -0.008132      1.466885     -2.623488
  C      -2.106424      2.608823     -4.629633
  O      -0.989102      2.770395     -3.748969
  C      -0.449759      4.094971     -3.756018
  C       0.922992      4.018922     -3.106122
  O       0.921030      3.207542     -1.924622
  C       0.293890      3.839165     -0.805842
  H      -2.371797      1.547256     -4.603692
  H      -2.952218      3.228316     -4.294910
  H      -1.823387      2.882549     -5.655332
  H      -1.131433      4.782465     -3.231062
  H      -0.330560      4.451274     -4.792659
  H       1.620021      3.518260     -3.789604
  H       1.294870      5.030767     -2.876528
  H       0.748103      4.821853     -0.617147
  H      -0.788477      3.957270     -0.956604
  H       0.456614      3.188148      0.056887
33
Coordinates from ORCA-job DME_m1_shell2_reduced_opt_relaxed E -625.085026268241
  C       2.510284      0.101685     -1.498806
  O       1.081565      0.115817     -1.551601
  C       0.472766     -0.182157     -0.300322
  C      -1.020500     -0.146414     -0.509338
  O      -1.341874      1.110879     -1.116377
  C      -2.749062      1.265638     -1.315865
  H       2.858028      0.317282     -2.513545
  H       2.882247      0.870966     -0.806270
  H       2.869908     -0.889288     -1.186338
  H       0.780850      0.555899      0.458774
  H       0.770998     -1.184983      0.048515
  H      -1.338095     -0.966737     -1.172277
  H      -1.536535     -0.241337      0.461145
  H      -3.123297      0.511579     -2.025363
  H      -3.281856      1.172923     -0.357617
  H      -2.905675      2.265206     -1.728288
  Li      0.001965      1.462190     -2.626931
  C      -2.106808      2.611596     -4.626762
  O      -0.997673      2.778492     -3.738668
  C      -0.451889      4.099225     -3.760264
  C       0.917707      4.026166     -3.105488
  O       0.913494      3.215820     -1.924842
  C       0.283190      3.845208     -0.807430
  H      -2.379004      1.552079     -4.589902
  H      -2.952182      3.240515     -4.308318
  H      -1.813351      2.868517     -5.654149
  H      -1.132838      4.796234     -3.246696
  H      -0.328011      4.442961     -4.800792
  H       1.619148      3.527206     -3.786107
  H       1.287910      5.038651     -2.875533
  H       0.741778      4.824769     -0.612119
  H      -0.797535      3.970384     -0.964858
  H       0.437690      3.189397      0.053081
33
Coordinates from ORCA-job DME_m1_shell2_reduced_opt_relaxed E -625.085069934554
  C       2.512712      0.091951     -1.500139
  O       1.084395      0.108943     -1.551010
  C       0.475122     -0.182053     -0.298149
  C      -1.018182     -0.145092     -0.508112
  O      -1.337574      1.109638     -1.119669
  C      -2.743535      1.266573     -1.320736
  H       2.859562      0.301704     -2.516476
  H       2.888164      0.863401     -0.811806
  H       2.870233     -0.898758     -1.183665
  H       0.781951      0.560606      0.457165
  H       0.775656     -1.182465      0.055005
  H      -1.335426     -0.968418     -1.167805
  H      -1.536546     -0.236128      0.461536
  H      -3.119514      0.511246     -2.028054
  H      -3.277489      1.177855     -0.362593
  H      -2.897543      2.265054     -1.736647
  Li      0.012925      1.458847     -2.631989
  C      -2.108985      2.613340     -4.622804
  O      -1.005645      2.785572     -3.729765
  C      -0.454753      4.103669     -3.759939
  C       0.913956      4.031921     -3.103729
  O       0.910875      3.221000     -1.924518
  C       0.276551      3.844347     -0.806612
  H      -2.390395      1.556849     -4.570662
  H      -2.951771      3.254164     -4.321114
  H      -1.806060      2.850484     -5.652363
  H      -1.134123      4.806993     -3.252549
  H      -0.329986      4.438712     -4.803427
  H       1.616668      3.534379     -3.784342
  H       1.282610      5.044815     -2.872376
  H       0.737971      4.820929     -0.602404
  H      -0.802845      3.974817     -0.969236
  H       0.424366      3.181470      0.049631
33
Coordinates from ORCA-job DME_m1_shell2_reduced_opt_relaxed E -625.085107146700
  C       2.512351      0.083897     -1.510080
  O       1.083698      0.104430     -1.550953
  C       0.479319     -0.182107     -0.294732
  C      -1.015002     -0.146104     -0.500867
  O      -1.335721      1.105386     -1.117947
  C      -2.741830      1.262968     -1.315306
  H       2.851574      0.291812     -2.529417
  H       2.895156      0.855438     -0.826005
  H       2.868921     -0.907660     -1.195244
  H       0.787664      0.563558      0.457011
  H       0.783348     -1.181113      0.058807
  H      -1.333285     -0.972848     -1.155839
  H      -1.531873     -0.230582      0.469979
  H      -3.123236      0.499416     -2.010717
  H      -3.271562      1.189201     -0.353590
  H      -2.894800      2.255410     -1.745464
  Li      0.018512      1.457444     -2.631993
  C      -2.104757      2.617899     -4.627791
  O      -1.011052      2.795058     -3.723940
  C      -0.452973      4.109761     -3.762205
  C       0.912286      4.037557     -3.098916
  O       0.905013      3.225147     -1.920984
  C       0.263214      3.843915     -0.804898
  H      -2.400140      1.566458     -4.557306
  H      -2.943550      3.274677     -4.350217
  H      -1.785257      2.830058     -5.657752
  H      -1.131454      4.821093     -3.264820
  H      -0.321847      4.433273     -4.808675
  H       1.618301      3.540746     -3.776705
  H       1.278138      5.050623     -2.863786
  H       0.727201      4.817111     -0.590559
  H      -0.814137      3.980070     -0.976220
  H       0.401124      3.174374      0.047777
33
Coordinates from ORCA-job DME_m1_shell2_reduced_opt_relaxed E -625.084281826886
  C       2.540750      0.137776     -1.447306
  O       1.108650      0.113901     -1.509396
  C       0.494251     -0.142176     -0.247049
  C      -1.006142     -0.152199     -0.480151
  O      -1.345723      1.080828     -1.149295
  C      -2.754488      1.223363     -1.369935
  H       2.881075      0.319905     -2.476378
  H       2.890550      0.951817     -0.780628
  H       2.932850     -0.836323     -1.091358
  H       0.774114      0.638507      0.489195
  H       0.814623     -1.127608      0.151094
  H      -1.299323     -1.011685     -1.114805
  H      -1.529238     -0.210522      0.493001
  H      -3.119243      0.427875     -2.043414
  H      -3.292220      1.183823     -0.409447
  H      -2.918785      2.201893     -1.840591
  Li     -0.009945      1.388215     -2.709811
  C      -2.183196      2.721307     -4.631401
  O      -1.070556      2.833714     -3.730682
  C      -0.454684      4.129125     -3.750771
  C       0.936578      3.979268     -3.128414
  O       0.940580      3.134181     -1.967648
  C       0.293735      3.735939     -0.838708
  H      -2.519342      1.676502     -4.590189
  H      -2.996482      3.404035     -4.330733
  H      -1.863378      2.949707     -5.655001
  H      -1.092295      4.863716     -3.215173
  H      -0.334809      4.470774     -4.790297
  H       1.606020      3.465349     -3.844459
  H       1.346977      4.975956     -2.872624
  H       0.732370      4.728315     -0.637551
  H      -0.798079      3.842981     -0.986784
  H       0.468147      3.068108      0.017357
33
Coordinates from ORCA-job DME_m1_shell2_reduced_opt_relaxed E -625.085201083923
  C       2.530262      0.117023     -1.466498
  O       1.100644      0.113367     -1.522308
  C       0.482768     -0.166114     -0.273327
  C      -1.011517     -0.148846     -0.498145
  O      -1.336856      1.094578     -1.133233
  C      -2.741526      1.242730     -1.336778
  H       2.873085      0.328422     -2.481162
  H       2.894128      0.894917     -0.782667
  H       2.900341     -0.864824     -1.148322
  H       0.775800      0.585675      0.475891
  H       0.787015     -1.158803      0.093260
  H      -1.315254     -0.982917     -1.148568
  H      -1.535710     -0.224170      0.468796
  H      -3.116717      0.466701     -2.019930
  H      -3.271148      1.183313     -0.375721
  H      -2.897791      2.227655     -1.783525
  Li      0.005303      1.417001     -2.679556
  C      -2.149169      2.672433     -4.624772
  O      -1.050348      2.818491     -3.719755
  C      -0.454607      4.120031     -3.754154
  C       0.924467      4.003892     -3.117337
  O       0.923962      3.176418     -1.948745
  C       0.277916      3.789072     -0.831969
  H      -2.463900      1.624858     -4.565976
  H      -2.975548      3.341667     -4.339773
  H      -1.824693      2.891798     -5.650658
  H      -1.105605      4.846565     -3.238732
  H      -0.328556      4.448108     -4.797551
  H       1.605519      3.495648     -3.814258
  H       1.316076      5.006922     -2.874381
  H       0.725642      4.771830     -0.624798
  H      -0.801272      3.906208     -0.996528
  H       0.430633      3.126718      0.021829
33
Coordinates from ORCA-job DME_m1_shell2_reduced_opt_relaxed E -625.085119088658
  C       2.512832      0.104243     -1.492444
  O       1.085944      0.111534     -1.538454
  C       0.477677     -0.159315     -0.280573
  C      -1.013493     -0.142133     -0.501005
  O      -1.339543      1.100968     -1.128030
  C      -2.748128      1.249003     -1.333896
  H       2.852240      0.298221     -2.518782
  H       2.885655      0.893653     -0.818429
  H       2.878599     -0.882464     -1.156812
  H       0.770970      0.603790      0.462962
  H       0.788593     -1.151292      0.095726
  H      -1.315615     -0.973934     -1.156550
  H      -1.539245     -0.224886      0.465109
  H      -3.125998      0.475704     -2.021130
  H      -3.283624      1.188354     -0.372530
  H      -2.901503      2.232933     -1.777367
  Li      0.009300      1.434252     -2.659386
  C      -2.117203      2.641191     -4.630625
  O      -1.024679      2.804776     -3.725788
  C      -0.462930      4.112624     -3.751045
  C       0.911544      4.019660     -3.110549
  O       0.915922      3.195074     -1.938274
  C       0.292115      3.807470     -0.807413
  H      -2.414470      1.592901     -4.568600
  H      -2.952517      3.295916     -4.346889
  H      -1.798486      2.862712     -5.659775
  H      -1.129058      4.814191     -3.230410
  H      -0.347631      4.455009     -4.796021
  H       1.601040      3.523883     -3.804941
  H       1.289263      5.025331     -2.872287
  H       0.761413      4.774540     -0.595556
  H      -0.786599      3.946865     -0.962921
  H       0.440957      3.135595      0.043333
33
Coordinates from ORCA-job DME_m1_shell2_reduced_opt_relaxed E -625.085267912840
  C       2.516011      0.116822     -1.490885
  O       1.088515      0.115099     -1.533095
  C       0.483551     -0.165410     -0.278283
  C      -1.010238     -0.154872     -0.490430
  O      -1.346262      1.087647     -1.123131
  C      -2.754169      1.231724     -1.317404
  H       2.851020      0.321201     -2.512908
  H       2.886728      0.901448     -0.813890
  H       2.887058     -0.867188     -1.166200
  H       0.778705      0.591729      0.466186
  H       0.795411     -1.156593      0.088568
  H      -1.314987     -0.993322     -1.137986
  H      -1.525837     -0.233467      0.480682
  H      -3.134484      0.448869     -1.994885
  H      -3.277098      1.177488     -0.350786
  H      -2.916113      2.215213     -1.769485
  Li     -0.006761      1.425916     -2.661576
  C      -2.126244      2.666338     -4.639594
  O      -1.033735      2.816709     -3.727959
  C      -0.444005      4.118768     -3.760429
  C       0.923659      4.009369     -3.110499
  O       0.907936      3.186698     -1.940751
  C       0.273953      3.805968     -0.819428
  H      -2.445663      1.619950     -4.573645
  H      -2.953712      3.341146     -4.365511
  H      -1.794477      2.876322     -5.666427
  H      -1.101054      4.841481     -3.253063
  H      -0.310135      4.448358     -4.802834
  H       1.611094      3.501650     -3.795794
  H       1.312233      5.012737     -2.869900
  H       0.739244      4.780721     -0.610405
  H      -0.806498      3.939864     -0.982547
  H       0.419698      3.137986      0.034942
33
Coordinates from ORCA-job DME_m1_shell2_reduced_opt_relaxed E -625.085178791328
  C       2.528546      0.145719     -1.457665
  O       1.098901      0.123258     -1.517215
  C       0.481775     -0.154627     -0.267012
  C      -1.012624     -0.156655     -0.499712
  O      -1.347896      1.082673     -1.133472
  C      -2.755654      1.224288     -1.337958
  H       2.871252      0.364972     -2.469191
  H       2.881237      0.924886     -0.770535
  H       2.912371     -0.830549     -1.143355
  H       0.760347      0.609465      0.479777
  H       0.799544     -1.142018      0.111762
  H      -1.302337     -0.992489     -1.154816
  H      -1.542708     -0.239657      0.464084
  H      -3.129529      0.444782     -2.016778
  H      -3.286243      1.169260     -0.376444
  H      -2.915719      2.204513     -1.789000
  Li     -0.013041      1.402787     -2.686244
  C      -2.156807      2.690770     -4.627111
  O      -1.054379      2.822975     -3.724122
  C      -0.450058      4.119320     -3.749256
  C       0.935046      3.980613     -3.125507
  O       0.926333      3.154560     -1.956904
  C       0.294741      3.776257     -0.838559
  H      -2.480659      1.646512     -4.572762
  H      -2.976994      3.365658     -4.336439
  H      -1.834512      2.911329     -5.653789
  H      -1.090674      4.846942     -3.214619
  H      -0.332993      4.461039     -4.792903
  H       1.602428      3.459542     -3.830720
  H       1.348499      4.976692     -2.885018
  H       0.758890      4.747718     -0.627963
  H      -0.778625      3.911987     -1.003303
  H       0.434884      3.113844      0.013394
33
Coordinates from ORCA-job DME_m1_shell2_reduced_opt_relaxed E -625.085319816993
  C       2.522867      0.135770     -1.467443
  O       1.094308      0.120811     -1.522617
  C       0.479411     -0.158209     -0.272473
  C      -1.013371     -0.154268     -0.497784
  O      -1.347526      1.086055     -1.131068
  C      -2.754316      1.228035     -1.328848
  H       2.864807      0.344336     -2.485167
  H       2.880128      0.921942     -0.786784
  H       2.902047     -0.843123     -1.141809
  H       0.764255      0.601172      0.473145
  H       0.792175     -1.146585      0.101103
  H      -1.308263     -0.990094     -1.149884
  H      -1.538824     -0.235580      0.468072
  H      -3.131969      0.447153     -2.004990
  H      -3.280327      1.174265     -0.364620
  H      -2.914084      2.208816     -1.781354
  Li     -0.011076      1.408745     -2.681293
  C      -2.141511      2.680452     -4.634861
  O      -1.047655      2.822850     -3.725110
  C      -0.452523      4.120732     -3.752535
  C       0.926065      3.994030     -3.122478
  O       0.920094      3.165346     -1.954453
  C       0.293737      3.783212     -0.828438
  H      -2.459937      1.635680     -4.576092
  H      -2.966235      3.351639     -4.353738
  H      -1.813454      2.897503     -5.660499
  H      -1.098203      4.842333     -3.226854
  H      -0.332015      4.459808     -4.794813
  H       1.599393      3.481857     -3.823670
  H       1.327974      4.992345     -2.881751
  H       0.756260      4.760328     -0.624893
  H      -0.788867      3.912094     -0.981012
  H       0.449979      3.116918      0.025657
33
Coordinates from ORCA-job DME_m1_shell2_reduced_opt_relaxed E -625.085262132618
  C       2.512684      0.128239     -1.489492
  O       1.086206      0.118411     -1.531344
  C       0.484357     -0.157248     -0.273760
  C      -1.008006     -0.156517     -0.487342
  O      -1.352960      1.080947     -1.126672
  C      -2.763155      1.212589     -1.323979
  H       2.846701      0.325901     -2.515190
  H       2.878931      0.922676     -0.818791
  H       2.889535     -0.852593     -1.154375
  H       0.774725      0.608156      0.466325
  H       0.802098     -1.145172      0.101318
  H      -1.305303     -1.001136     -1.132466
  H      -1.524393     -0.234798      0.483896
  H      -3.136842      0.420602     -1.996559
  H      -3.287227      1.162755     -0.356487
  H      -2.932754      2.191242     -1.784970
  Li     -0.014293      1.415973     -2.669231
  C      -2.131827      2.680849     -4.636323
  O      -1.039569      2.824301     -3.722798
  C      -0.439256      4.121269     -3.757274
  C       0.929429      3.999118     -3.112892
  O       0.907057      3.177168     -1.943863
  C       0.282193      3.802488     -0.822359
  H      -2.461422      1.637857     -4.567148
  H      -2.953781      3.364660     -4.365875
  H      -1.796607      2.883054     -5.663974
  H      -1.087359      4.848978     -3.246019
  H      -0.307214      4.452003     -4.800292
  H       1.608217      3.484764     -3.800217
  H       1.330091      4.997869     -2.874723
  H       0.758089      4.767088     -0.606908
  H      -0.790001      3.950641     -0.986989
  H       0.414999      3.134233      0.027417
33
Coordinates from ORCA-job DME_m1_shell2_reduced_opt_relaxed E -625.085357382419
  C       2.517286      0.140094     -1.475396
  O       1.089864      0.122600     -1.525450
  C       0.481199     -0.155759     -0.271788
  C      -1.011376     -0.157631     -0.493291
  O      -1.352934      1.080244     -1.128778
  C      -2.762313      1.215506     -1.325481
  H       2.856248      0.348482     -2.494223
  H       2.875797      0.927275     -0.796810
  H       2.898317     -0.838011     -1.149970
  H       0.765183      0.608641      0.471082
  H       0.799804     -1.142555      0.104549
  H      -1.304167     -0.997775     -1.143144
  H      -1.534123     -0.240178      0.474138
  H      -3.138009      0.428404     -1.998552
  H      -3.287152      1.164398     -0.359332
  H      -2.928338      2.193945     -1.782807
  Li     -0.017294      1.408186     -2.677469
  C      -2.138228      2.685571     -4.636359
  O      -1.045390      2.825852     -3.724151
  C      -0.444734      4.121452     -3.754587
  C       0.930336      3.991357     -3.120548
  O       0.914393      3.166090     -1.951986
  C       0.292438      3.789151     -0.826983
  H      -2.466628      1.643110     -4.571053
  H      -2.959316      3.366977     -4.362364
  H      -1.805128      2.891647     -5.663521
  H      -1.088445      4.847229     -3.232292
  H      -0.320724      4.458591     -4.797426
  H       1.602946      3.475137     -3.817040
  H       1.337402      4.987886     -2.881898
  H       0.764271      4.759920     -0.619678
  H      -0.786872      3.929090     -0.982795
  H       0.439030      3.121438      0.026048
33
Coordinates from ORCA-job DME_m1_shell2_reduced_opt_relaxed E -625.085364679176
  C       2.519118      0.152092     -1.467125
  O       1.090991      0.126547     -1.521946
  C       0.479110     -0.154770     -0.271180
  C      -1.013471     -0.159617     -0.495713
  O      -1.356187      1.077844     -1.130724
  C      -2.764432      1.210605     -1.325264
  H       2.859468      0.358537     -2.486826
  H       2.870574      0.945719     -0.789609
  H       2.906266     -0.823578     -1.135670
  H       0.760333      0.607259      0.473379
  H       0.797724     -1.140918      0.103333
  H      -1.303035     -0.998598     -1.146793
  H      -1.538059     -0.243378      0.470256
  H      -3.139367      0.423326     -1.995721
  H      -3.287022      1.159682     -0.359182
  H      -2.931267      2.187637     -1.783506
  Li     -0.023460      1.400950     -2.684026
  C      -2.143616      2.693377     -4.636068
  O      -1.050875      2.829619     -3.723377
  C      -0.444345      4.122687     -3.752756
  C       0.933312      3.983419     -3.124754
  O       0.917761      3.156480     -1.956836
  C       0.299096      3.781659     -0.831564
  H      -2.472830      1.651779     -4.573443
  H      -2.962913      3.374216     -4.360497
  H      -1.810327      2.901685     -5.661819
  H      -1.082118      4.850776     -3.225871
  H      -0.322568      4.461107     -4.794918
  H       1.599704      3.463332     -3.825660
  H       1.347022      4.977463     -2.885925
  H       0.770469      4.753409     -0.627138
  H      -0.779985      3.920416     -0.983589
  H       0.448275      3.115601      0.021176
33
Coordinates from ORCA-job DME_m1_shell2_reduced_opt_relaxed E -625.085384808899
  C       2.516773      0.157629     -1.467459
  O       1.089323      0.128748     -1.521651
  C       0.479009     -0.152238     -0.269710
  C      -1.013132     -0.160695     -0.493882
  O      -1.359270      1.074936     -1.131269
  C      -2.768700      1.203294     -1.325944
  H       2.857143      0.365854     -2.486189
  H       2.866754      0.950240     -0.789928
  H       2.905542     -0.816522     -1.137632
  H       0.758669      0.612259      0.473538
  H       0.800370     -1.137191      0.107031
  H      -1.300434     -1.002149     -1.143650
  H      -1.537588     -0.244936      0.472474
  H      -3.141582      0.411801     -1.993734
  H      -3.291257      1.154767     -0.358960
  H      -2.939074      2.178360     -1.788333
  Li     -0.027247      1.397097     -2.686098
  C      -2.143495      2.698384     -4.635995
  O      -1.052327      2.833095     -3.721297
  C      -0.442372      4.123932     -3.752365
  C       0.935364      3.980238     -3.126187
  O       0.917628      3.153164     -1.958326
  C       0.302638      3.780108     -0.831831
  H      -2.477712      1.658648     -4.570514
  H      -2.960362      3.384001     -4.364762
  H      -1.807264      2.900903     -5.662157
  H      -1.076841      4.853590     -3.224495
  H      -0.321625      4.462577     -4.794735
  H       1.598924      3.458284     -3.828057
  H       1.353430      4.972366     -2.888385
  H       0.777363      4.750369     -0.627804
  H      -0.776630      3.922176     -0.981876
  H       0.451326      3.113275      0.020825
33
Coordinates from ORCA-job DME_m1_shell2_reduced_opt_relaxed E -625.085398997332
  C       2.512004      0.173891     -1.468145
  O       1.085331      0.134661     -1.522460
  C       0.478012     -0.149682     -0.269556
  C      -1.013688     -0.165836     -0.493703
  O      -1.366780      1.067154     -1.130482
  C      -2.778431      1.187307     -1.322672
  H       2.851994      0.383687     -2.486460
  H       2.856232      0.969243     -0.791124
  H       2.907928     -0.796852     -1.137540
  H       0.753633      0.617489      0.473463
  H       0.806380     -1.132611      0.107940
  H      -1.295779     -1.008847     -1.143932
  H      -1.538616     -0.254855      0.471852
  H      -3.148848      0.391443     -1.987024
  H      -3.299509      1.139558     -0.354365
  H      -2.955068      2.158955     -1.787960
  Li     -0.037047      1.390530     -2.686800
  C      -2.144630      2.708435     -4.634271
  O      -1.054173      2.838855     -3.717414
  C      -0.433696      4.124674     -3.753703
  C       0.942776      3.971426     -3.128613
  O       0.916134      3.147350     -1.959973
  C       0.307901      3.780135     -0.833374
  H      -2.493865      1.673298     -4.559158
  H      -2.954039      3.409038     -4.372857
  H      -1.802223      2.894352     -5.662326
  H      -1.061134      4.860956     -3.226138
  H      -0.312530      4.460933     -4.797181
  H       1.600918      3.442705     -3.829270
  H       1.371331      4.959492     -2.893693
  H       0.790812      4.746850     -0.630422
  H      -0.771235      3.929989     -0.981859
  H       0.453249      3.112645      0.019864
33
Coordinates from ORCA-job DME_m1_shell2_reduced_opt_relaxed E -625.085405351656
  C       2.509872      0.181427     -1.467965
  O       1.083570      0.137521     -1.522265
  C       0.477212     -0.148726     -0.269119
  C      -1.014484     -0.167563     -0.492214
  O      -1.370741      1.064439     -1.131167
  C      -2.782492      1.180744     -1.322442
  H       2.849545      0.391235     -2.486425
  H       2.851364      0.978550     -0.792025
  H       2.908642     -0.787539     -1.136211
  H       0.752409      0.618220      0.474012
  H       0.807145     -1.131394      0.107406
  H      -1.295379     -1.012711     -1.140915
  H      -1.538287     -0.256297      0.474262
  H      -3.150816      0.381236     -1.983725
  H      -3.302105      1.134853     -0.353325
  H      -2.962359      2.150906     -1.791603
  Li     -0.041980      1.386295     -2.688549
  C      -2.144267      2.713103     -4.633738
  O      -1.056123      2.842645     -3.714443
  C      -0.431718      4.126036     -3.753014
  C       0.945205      3.967635     -3.130042
  O       0.917348      3.143162     -1.961169
  C       0.311630      3.778634     -0.834607
  H      -2.495563      1.679733     -4.557545
  H      -2.951758      3.415219     -4.375869
  H      -1.799627      2.895896     -5.661061
  H      -1.055389      4.864593     -3.225082
  H      -0.311335      4.461048     -4.796635
  H       1.600297      3.436541     -3.832205
  H       1.377737      4.954024     -2.895675
  H       0.796979      4.744025     -0.632315
  H      -0.766470      3.931645     -0.982048
  H       0.455282      3.111231      0.018365
33
Coordinates from ORCA-job DME_m1_shell2_reduced_opt_relaxed E -625.085409980385
  C       2.510030      0.182725     -1.467704
  O       1.083586      0.137916     -1.522726
  C       0.476788     -0.149975     -0.270105
  C      -1.014968     -0.167866     -0.493350
  O      -1.370475      1.064686     -1.131307
  C      -2.782047      1.181287     -1.322922
  H       2.849967      0.391866     -2.486430
  H       2.850573      0.980858     -0.792040
  H       2.909463     -0.785982     -1.134863
  H       0.752456      0.615359      0.474195
  H       0.806283     -1.133310      0.104499
  H      -1.296365     -1.012084     -1.142671
  H      -1.538900     -0.257023      0.472964
  H      -3.150097      0.382727     -1.985227
  H      -3.302057      1.134167     -0.354124
  H      -2.961456      2.151937     -1.790904
  Li     -0.041191      1.386218     -2.687810
  C      -2.145161      2.712487     -4.630999
  O      -1.056301      2.842351     -3.712481
  C      -0.430761      4.125338     -3.753353
  C       0.946234      3.967491     -3.130004
  O       0.918703      3.143730     -1.960534
  C       0.311008      3.779414     -0.835092
  H      -2.497729      1.679630     -4.552892
  H      -2.951580      3.416188     -4.373962
  H      -1.800714      2.893076     -5.658721
  H      -1.054142      4.865222     -3.226926
  H      -0.310070      4.458052     -4.797571
  H       1.601705      3.436108     -3.831694
  H       1.378267      4.954200     -2.896012
  H       0.795535      4.745202     -0.632564
  H      -0.766824      3.931898     -0.984220
  H       0.453589      3.112474      0.018197
33
Coordinates from ORCA-job DME_m1_shell2_reduced_opt_relaxed E -625.085420060612
  C       2.508113      0.190912     -1.470381
  O       1.081504      0.141341     -1.525712
  C       0.475483     -0.154133     -0.274045
  C      -1.016797     -0.170679     -0.496438
  O      -1.371852      1.063969     -1.130437
  C      -2.783059      1.181387     -1.321654
  H       2.847212      0.400026     -2.489661
  H       2.845622      0.991246     -0.795062
  H       2.910964     -0.776690     -1.136662
  H       0.752451      0.606350      0.474658
  H       0.805706     -1.139996      0.093196
  H      -1.299604     -1.012494     -1.147979
  H      -1.539844     -0.262117      0.469998
  H      -3.150902      0.385952     -1.986837
  H      -3.302987      1.130017     -0.353609
  H      -2.961735      2.153619     -1.785166
  Li     -0.041814      1.386506     -2.682046
  C      -2.145804      2.710470     -4.622105
  O      -1.054475      2.840866     -3.706212
  C      -0.424080      4.121838     -3.755542
  C       0.951934      3.965421     -3.128863
  O       0.922908      3.145471     -1.956783
  C       0.307489      3.783178     -0.836507
  H      -2.504132      1.680173     -4.536410
  H      -2.947466      3.420846     -4.368809
  H      -1.801852      2.882039     -5.651345
  H      -1.046572      4.867356     -3.235725
  H      -0.300864      4.445739     -4.801962
  H       1.609300      3.431773     -3.826976
  H       1.382873      4.953203     -2.896561
  H       0.790563      4.749566     -0.633047
  H      -0.769237      3.935527     -0.993422
  H       0.444299      3.117683      0.018753
33
Coordinates from ORCA-job DME_m1_shell2_reduced_opt_relaxed E -625.085422912440
  C       2.507392      0.195259     -1.470979
  O       1.080788      0.143318     -1.526632
  C       0.474968     -0.155707     -0.275642
  C      -1.017335     -0.171867     -0.497803
  O      -1.372183      1.063623     -1.130050
  C      -2.783587      1.181144     -1.321808
  H       2.846437      0.405119     -2.490040
  H       2.843280      0.995800     -0.795441
  H       2.911743     -0.771643     -1.137660
  H       0.752065      0.602584      0.474971
  H       0.805380     -1.142493      0.088503
  H      -1.300489     -1.012461     -1.150499
  H      -1.540231     -0.264576      0.468557
  H      -3.151057      0.385827     -1.988033
  H      -3.304138      1.129045     -0.353750
  H      -2.962311      2.154021     -1.784780
  Li     -0.041952      1.385855     -2.679960
  C      -2.146497      2.710387     -4.617220
  O      -1.053968      2.840475     -3.702607
  C      -0.421169      4.120054     -3.756397
  C       0.954717      3.963954     -3.128869
  O       0.925322      3.145815     -1.955491
  C       0.306142      3.784036     -0.837353
  H      -2.508176      1.681548     -4.527821
  H      -2.945618      3.424414     -4.365615
  H      -1.802827      2.877398     -5.647421
  H      -1.042693      4.868369     -3.239373
  H      -0.297169      4.439868     -4.804101
  H       1.612517      3.429139     -3.825939
  H       1.385540      4.952129     -2.897889
  H       0.788501      4.750578     -0.633028
  H      -0.770189      3.936243     -0.998155
  H       0.440142      3.119109      0.018973
33
Coordinates from ORCA-job DME_m1_shell2_reduced_opt_relaxed E -625.085424564234
  C       2.506677      0.198169     -1.472150
  O       1.080204      0.145014     -1.527186
  C       0.474977     -0.155934     -0.276313
  C      -1.017335     -0.172756     -0.498464
  O      -1.372654      1.063380     -1.129950
  C      -2.783979      1.181533     -1.321262
  H       2.845095      0.409339     -2.490975
  H       2.842093      0.998093     -0.796245
  H       2.911657     -0.768506     -1.140200
  H       0.751474      0.602108      0.475219
  H       0.806014     -1.143255      0.086896
  H      -1.300166     -1.013199     -1.151947
  H      -1.539975     -0.266016      0.468077
  H      -3.152063      0.387246     -1.988341
  H      -3.304233      1.128479     -0.353198
  H      -2.962374      2.155103     -1.782726
  Li     -0.042764      1.385438     -2.678530
  C      -2.146438      2.710520     -4.614645
  O      -1.052716      2.839638     -3.701281
  C      -0.418625      4.118357     -3.757204
  C       0.956664      3.962567     -3.128517
  O       0.926634      3.145599     -1.954454
  C       0.304154      3.783656     -0.837974
  H      -2.509688      1.682352     -4.524006
  H      -2.944128      3.426021     -4.362567
  H      -1.803699      2.876383     -5.645382
  H      -1.039737      4.868275     -3.242236
  H      -0.293483      4.435920     -4.805535
  H       1.614902      3.427042     -3.824450
  H       1.387074      4.951164     -2.898399
  H       0.785416      4.750606     -0.632700
  H      -0.771999      3.935049     -1.001814
  H       0.436366      3.118983      0.019106
33
Coordinates from ORCA-job DME_m1_shell2_reduced_opt_relaxed E -625.085425237141
  C       2.506874      0.198910     -1.471754
  O       1.080438      0.145560     -1.526918
  C       0.475048     -0.155770     -0.276377
  C      -1.017209     -0.173267     -0.498954
  O      -1.372840      1.063210     -1.129753
  C      -2.784230      1.181658     -1.320825
  H       2.845347      0.410906     -2.490293
  H       2.842051      0.998393     -0.795359
  H       2.911918     -0.767813     -1.140455
  H       0.750639      0.602517      0.475277
  H       0.806246     -1.142950      0.087093
  H      -1.299425     -1.013388     -1.153145
  H      -1.540063     -0.267243      0.467356
  H      -3.152685      0.387591     -1.988352
  H      -3.304331      1.128361     -0.352574
  H      -2.962734      2.155687     -1.781832
  Li     -0.043427      1.385112     -2.678382
  C      -2.146639      2.710974     -4.614247
  O      -1.052365      2.839381     -3.701514
  C      -0.418111      4.117878     -3.757528
  C       0.957088      3.961796     -3.128787
  O       0.926630      3.145346     -1.954548
  C       0.303866      3.783417     -0.838337
  H      -2.509471      1.682656     -4.524493
  H      -2.944404      3.425784     -4.360637
  H      -1.804798      2.878213     -5.645079
  H      -1.038935      4.868180     -3.242639
  H      -0.292728      4.435383     -4.805963
  H       1.615029      3.425677     -3.824586
  H       1.387896      4.950428     -2.899252
  H       0.785055      4.750309     -0.632916
  H      -0.772317      3.934597     -1.002630
  H       0.435931      3.118870      0.019049
