11
Coordinates from ORCA-job DMSO_m1_cation_opt E -560.504728989366
  C      -1.332623      0.204416     -0.217704
  S      -0.184923     -0.760702      0.808868
  C       1.328935     -0.345389     -0.106739
  O      -0.065179      0.075340      2.077878
  H      -1.002960      1.237952     -0.273086
  H      -1.372178     -0.235758     -1.208446
  H      -2.319178      0.152969      0.234220
  H       2.175277     -0.773798      0.422734
  H       1.270913     -0.783319     -1.097554
  H       1.439669      0.733186     -0.173058
  Li      0.062443      0.969532      3.435740
11
Coordinates from ORCA-job DMSO_m1_cation_opt E -560.506360996468
  C      -1.348017      0.208401     -0.228681
  S      -0.178943     -0.728166      0.803909
  C       1.344570     -0.347377     -0.114825
  O      -0.064058      0.090939      2.102705
  H      -1.024391      1.250654     -0.293103
  H      -1.386271     -0.247680     -1.222561
  H      -2.335127      0.143234      0.235852
  H       2.184532     -0.787503      0.428483
  H       1.281077     -0.800033     -1.108970
  H       1.464504      0.736689     -0.189857
  Li      0.062320      0.955270      3.489902
11
Coordinates from ORCA-job DMSO_m1_cation_opt E -560.506859191969
  C      -1.351373      0.210834     -0.234921
  S      -0.177712     -0.719074      0.797911
  C       1.348292     -0.345924     -0.119222
  O      -0.064782      0.097917      2.111297
  H      -1.027824      1.254905     -0.303723
  H      -1.386695     -0.254534     -1.226534
  H      -2.335688      0.138025      0.236763
  H       2.181597     -0.791098      0.432216
  H       1.280077     -0.806360     -1.111417
  H       1.468888      0.739727     -0.198810
  Li      0.065415      0.950012      3.519294
11
Coordinates from ORCA-job DMSO_m1_cation_opt E -560.507224945101
  C      -1.353578      0.213632     -0.240338
  S      -0.177773     -0.715931      0.790127
  C       1.351020     -0.343329     -0.122401
  O      -0.067104      0.103233      2.112966
  H      -1.029010      1.256778     -0.314080
  H      -1.387070     -0.260699     -1.227698
  H      -2.333638      0.135665      0.238455
  H       2.177177     -0.791043      0.436947
  H       1.279210     -0.811319     -1.110749
  H       1.470344      0.741821     -0.206954
  Li      0.070616      0.945621      3.546580
11
Coordinates from ORCA-job DMSO_m1_cation_opt E -560.507469126177
  C      -1.354495      0.215219     -0.243834
  S      -0.178798     -0.717043      0.785084
  C       1.352095     -0.341048     -0.123496
  O      -0.070427      0.106136      2.108835
  H      -1.028000      1.256208     -0.322606
  H      -1.389441     -0.265330     -1.227313
  H      -2.331441      0.137931      0.239656
  H       2.174666     -0.787102      0.440959
  H       1.280253     -0.814822     -1.108272
  H       1.469174      0.742833     -0.212786
  Li      0.076607      0.941449      3.566625
11
Coordinates from ORCA-job DMSO_m1_cation_opt E -560.507678397865
  C      -1.354553      0.215225     -0.247005
  S      -0.180539     -0.718729      0.783696
  C       1.351491     -0.339290     -0.123233
  O      -0.074809      0.109055      2.101639
  H      -1.025526      1.253822     -0.331628
  H      -1.393648     -0.270011     -1.227160
  H      -2.330013      0.143806      0.238940
  H       2.174028     -0.779982      0.444278
  H       1.282833     -0.818119     -1.104948
  H       1.465916      0.743363     -0.217800
  Li      0.085015      0.935291      3.586075
11
Coordinates from ORCA-job DMSO_m1_cation_opt E -560.507799767381
  C      -1.354095      0.213529     -0.249949
  S      -0.182334     -0.717578      0.786770
  C       1.349322     -0.338718     -0.122141
  O      -0.078614      0.113328      2.096160
  H      -1.023533      1.251048     -0.339253
  H      -1.396732     -0.274124     -1.228487
  H      -2.330515      0.149512      0.235025
  H       2.174785     -0.773207      0.445840
  H       1.284931     -0.820567     -1.102400
  H       1.462203      0.743544     -0.220910
  Li      0.094778      0.927664      3.602197
11
Coordinates from ORCA-job DMSO_m1_cation_opt E -560.507845872530
  C      -1.353645      0.211567     -0.251978
  S      -0.183413     -0.714262      0.790974
  C       1.347114     -0.339063     -0.121214
  O      -0.080643      0.118508      2.094824
  H      -1.023556      1.249544     -0.342887
  H      -1.396118     -0.276492     -1.230484
  H      -2.332150      0.151112      0.229925
  H       2.175362     -0.770672      0.445475
  H       1.284625     -0.821211     -1.101620
  H       1.460308      0.743470     -0.221401
  Li      0.102311      0.921929      3.611241
11
Coordinates from ORCA-job DMSO_m1_cation_opt E -560.507877827812
  C      -1.353327      0.209736     -0.253643
  S      -0.184274     -0.710422      0.794881
  C       1.345093     -0.339591     -0.120314
  O      -0.082211      0.125102      2.094905
  H      -1.024802      1.248718     -0.344647
  H      -1.393178     -0.278184     -1.232560
  H      -2.334122      0.150227      0.224404
  H       2.175373     -0.770484      0.444528
  H       1.282758     -0.820828     -1.101410
  H       1.459475      0.743320     -0.220519
  Li      0.109408      0.916834      3.617229
11
Coordinates from ORCA-job DMSO_m1_cation_opt E -560.507931501907
  C      -1.353174      0.206834     -0.256685
  S      -0.186025     -0.703611      0.800865
  C       1.341858     -0.340189     -0.118367
  O      -0.085516      0.139241      2.094791
  H      -1.027962      1.247573     -0.347465
  H      -1.386616     -0.281347     -1.236015
  H      -2.337697      0.147167      0.214481
  H       2.174567     -0.771145      0.443582
  H       1.278581     -0.819755     -1.100522
  H       1.458616      0.743188     -0.218282
  Li      0.123562      0.906472      3.626471
11
Coordinates from ORCA-job DMSO_m1_cation_opt E -560.508006474735
  C      -1.353702      0.203467     -0.261189
  S      -0.188894     -0.694603      0.807601
  C       1.338149     -0.340167     -0.114964
  O      -0.091558      0.161781      2.093100
  H      -1.032811      1.246058     -0.352451
  H      -1.377829     -0.286592     -1.240086
  H      -2.342342      0.142635      0.201704
  H       2.172558     -0.771743      0.444474
  H       1.273040     -0.818581     -1.097775
  H       1.457780      0.743422     -0.215216
  Li      0.145804      0.888752      3.637656
11
Coordinates from ORCA-job DMSO_m1_cation_opt E -560.508082069615
  C      -1.355029      0.201527     -0.265235
  S      -0.191600     -0.687922      0.811365
  C       1.336343     -0.338909     -0.111320
  O      -0.098787      0.183975      2.089374
  H      -1.036592      1.244628     -0.358520
  H      -1.372330     -0.292384     -1.242268
  H      -2.345404      0.139552      0.193478
  H       2.170137     -0.771302      0.448174
  H       1.269339     -0.818262     -1.093494
  H       1.457461      0.744321     -0.213129
  Li      0.166656      0.869205      3.644430
11
Coordinates from ORCA-job DMSO_m1_cation_opt E -560.508132389097
  C      -1.356665      0.202039     -0.267521
  S      -0.192768     -0.686376      0.810346
  C       1.337600     -0.336549     -0.109283
  O      -0.104193      0.195886      2.084879
  H      -1.036585      1.243540     -0.365041
  H      -1.374794     -0.297292     -1.241424
  H      -2.344987      0.141071      0.194693
  H       2.168663     -0.768530      0.453735
  H       1.270065     -0.820013     -1.089098
  H       1.457494      0.745804     -0.214517
  Li      0.176365      0.854850      3.646083
11
Coordinates from ORCA-job DMSO_m1_cation_opt E -560.508146984348
  C      -1.357575      0.203266     -0.268489
  S      -0.192665     -0.686922      0.808226
  C       1.339436     -0.334659     -0.109071
  O      -0.106140      0.197530      2.082419
  H      -1.034311      1.242827     -0.370528
  H      -1.380951     -0.300459     -1.239776
  H      -2.343027      0.145247      0.199607
  H       2.168548     -0.764714      0.457771
  H       1.272966     -0.822768     -1.086449
  H       1.457217      0.747034     -0.218053
  Li      0.176697      0.848049      3.647197
11
Coordinates from ORCA-job DMSO_m1_cation_opt E -560.508152027477
  C      -1.357837      0.204031     -0.268786
  S      -0.192195     -0.687202      0.807146
  C       1.340544     -0.333726     -0.109432
  O      -0.106312      0.196494      2.081721
  H      -1.032470      1.242481     -0.373786
  H      -1.385482     -0.302131     -1.238610
  H      -2.341479      0.148417      0.203287
  H       2.168928     -0.762238      0.459547
  H       1.275046     -0.824705     -1.085415
  H       1.457076      0.747711     -0.220757
  Li      0.174377      0.845297      3.647940
11
Coordinates from ORCA-job DMSO_m1_cation_opt E -560.508158662467
  C      -1.357931      0.204807     -0.269018
  S      -0.191371     -0.687070      0.806320
  C       1.341752     -0.332778     -0.110076
  O      -0.106015      0.195263      2.081262
  H      -1.030202      1.242061     -0.377801
  H      -1.390969     -0.304276     -1.237107
  H      -2.339504      0.152401      0.207785
  H       2.169651     -0.759427      0.461046
  H       1.277307     -0.826995     -1.084531
  H       1.457081      0.748438     -0.224106
  Li      0.170397      0.842004      3.649080
11
Coordinates from ORCA-job DMSO_m1_cation_opt E -560.508167664484
  C      -1.357841      0.205319     -0.269147
  S      -0.190409     -0.686332      0.806094
  C       1.342698     -0.332095     -0.110796
  O      -0.105230      0.195088      2.080980
  H      -1.028335      1.241646     -0.381578
  H      -1.395586     -0.306497     -1.235624
  H      -2.337711      0.155935      0.211654
  H       2.170494     -0.757268      0.461694
  H       1.278792     -0.828888     -1.084039
  H       1.457396      0.748966     -0.227069
  Li      0.165926      0.838553      3.650684
11
Coordinates from ORCA-job DMSO_m1_cation_opt E -560.508187860749
  C      -1.357483      0.205861     -0.269185
  S      -0.188599     -0.684307      0.806422
  C       1.343967     -0.331292     -0.112133
  O      -0.102980      0.196837      2.080457
  H      -1.025780      1.240909     -0.387679
  H      -1.401996     -0.310460     -1.233007
  H      -2.334956      0.161244      0.217270
  H       2.172033     -0.754575      0.461600
  H       1.280072     -0.831536     -1.083722
  H       1.458363      0.749540     -0.231589
  Li      0.157554      0.832210      3.654421
11
Coordinates from ORCA-job DMSO_m1_cation_opt E -560.508225615259
  C      -1.356735      0.206250     -0.268881
  S      -0.185727     -0.680264      0.807912
  C       1.345346     -0.330719     -0.114290
  O      -0.097965      0.202958      2.079311
  H      -1.023282      1.239927     -0.395602
  H      -1.408694     -0.316214     -1.229081
  H      -2.331562      0.167452      0.223780
  H       2.174312     -0.752260      0.459722
  H       1.279966     -0.834695     -1.083984
  H       1.460419      0.749769     -0.237519
  Li      0.144116      0.822224      3.661485
11
Coordinates from ORCA-job DMSO_m1_cation_opt E -560.508302115314
  C      -1.355298      0.206467     -0.267944
  S      -0.180525     -0.671047      0.812149
  C       1.347027     -0.330455     -0.118206
  O      -0.086363      0.220967      2.076077
  H      -1.020776      1.238238     -0.408596
  H      -1.416280     -0.326686     -1.221820
  H      -2.326813      0.176263      0.232332
  H       2.178108     -0.749791      0.454722
  H       1.277021     -0.839989     -1.084822
  H       1.464466      0.749273     -0.247731
  Li      0.119626      0.801188      3.676693
11
Coordinates from ORCA-job DMSO_m1_cation_opt E -560.508392678402
  C      -1.354004      0.206478     -0.266401
  S      -0.176081     -0.661084      0.817311
  C       1.347539     -0.331204     -0.121778
  O      -0.073238      0.244158      2.071968
  H      -1.020657      1.237220     -0.417576
  H      -1.417159     -0.335212     -1.215368
  H      -2.324605      0.181090      0.235962
  H       2.180910     -0.748503      0.449304
  H       1.271991     -0.845366     -1.085506
  H       1.467326      0.747597     -0.257402
  Li      0.098173      0.779255      3.692340
11
Coordinates from ORCA-job DMSO_m1_cation_opt E -560.508498698190
  C      -1.352239      0.207118     -0.262227
  S      -0.171099     -0.653586      0.821525
  C       1.347732     -0.333421     -0.126958
  O      -0.056421      0.265097      2.068262
  H      -1.020628      1.237314     -0.419549
  H      -1.412629     -0.339552     -1.208495
  H      -2.323641      0.183014      0.238042
  H       2.183692     -0.748000      0.441821
  H       1.266338     -0.851502     -1.087879
  H       1.468083      0.744375     -0.268586
  Li      0.071007      0.763571      3.706898
11
Coordinates from ORCA-job DMSO_m1_cation_opt E -560.508594805137
  C      -1.349745      0.208530     -0.255498
  S      -0.164157     -0.647824      0.825202
  C       1.348767     -0.336278     -0.134487
  O      -0.035027      0.283179      2.064402
  H      -1.018844      1.237841     -0.418162
  H      -1.408468     -0.341897     -1.199675
  H      -2.321463      0.185503      0.243382
  H       2.187642     -0.747178      0.432064
  H       1.261140     -0.859340     -1.091882
  H       1.468214      0.740390     -0.283222
  Li      0.032135      0.751501      3.720730
11
Coordinates from ORCA-job DMSO_m1_cation_opt E -560.508650414836
  C      -1.348283      0.209786     -0.251984
  S      -0.158237     -0.637513      0.830911
  C       1.350123     -0.337332     -0.139167
  O      -0.018442      0.307014      2.059273
  H      -1.018287      1.237872     -0.424047
  H      -1.409719     -0.348064     -1.191667
  H      -2.318582      0.190315      0.249765
  H       2.191065     -0.743769      0.427506
  H       1.257339     -0.868951     -1.091324
  H       1.470086      0.737844     -0.297831
  Li      0.003131      0.727227      3.731420
11
Coordinates from ORCA-job DMSO_m1_cation_opt E -560.508656490834
  C      -1.347083      0.210592     -0.248126
  S      -0.153944     -0.633321      0.834454
  C       1.350995     -0.339488     -0.143664
  O      -0.005311      0.319117      2.056141
  H      -1.019521      1.239827     -0.417933
  H      -1.405759     -0.345526     -1.189017
  H      -2.317834      0.187118      0.252438
  H       2.193149     -0.744153      0.422450
  H       1.254323     -0.875514     -1.092901
  H       1.470855      0.734917     -0.307348
  Li     -0.019676      0.720859      3.736358
11
Coordinates from ORCA-job DMSO_m1_cation_opt E -560.508658567063
  C      -1.348289      0.210064     -0.251589
  S      -0.156140     -0.629708      0.835935
  C       1.350414     -0.338494     -0.140895
  O      -0.010711      0.326185      2.054589
  H      -1.021434      1.239475     -0.422272
  H      -1.406534     -0.347751     -1.191455
  H      -2.319041      0.186803      0.249279
  H       2.191602     -0.742864      0.427073
  H       1.254679     -0.876475     -1.089193
  H       1.471324      0.735650     -0.306079
  Li     -0.005674      0.711543      3.737459
11
Coordinates from ORCA-job DMSO_m1_cation_opt E -560.508660872135
  C      -1.348334      0.210005     -0.251002
  S      -0.156484     -0.632952      0.834554
  C       1.350471     -0.339190     -0.141360
  O      -0.011754      0.320137      2.055692
  H      -1.021952      1.240433     -0.416121
  H      -1.404279     -0.343367     -1.193577
  H      -2.319788      0.183290      0.248234
  H       2.191377     -0.744436      0.426321
  H       1.255270     -0.875482     -1.090624
  H       1.470690      0.735287     -0.304500
  Li     -0.005024      0.720704      3.735237
11
Coordinates from ORCA-job DMSO_m1_cation_opt E -560.508661192907
  C      -1.348407      0.210080     -0.250638
  S      -0.156316     -0.633336      0.834578
  C       1.350585     -0.339716     -0.141789
  O      -0.011244      0.320018      2.055497
  H      -1.022653      1.241189     -0.412727
  H      -1.402855     -0.341031     -1.194580
  H      -2.320206      0.181178      0.247782
  H       2.191447     -0.744619      0.426184
  H       1.255387     -0.876547     -1.090727
  H       1.470382      0.734734     -0.305300
  Li     -0.005924      0.722478      3.734575
