11
Coordinates from ORCA-job DMSO_m1_dication_opt E -560.052192199348
  C          -1.43119185222624      0.17612508365141     -0.74521430923340
  S          -0.10001582539674     -0.54819180214702      0.25503122489371
  C           1.45531370772338     -0.41613580265554     -0.67127307056537
  O          -0.00099960894212      0.07383471521604      1.61934022491237
  H          -1.16385320501677      1.21626021362167     -0.96390356251665
  H          -1.51033577193351     -0.42511916265205     -1.65716871236737
  H          -2.34562643022946      0.10815760334553     -0.14876918316966
  H           2.23112269896348     -0.87363964898243     -0.05029195160827
  H           1.32578957235340     -0.96450418587071     -1.61011429250217
  H           1.65296297041522      0.64808834046650     -0.84396292511168
  Li         -0.11297025571065      1.47955264600661      8.71918155726848
