11
Coordinates from ORCA-job DMSO_m1_reduced_opt E -560.645510297764
  C      -1.348407      0.210080     -0.250638
  S      -0.156316     -0.633336      0.834578
  C       1.350585     -0.339716     -0.141789
  O      -0.011244      0.320018      2.055497
  H      -1.022653      1.241189     -0.412727
  H      -1.402855     -0.341031     -1.194580
  H      -2.320206      0.181178      0.247782
  H       2.191447     -0.744619      0.426184
  H       1.255387     -0.876547     -1.090727
  H       1.470382      0.734734     -0.305300
  Li     -0.005924      0.722478      3.734575
11
Coordinates from ORCA-job DMSO_m1_reduced_opt E -560.645888159330
  C      -1.344759      0.206041     -0.250690
  S      -0.158467     -0.642944      0.844305
  C       1.345734     -0.341826     -0.142486
  O      -0.010449      0.322257      2.049180
  H      -1.024083      1.240388     -0.399421
  H      -1.392346     -0.335470     -1.202135
  H      -2.318123      0.173016      0.242679
  H       2.186768     -0.751949      0.419982
  H       1.248099     -0.866313     -1.099646
  H       1.471310      0.733809     -0.290888
  Li     -0.003490      0.737420      3.731975
11
Coordinates from ORCA-job DMSO_m1_reduced_opt E -560.646263525775
  C      -1.344757      0.199735     -0.253415
  S      -0.159777     -0.648487      0.858657
  C       1.343685     -0.347502     -0.145830
  O      -0.007536      0.332275      2.039547
  H      -1.032826      1.238957     -0.382086
  H      -1.382864     -0.326846     -1.213926
  H      -2.320295      0.161502      0.235481
  H       2.185156     -0.764221      0.411392
  H       1.243110     -0.853859     -1.112639
  H       1.478496      0.729340     -0.272572
  Li     -0.002196      0.753535      3.738246
11
Coordinates from ORCA-job DMSO_m1_reduced_opt E -560.646427303475
  C      -1.346608      0.197326     -0.256075
  S      -0.159011     -0.644593      0.863600
  C       1.344735     -0.350805     -0.148707
  O      -0.004669      0.342255      2.035536
  H      -1.036717      1.238215     -0.378010
  H      -1.381168     -0.325002     -1.218225
  H      -2.322477      0.158057      0.232599
  H       2.186423     -0.767714      0.408498
  H       1.242732     -0.853070     -1.116693
  H       1.480879      0.726718     -0.270140
  Li     -0.003921      0.753042      3.750472
11
Coordinates from ORCA-job DMSO_m1_reduced_opt E -560.646657036899
  C      -1.348711      0.195373     -0.259979
  S      -0.156808     -0.633870      0.867422
  C       1.346245     -0.354498     -0.153095
  O       0.001170      0.362287      2.029519
  H      -1.037431      1.236823     -0.378524
  H      -1.379657     -0.326812     -1.220902
  H      -2.324503      0.156923      0.229525
  H       2.188800     -0.767454      0.406198
  H       1.241584     -0.858934     -1.118284
  H       1.478869      0.723856     -0.275939
  Li     -0.009362      0.740733      3.776913
11
Coordinates from ORCA-job DMSO_m1_reduced_opt E -560.646848599322
  C      -1.348731      0.195608     -0.262224
  S      -0.154278     -0.621647      0.868487
  C       1.346443     -0.355461     -0.156034
  O       0.007674      0.385100      2.023344
  H      -1.033535      1.235539     -0.386430
  H      -1.378490     -0.333550     -1.218768
  H      -2.324175      0.160140      0.228204
  H       2.190401     -0.761778      0.405924
  H       1.238689     -0.870018     -1.114962
  H       1.473026      0.722602     -0.289892
  Li     -0.016828      0.717893      3.805206
11
Coordinates from ORCA-job DMSO_m1_reduced_opt E -560.647020314300
  C      -1.347053      0.197982     -0.263214
  S      -0.150706     -0.604712      0.869914
  C       1.345793     -0.353730     -0.158133
  O       0.016410      0.417594      2.015441
  H      -1.027569      1.234264     -0.405541
  H      -1.379322     -0.347387     -1.210822
  H      -2.321521      0.169367      0.229134
  H       2.191877     -0.749824      0.407465
  H       1.234337     -0.887956     -1.106113
  H       1.466649      0.721883     -0.314836
  Li     -0.028698      0.676946      3.839559
11
Coordinates from ORCA-job DMSO_m1_reduced_opt E -560.647118211026
  C      -1.345282      0.200833     -0.262436
  S      -0.148168     -0.593184      0.871947
  C       1.345270     -0.350585     -0.158173
  O       0.021760      0.439572      2.011275
  H      -1.025505      1.233918     -0.424304
  H      -1.382884     -0.359425     -1.201861
  H      -2.318589      0.178754      0.232221
  H       2.192637     -0.740096      0.409831
  H       1.232148     -0.900590     -1.097601
  H       1.466488      0.721764     -0.334226
  Li     -0.037679      0.643466      3.856182
11
Coordinates from ORCA-job DMSO_m1_reduced_opt E -560.647245022115
  C      -1.342930      0.205411     -0.260265
  S      -0.144421     -0.576435      0.876952
  C       1.345000     -0.345106     -0.157032
  O       0.028689      0.470453      2.006774
  H      -1.026280      1.233563     -0.453894
  H      -1.390919     -0.377462     -1.186553
  H      -2.313979      0.193804      0.238968
  H       2.193707     -0.726576      0.414360
  H       1.230354     -0.917102     -1.084183
  H       1.471660      0.721289     -0.360878
  Li     -0.050683      0.592590      3.868605
11
Coordinates from ORCA-job DMSO_m1_reduced_opt E -560.647373486979
  C      -1.341590      0.208836     -0.257676
  S      -0.141217     -0.562581      0.883372
  C       1.345403     -0.340807     -0.155234
  O       0.034121      0.495499      2.003896
  H      -1.030306      1.233190     -0.476913
  H      -1.398916     -0.391407     -1.173060
  H      -2.310362      0.205836      0.246249
  H       2.194737     -0.717487      0.418653
  H       1.229673     -0.927982     -1.073441
  H       1.480035      0.720387     -0.378869
  Li     -0.061381      0.550944      3.865878
11
Coordinates from ORCA-job DMSO_m1_reduced_opt E -560.647585268169
  C      -1.340867      0.213000     -0.253254
  S      -0.135712     -0.537099      0.897359
  C       1.346834     -0.335730     -0.151518
  O       0.044244      0.541744      1.997704
  H      -1.038591      1.231427     -0.508748
  H      -1.411062     -0.412327     -1.151336
  H      -2.305613      0.223991      0.258782
  H       2.197035     -0.704598      0.426774
  H       1.228353     -0.943837     -1.056108
  H       1.493849      0.717568     -0.402364
  Li     -0.078275      0.480289      3.845565
11
Coordinates from ORCA-job DMSO_m1_reduced_opt E -560.647745001764
  C      -1.341888      0.214471     -0.249831
  S      -0.131316     -0.512380      0.912161
  C       1.348229     -0.334330     -0.147449
  O       0.054370      0.589056      1.988700
  H      -1.043798      1.228648     -0.526907
  H      -1.417553     -0.427736     -1.135028
  H      -2.303610      0.236714      0.267995
  H       2.199411     -0.694988      0.435021
  H       1.225700     -0.956534     -1.041393
  H       1.500477      0.714091     -0.415791
  Li     -0.089826      0.417415      3.815378
11
Coordinates from ORCA-job DMSO_m1_reduced_opt E -560.647858243697
  C      -1.344271      0.211458     -0.250105
  S      -0.131945     -0.508249      0.917667
  C       1.348459     -0.338330     -0.145654
  O       0.056446      0.603228      1.982831
  H      -1.042687      1.228062     -0.515707
  H      -1.412459     -0.425639     -1.138447
  H      -2.306717      0.232239      0.266487
  H       2.199620     -0.698355      0.437157
  H       1.223088     -0.955038     -1.041942
  H       1.495910      0.713196     -0.405803
  Li     -0.085248      0.411857      3.796372
11
Coordinates from ORCA-job DMSO_m1_reduced_opt E -560.647915671142
  C      -1.346122      0.207834     -0.251188
  S      -0.133757     -0.510713      0.919154
  C       1.347888     -0.343531     -0.145239
  O       0.056972      0.609303      1.976618
  H      -1.038243      1.228129     -0.495690
  H      -1.402176     -0.417995     -1.147422
  H      -2.310977      0.221945      0.260738
  H       2.199152     -0.704750      0.436176
  H       1.219603     -0.951048     -1.046551
  H       1.485832      0.712718     -0.392104
  Li     -0.077976      0.422537      3.788365
11
Coordinates from ORCA-job DMSO_m1_reduced_opt E -560.647923691785
  C      -1.346343      0.207492     -0.250894
  S      -0.134084     -0.510579      0.919689
  C       1.347598     -0.344482     -0.144787
  O       0.057651      0.614446      1.973945
  H      -1.037107      1.228340     -0.491150
  H      -1.398772     -0.416303     -1.148844
  H      -2.312235      0.219071      0.258851
  H       2.199058     -0.705733      0.436049
  H       1.218253     -0.951575     -1.046319
  H       1.482873      0.712266     -0.390767
  Li     -0.076697      0.421485      3.787083
11
Coordinates from ORCA-job DMSO_m1_reduced_opt E -560.647926172362
  C      -1.346500      0.207503     -0.250687
  S      -0.134648     -0.512026      0.919309
  C       1.347432     -0.344799     -0.144377
  O       0.057052      0.615083      1.973266
  H      -1.037256      1.228913     -0.488141
  H      -1.396823     -0.414338     -1.150312
  H      -2.313298      0.216526      0.257196
  H       2.198776     -0.707009      0.435873
  H       1.218020     -0.951288     -1.046503
  H       1.482094      0.712094     -0.389663
  Li     -0.074654      0.423769      3.786895
11
Coordinates from ORCA-job DMSO_m1_reduced_opt E -560.647926520200
  C      -1.346615      0.207631     -0.250614
  S      -0.134836     -0.511984      0.919458
  C       1.347406     -0.344713     -0.144034
  O       0.056675      0.616037      1.973112
  H      -1.037887      1.229163     -0.488083
  H      -1.396683     -0.414021     -1.150454
  H      -2.313652      0.216033      0.256804
  H       2.198617     -0.707155      0.436263
  H       1.218207     -0.951534     -1.046031
  H       1.482594      0.711957     -0.389849
  Li     -0.073632      0.423015      3.786284
