11
Coordinates from ORCA-job DMSO_m1_cation_opt E -560.508661192907
  C          -1.34840697309633      0.21008020438133     -0.25063776223858
  S          -0.15631601254869     -0.63333578407529      0.83457794372358
  C           1.35058476207961     -0.33971631599632     -0.14178934526834
  O          -0.01124372438368      0.32001840319592      2.05549671516445
  H          -1.02265310660041      1.24118915563958     -0.41272668900501
  H          -1.40285492332562     -0.34103091316242     -1.19458037733608
  H          -2.32020552466643      0.18117813250198      0.24778199018924
  H           2.19144656604644     -0.74461920494884      0.42618392168096
  H           1.25538655117068     -0.87654741734706     -1.09072694288937
  H           1.47038172640769      0.73473447625417     -0.30530023944599
  Li         -0.00592420468328      0.72247837695695      3.73457458732514
