11
Coordinates from ORCA-job DMSO_m1_reduced_opt E -560.647926520200
  C          -1.34661491873079      0.20763073652030     -0.25061391310908
  S          -0.13483564796358     -0.51198447639648      0.91945837033307
  C           1.34740626067731     -0.34471281514694     -0.14403421841871
  O           0.05667525083590      0.61603673789873      1.97311189974413
  H          -1.03788671945940      1.22916273169405     -0.48808270743086
  H          -1.39668299920690     -0.41402105340284     -1.15045429567047
  H          -2.31365228181704      0.21603344847491      0.25680381293452
  H           2.19861710733185     -0.70715492621019      0.43626257051268
  H           1.21820741361910     -0.95153448039047     -1.04603100761888
  H           1.48259419906830      0.71195745869650     -0.38984932056054
  Li         -0.07363166435474      0.42301463826243      3.78628380928413
