11
Coordinates from ORCA-job DMSO_m1_dication_opt E -559.995691936278
  C      -1.348407      0.210080     -0.250638
  S      -0.156316     -0.633336      0.834578
  C       1.350585     -0.339716     -0.141789
  O      -0.011244      0.320018      2.055497
  H      -1.022653      1.241189     -0.412727
  H      -1.402855     -0.341031     -1.194580
  H      -2.320206      0.181178      0.247782
  H       2.191447     -0.744619      0.426184
  H       1.255387     -0.876547     -1.090727
  H       1.470382      0.734734     -0.305300
  Li     -0.005924      0.722478      3.734575
11
Coordinates from ORCA-job DMSO_m1_dication_opt E -560.007127112183
  C      -1.425358      0.228933     -0.260797
  S      -0.131345     -0.522168      0.785989
  C       1.430586     -0.351724     -0.144496
  O      -0.006705      0.346401      2.061074
  H      -1.129659      1.268555     -0.449222
  H      -1.482613     -0.355399     -1.188127
  H      -2.380353      0.176777      0.275265
  H       2.244268     -0.773639      0.457142
  H       1.322207     -0.921987     -1.076028
  H       1.580854      0.717642     -0.338223
  Li     -0.021685      0.661036      3.780279
11
Coordinates from ORCA-job DMSO_m1_dication_opt E -560.012735910356
  C      -1.462665      0.240093     -0.269538
  S      -0.109369     -0.424262      0.749450
  C       1.471053     -0.355163     -0.149602
  O      -0.005361      0.357038      2.055296
  H      -1.184338      1.284471     -0.481888
  H      -1.510791     -0.377623     -1.176638
  H      -2.395788      0.171416      0.303105
  H       2.255135     -0.785835      0.484983
  H       1.338111     -0.953921     -1.061395
  H       1.639753      0.710457     -0.370674
  Li     -0.035543      0.607758      3.819757
11
Coordinates from ORCA-job DMSO_m1_dication_opt E -560.014861505881
  C      -1.474568      0.246986     -0.277497
  S      -0.095456     -0.359493      0.733446
  C       1.485192     -0.353668     -0.156641
  O      -0.005662      0.356846      2.056307
  H      -1.220955      1.293074     -0.513789
  H      -1.512247     -0.393067     -1.168773
  H      -2.390390      0.164242      0.319586
  H       2.245824     -0.789319      0.501612
  H       1.332907     -0.969489     -1.053425
  H       1.679085      0.703192     -0.400129
  Li     -0.043533      0.575124      3.862158
11
Coordinates from ORCA-job DMSO_m1_dication_opt E -560.015997107086
  C      -1.475639      0.251811     -0.284742
  S      -0.088211     -0.322753      0.728905
  C       1.487459     -0.350824     -0.164120
  O      -0.007032      0.350260      2.066249
  H      -1.252156      1.299378     -0.541462
  H      -1.503115     -0.400493     -1.166892
  H      -2.381848      0.154576      0.323926
  H       2.232868     -0.791829      0.507263
  H       1.322068     -0.974630     -1.052303
  H       1.711741      0.695638     -0.423685
  Li     -0.045939      0.563295      3.909715
11
Coordinates from ORCA-job DMSO_m1_dication_opt E -560.016992467245
  C      -1.472582      0.256919     -0.292398
  S      -0.084421     -0.299899      0.726626
  C       1.485114     -0.346858     -0.172465
  O      -0.010121      0.334442      2.081909
  H      -1.284644      1.305461     -0.569108
  H      -1.488633     -0.403386     -1.168888
  H      -2.374285      0.143061      0.319964
  H       2.220084     -0.794537      0.506128
  H       1.308921     -0.974776     -1.055238
  H       1.745053      0.687035     -0.445898
  Li     -0.044290      0.566967      3.972223
11
Coordinates from ORCA-job DMSO_m1_dication_opt E -560.017665410236
  C      -1.468813      0.259636     -0.296463
  S      -0.085577     -0.301985      0.723918
  C       1.481296     -0.344443     -0.177358
  O      -0.014025      0.313525      2.091928
  H      -1.300866      1.309243     -0.579527
  H      -1.477575     -0.399651     -1.174250
  H      -2.373522      0.134175      0.309455
  H       2.215427     -0.798536      0.498325
  H       1.301791     -0.969763     -1.061322
  H       1.761305      0.683096     -0.453123
  Li     -0.039245      0.589132      4.021271
11
Coordinates from ORCA-job DMSO_m1_dication_opt E -560.018338746660
  C      -1.464271      0.259755     -0.298461
  S      -0.090838     -0.325249      0.718550
  C       1.476060     -0.343632     -0.180148
  O      -0.019869      0.281789      2.095501
  H      -1.301086      1.311794     -0.574176
  H      -1.469696     -0.389920     -1.184211
  H      -2.377566      0.126560      0.293235
  H       2.216271     -0.804513      0.484794
  H       1.300358     -0.959933     -1.071637
  H       1.761081      0.684771     -0.446822
  Li     -0.030248      0.633007      4.066231
11
Coordinates from ORCA-job DMSO_m1_dication_opt E -560.018942283802
  C      -1.458748      0.256001     -0.299548
  S      -0.099749     -0.367199      0.710503
  C       1.469034     -0.344963     -0.181211
  O      -0.027929      0.239135      2.091036
  H      -1.280907      1.311523     -0.551761
  H      -1.466106     -0.374525     -1.199586
  H      -2.383561      0.121185      0.273755
  H       2.219937     -0.811309      0.467913
  H       1.305385     -0.945266     -1.086246
  H       1.739547      0.692762     -0.425944
  Li     -0.016706      0.697083      4.103943
11
Coordinates from ORCA-job DMSO_m1_dication_opt E -560.019274313088
  C      -1.454544      0.250733     -0.301293
  S      -0.106880     -0.403385      0.703558
  C       1.463860     -0.347385     -0.182491
  O      -0.035031      0.203769      2.082914
  H      -1.251661      1.307552     -0.527855
  H      -1.468565     -0.361762     -1.213461
  H      -2.386098      0.121673      0.261992
  H       2.223165     -0.813699      0.456346
  H       1.314053     -0.933986     -1.098843
  H       1.708697      0.701380     -0.405859
  Li     -0.006801      0.749537      4.127848
11
Coordinates from ORCA-job DMSO_m1_dication_opt E -560.019415154519
  C      -1.453123      0.246837     -0.304377
  S      -0.109916     -0.421699      0.699788
  C       1.462477     -0.349596     -0.185304
  O      -0.039484      0.183809      2.077135
  H      -1.229854      1.302917     -0.514376
  H      -1.473975     -0.355203     -1.222717
  H      -2.385283      0.124934      0.258947
  H       2.224833     -0.812981      0.451352
  H       1.321844     -0.929034     -1.107328
  H       1.686084      0.706292     -0.396208
  Li     -0.003406      0.778152      4.145942
11
Coordinates from ORCA-job DMSO_m1_dication_opt E -560.019470545951
  C      -1.454055      0.245394     -0.307478
  S      -0.109652     -0.423787      0.699150
  C       1.464019     -0.350845     -0.188431
  O      -0.040743      0.179882      2.075232
  H      -1.221774      1.300313     -0.513216
  H      -1.479040     -0.354921     -1.226241
  H      -2.383377      0.128441      0.261144
  H       2.225499     -0.810889      0.451238
  H       1.326030     -0.929878     -1.110749
  H       1.678290      0.707287     -0.397127
  Li     -0.005001      0.783430      4.159333
11
Coordinates from ORCA-job DMSO_m1_dication_opt E -560.019506087819
  C      -1.455734      0.245057     -0.310448
  S      -0.108514     -0.421164      0.699429
  C       1.466411     -0.351601     -0.191538
  O      -0.040597      0.182378      2.074571
  H      -1.219785      1.298899     -0.517225
  H      -1.483339     -0.357100     -1.227475
  H      -2.381552      0.131972      0.264374
  H       2.226132     -0.808163      0.452415
  H       1.328240     -0.932890     -1.112088
  H       1.677079      0.706771     -0.402148
  Li     -0.008142      0.780268      4.172989
11
Coordinates from ORCA-job DMSO_m1_dication_opt E -560.019543892362
  C      -1.457738      0.245275     -0.313615
  S      -0.107150     -0.417191      0.699674
  C       1.469148     -0.352128     -0.194906
  O      -0.039514      0.188872      2.073596
  H      -1.220597      1.297963     -0.524332
  H      -1.487168     -0.360794     -1.227652
  H      -2.379926      0.135894      0.267510
  H       2.227107     -0.804705      0.453723
  H       1.329226     -0.937309     -1.112451
  H       1.678943      0.705465     -0.409691
  Li     -0.012135      0.773086      4.190998
11
Coordinates from ORCA-job DMSO_m1_dication_opt E -560.019598167004
  C      -1.459935      0.245852     -0.317646
  S      -0.105641     -0.412429      0.699331
  C       1.472092     -0.352563     -0.199203
  O      -0.037127      0.200764      2.070841
  H      -1.223035      1.297001     -0.535299
  H      -1.490714     -0.366561     -1.227151
  H      -2.378445      0.140795      0.269860
  H       2.228691     -0.799966      0.454431
  H       1.328948     -0.943747     -1.112165
  H       1.682682      0.703334     -0.420672
  Li     -0.017320      0.761948      4.220527
11
Coordinates from ORCA-job DMSO_m1_dication_opt E -560.019681524710
  C      -1.461235      0.246319     -0.322807
  S      -0.104506     -0.408645      0.697554
  C       1.473907     -0.352917     -0.204609
  O      -0.033387      0.217393      2.064663
  H      -1.224802      1.295429     -0.549406
  H      -1.493047     -0.374070     -1.226775
  H      -2.377362      0.146265      0.269085
  H       2.230714     -0.794268      0.452772
  H       1.327146     -0.951657     -1.111937
  H       1.685591      0.700773     -0.434418
  Li     -0.022822      0.749807      4.268732
11
Coordinates from ORCA-job DMSO_m1_dication_opt E -560.019832565358
  C      -1.460624      0.246366     -0.328830
  S      -0.103794     -0.404786      0.694410
  C       1.473303     -0.353055     -0.210680
  O      -0.028200      0.238640      2.054978
  H      -1.225293      1.293055     -0.566271
  H      -1.492924     -0.383199     -1.226577
  H      -2.376787      0.151259      0.263685
  H       2.232341     -0.788485      0.448032
  H       1.323313     -0.960457     -1.111743
  H       1.686579      0.697919     -0.450307
  Li     -0.027719      0.737172      4.336157
11
Coordinates from ORCA-job DMSO_m1_dication_opt E -560.019955177710
  C      -1.459484      0.245760     -0.333338
  S      -0.103600     -0.403846      0.691902
  C       1.472147     -0.353380     -0.215277
  O      -0.025626      0.248857      2.048492
  H      -1.223302      1.290958     -0.575771
  H      -1.492704     -0.387998     -1.228125
  H      -2.376108      0.154020      0.258873
  H       2.232991     -0.785367      0.443529
  H       1.321456     -0.964995     -1.113352
  H       1.684663      0.696528     -0.459625
  Li     -0.030237      0.733891      4.385547
11
Coordinates from ORCA-job DMSO_m1_dication_opt E -560.020111387765
  C      -1.452493      0.243275     -0.334839
  S      -0.105121     -0.406520      0.688287
  C       1.463874     -0.353131     -0.216657
  O      -0.024893      0.247756      2.042825
  H      -1.215293      1.288556     -0.576616
  H      -1.486185     -0.388127     -1.231743
  H      -2.376558      0.150823      0.245796
  H       2.230361     -0.787893      0.433866
  H       1.318527     -0.962789     -1.117304
  H       1.674578      0.697565     -0.459764
  Li     -0.026602      0.744913      4.429004
11
Coordinates from ORCA-job DMSO_m1_dication_opt E -560.020242285531
  C      -1.450821      0.241589     -0.342105
  S      -0.104887     -0.406665      0.684877
  C       1.462355     -0.354192     -0.224249
  O      -0.022670      0.256352      2.035127
  H      -1.211898      1.285373     -0.587713
  H      -1.486040     -0.392638     -1.236793
  H      -2.375123      0.153441      0.238558
  H       2.230830     -0.785154      0.426239
  H       1.316928     -0.967021     -1.122556
  H       1.671164      0.695744     -0.471413
  Li     -0.029644      0.747597      4.502882
11
Coordinates from ORCA-job DMSO_m1_dication_opt E -560.020490121101
  C      -1.444231      0.237198     -0.351386
  S      -0.105720     -0.409673      0.678359
  C       1.455197     -0.355715     -0.233764
  O      -0.022616      0.253108      2.026563
  H      -1.203461      1.280873     -0.595736
  H      -1.480993     -0.393445     -1.248478
  H      -2.373614      0.151276      0.221350
  H       2.228447     -0.787132      0.410589
  H       1.314765     -0.966010     -1.134519
  H       1.660893      0.694941     -0.480365
  Li     -0.028472      0.769006      4.610243
11
Coordinates from ORCA-job DMSO_m1_dication_opt E -560.020977219978
  C      -1.442574      0.234376     -0.366498
  S      -0.105080     -0.410321      0.670150
  C       1.454148     -0.357997     -0.249492
  O      -0.019490      0.264917      2.012142
  H      -1.199447      1.275574     -0.617352
  H      -1.481222     -0.401371     -1.259473
  H      -2.371063      0.155911      0.208288
  H       2.229894     -0.782131      0.396268
  H       1.312017     -0.974071     -1.145653
  H       1.657140      0.691041     -0.503452
  Li     -0.034128      0.778501      4.757927
11
Coordinates from ORCA-job DMSO_m1_dication_opt E -560.021693559755
  C      -1.438288      0.230715     -0.380240
  S      -0.105303     -0.413020      0.660497
  C       1.449913     -0.359993     -0.263693
  O      -0.017978      0.268194      1.998516
  H      -1.192905      1.270549     -0.633756
  H      -1.478482     -0.406048     -1.272252
  H      -2.369098      0.156919      0.191140
  H       2.229515     -0.780691      0.379408
  H       1.309322     -0.977880     -1.158674
  H       1.649907      0.688610     -0.520983
  Li     -0.036406      0.797074      4.902892
11
Coordinates from ORCA-job DMSO_m1_dication_opt E -560.022619148194
  C      -1.436353      0.227916     -0.394659
  S      -0.104993     -0.414628      0.650279
  C       1.448370     -0.362156     -0.278609
  O      -0.016014      0.274029      1.984234
  H      -1.189247      1.266103     -0.652223
  H      -1.477800     -0.411868     -1.284216
  H      -2.367313      0.158980      0.176797
  H       2.230248     -0.778270      0.364451
  H       1.307149     -0.983587     -1.170814
  H       1.646281      0.685453     -0.540524
  Li     -0.040133      0.812456      5.048140
11
Coordinates from ORCA-job DMSO_m1_dication_opt E -560.023679142431
  C      -1.433931      0.224968     -0.408752
  S      -0.104912     -0.416811      0.639341
  C       1.446204     -0.364245     -0.293102
  O      -0.014587      0.277161      1.970060
  H      -1.185135      1.261864     -0.669121
  H      -1.476624     -0.416630     -1.296784
  H      -2.365737      0.159940      0.161562
  H       2.230468     -0.776954      0.349039
  H       1.305344     -0.988059     -1.183546
  H       1.641989      0.682740     -0.558326
  Li     -0.042883      0.830455      5.192484
11
Coordinates from ORCA-job DMSO_m1_dication_opt E -560.024817653537
  C      -1.429743      0.221489     -0.422708
  S      -0.104517     -0.416762      0.631826
  C       1.442188     -0.366184     -0.307682
  O      -0.010917      0.290293      1.954870
  H      -1.177882      1.255420     -0.690479
  H      -1.475276     -0.425245     -1.306591
  H      -2.362789      0.164643      0.146055
  H       2.230846     -0.771640      0.333332
  H       1.301789     -0.996078     -1.193630
  H       1.634162      0.679087     -0.581004
  Li     -0.047665      0.839406      5.338866
11
Coordinates from ORCA-job DMSO_m1_dication_opt E -560.025943102169
  C      -1.424263      0.217566     -0.436343
  S      -0.103490     -0.413083      0.627499
  C       1.436792     -0.368089     -0.322145
  O      -0.004666      0.315043      1.937948
  H      -1.168192      1.246728     -0.716886
  H      -1.474109     -0.438369     -1.312890
  H      -2.358729      0.173344      0.130800
  H       2.231734     -0.762149      0.317840
  H       1.296472     -1.008461     -1.200261
  H       1.623445      0.674119     -0.609216
  Li     -0.054797      0.837779      5.486510
11
Coordinates from ORCA-job DMSO_m1_dication_opt E -560.027135808405
  C      -1.421039      0.214344     -0.450003
  S      -0.101904     -0.407610      0.621111
  C       1.433798     -0.370244     -0.336507
  O       0.001391      0.339332      1.920070
  H      -1.161986      1.239069     -0.743266
  H      -1.474481     -0.451303     -1.318832
  H      -2.355681      0.181319      0.117451
  H       2.233413     -0.753626      0.303988
  H       1.292296     -1.021334     -1.206365
  H       1.616510      0.668669     -0.637234
  Li     -0.062120      0.835812      5.632441
11
Coordinates from ORCA-job DMSO_m1_dication_opt E -560.028362256998
  C      -1.418442      0.211338     -0.463561
  S      -0.100353     -0.402166      0.613282
  C       1.431407     -0.372411     -0.350549
  O       0.006737      0.360800      1.902099
  H      -1.157074      1.232050     -0.768192
  H      -1.475063     -0.462952     -1.325388
  H      -2.353176      0.187917      0.104084
  H       2.234904     -0.746548      0.290427
  H       1.288986     -1.033050     -1.212921
  H       1.610862      0.663361     -0.663473
  Li     -0.068593      0.836089      5.777047
11
Coordinates from ORCA-job DMSO_m1_dication_opt E -560.029645669572
  C      -1.421572      0.210040     -0.477287
  S      -0.096779     -0.389719      0.602029
  C       1.435242     -0.375380     -0.364708
  O       0.013404      0.390296      1.880132
  H      -1.159981      1.226052     -0.798175
  H      -1.480892     -0.478455     -1.327779
  H      -2.352548      0.197445      0.097249
  H       2.239931     -0.737006      0.282291
  H       1.287574     -1.051021     -1.214695
  H       1.613632      0.655425     -0.695265
  Li     -0.077815      0.826750      5.919062
11
Coordinates from ORCA-job DMSO_m1_dication_opt E -560.030967361425
  C      -1.427384      0.209459     -0.489956
  S      -0.092874     -0.376014      0.583480
  C       1.441785     -0.378734     -0.377248
  O       0.017775      0.411947      1.855868
  H      -1.167664      1.222858     -0.823134
  H      -1.487985     -0.490667     -1.331429
  H      -2.354772      0.203324      0.091282
  H       2.245765     -0.731494      0.276214
  H       1.289333     -1.067094     -1.216824
  H       1.621013      0.648030     -0.722195
  Li     -0.084796      0.822813      6.056798
11
Coordinates from ORCA-job DMSO_m1_dication_opt E -560.032251056451
  C      -1.430168      0.208131     -0.504213
  S      -0.090898     -0.370084      0.569529
  C       1.445219     -0.381393     -0.391148
  O       0.021034      0.428752      1.835799
  H      -1.170189      1.218376     -0.846339
  H      -1.493403     -0.499967     -1.338677
  H      -2.354089      0.208736      0.082336
  H       2.248819     -0.725475      0.267181
  H       1.290660     -1.079196     -1.222447
  H       1.623440      0.641852     -0.746589
  Li     -0.090229      0.824697      6.197424
11
Coordinates from ORCA-job DMSO_m1_dication_opt E -560.033664794008
  C      -1.440607      0.209546     -0.520593
  S      -0.091373     -0.378628      0.538370
  C       1.457148     -0.384307     -0.405544
  O       0.013335      0.403018      1.819307
  H      -1.184583      1.225113     -0.849301
  H      -1.504417     -0.490390     -1.361816
  H      -2.357486      0.199143      0.076654
  H       2.250110     -0.733656      0.262643
  H       1.304980     -1.077549     -1.241156
  H       1.640071      0.641537     -0.750509
  Li     -0.086980      0.860604      6.334800
11
Coordinates from ORCA-job DMSO_m1_dication_opt E -560.035123262027
  C      -1.441346      0.208903     -0.537370
  S      -0.095458     -0.399870      0.514975
  C       1.458686     -0.385279     -0.420571
  O       0.003060      0.358968      1.811715
  H      -1.186776      1.231168     -0.844401
  H      -1.506547     -0.472787     -1.393085
  H      -2.357558      0.183751      0.060512
  H       2.244913     -0.746714      0.249174
  H       1.316696     -1.063942     -1.269585
  H       1.643939      0.646383     -0.745095
  Li     -0.079415      0.913848      6.476586
11
Coordinates from ORCA-job DMSO_m1_dication_opt E -560.036669647741
  C      -1.437613      0.209905     -0.555396
  S      -0.107526     -0.457196      0.480673
  C       1.455902     -0.382899     -0.435673
  O      -0.024925      0.228613      1.818869
  H      -1.186114      1.248723     -0.800084
  H      -1.499955     -0.417372     -1.451388
  H      -2.358115      0.142595      0.032501
  H       2.228752     -0.783898      0.227032
  H       1.339321     -1.011974     -1.325042
  H       1.645917      0.664707     -0.697536
  Li     -0.055448      1.033223      6.608898
11
Coordinates from ORCA-job DMSO_m1_dication_opt E -560.037930788746
  C      -1.433887      0.207810     -0.570189
  S      -0.111201     -0.473487      0.465229
  C       1.452021     -0.383510     -0.449113
  O      -0.031620      0.195601      1.809805
  H      -1.180832      1.249123     -0.801965
  H      -1.493671     -0.407746     -1.474382
  H      -2.357952      0.134092      0.011341
  H       2.224962     -0.791557      0.209253
  H       1.341240     -1.000742     -1.347356
  H       1.640468      0.667608     -0.697440
  Li     -0.049331      1.077237      6.747672
11
Coordinates from ORCA-job DMSO_m1_dication_opt E -560.039154815978
  C      -1.434032      0.206331     -0.585160
  S      -0.113133     -0.483398      0.448810
  C       1.452171     -0.385076     -0.462825
  O      -0.036229      0.173571      1.798281
  H      -1.179601      1.248964     -0.809053
  H      -1.489020     -0.403954     -1.493162
  H      -2.359433      0.129199     -0.006490
  H       2.224658     -0.796575      0.193709
  H       1.341112     -0.995378     -1.365668
  H       1.639495      0.668160     -0.702687
  Li     -0.045792      1.112585      6.887101
11
Coordinates from ORCA-job DMSO_m1_dication_opt E -560.040344283324
  C      -1.433884      0.204632     -0.600324
  S      -0.115101     -0.492717      0.433486
  C       1.451797     -0.386649     -0.476579
  O      -0.040908      0.151055      1.788696
  H      -1.177317      1.248428     -0.816368
  H      -1.480434     -0.401540     -1.511559
  H      -2.362213      0.124750     -0.027003
  H       2.225490     -0.802140      0.175834
  H       1.337112     -0.988852     -1.384348
  H       1.637571      0.669012     -0.707080
  Li     -0.041918      1.148451      7.028100
11
Coordinates from ORCA-job DMSO_m1_dication_opt E -560.041486348082
  C      -1.432184      0.201392     -0.615470
  S      -0.115340     -0.493367      0.423855
  C       1.449663     -0.388926     -0.490848
  O      -0.040435      0.153178      1.778056
  H      -1.172955      1.243899     -0.834662
  H      -1.472670     -0.409427     -1.523893
  H      -2.363716      0.125903     -0.047001
  H       2.227615     -0.802343      0.157612
  H       1.328896     -0.991613     -1.397443
  H       1.633352      0.666791     -0.722904
  Li     -0.042030      1.168941      7.175554
11
Coordinates from ORCA-job DMSO_m1_dication_opt E -560.042597861106
  C      -1.430231      0.199272     -0.630367
  S      -0.117740     -0.505426      0.408668
  C       1.447700     -0.390013     -0.504831
  O      -0.045972      0.125233      1.770850
  H      -1.169866      1.243929     -0.837303
  H      -1.462387     -0.403087     -1.544744
  H      -2.366152      0.117564     -0.070303
  H       2.227044     -0.812311      0.136009
  H       1.324435     -0.979907     -1.419413
  H       1.631070      0.668812     -0.722391
  Li     -0.037707      1.210362      7.316679
11
Coordinates from ORCA-job DMSO_m1_dication_opt E -560.043678985855
  C      -1.429412      0.195561     -0.644412
  S      -0.116167     -0.501852      0.398063
  C       1.447212     -0.392959     -0.519488
  O      -0.042226      0.141514      1.755264
  H      -1.169359      1.238911     -0.857868
  H      -1.463691     -0.412230     -1.555078
  H      -2.365370      0.117570     -0.083830
  H       2.228212     -0.813385      0.120569
  H       1.321350     -0.987673     -1.430601
  H       1.631333      0.664410     -0.742937
  Li     -0.041686      1.224562      7.463173
11
Coordinates from ORCA-job DMSO_m1_dication_opt E -560.044743831392
  C      -1.430143      0.194244     -0.657641
  S      -0.117290     -0.515320      0.376874
  C       1.449306     -0.394229     -0.533714
  O      -0.047193      0.112851      1.741482
  H      -1.173353      1.241482     -0.854700
  H      -1.465074     -0.399215     -1.577618
  H      -2.365524      0.103702     -0.097868
  H       2.225507     -0.829031      0.102598
  H       1.326754     -0.974219     -1.454712
  H       1.637578      0.665917     -0.738929
  Li     -0.040373      1.268246      7.597083
11
Coordinates from ORCA-job DMSO_m1_dication_opt E -560.045773564279
  C      -1.431835      0.191679     -0.670097
  S      -0.115546     -0.517782      0.359097
  C       1.452454     -0.396958     -0.548431
  O      -0.045237      0.115664      1.720828
  H      -1.178600      1.239998     -0.865492
  H      -1.474668     -0.398469     -1.591770
  H      -2.362919      0.097166     -0.103542
  H       2.224023     -0.837821      0.089564
  H       1.332450     -0.974614     -1.471295
  H       1.645318      0.662920     -0.749989
  Li     -0.045242      1.292645      7.733982
11
Coordinates from ORCA-job DMSO_m1_dication_opt E -560.046768221652
  C      -1.432913      0.189394     -0.683001
  S      -0.115133     -0.524848      0.340762
  C       1.454539     -0.399088     -0.562962
  O      -0.045842      0.104518      1.703385
  H      -1.181617      1.239172     -0.872774
  H      -1.479020     -0.394834     -1.608197
  H      -2.361231      0.090266     -0.112601
  H       2.222235     -0.848214      0.073989
  H       1.335821     -0.968252     -1.491227
  H       1.651028      0.661920     -0.754414
  Li     -0.047671      1.324395      7.869895
11
Coordinates from ORCA-job DMSO_m1_dication_opt E -560.047738305811
  C      -1.432945      0.186085     -0.696578
  S      -0.114391     -0.527345      0.326838
  C       1.454636     -0.401741     -0.577693
  O      -0.043901      0.103899      1.687785
  H      -1.180885      1.235221     -0.889245
  H      -1.480309     -0.399887     -1.620539
  H      -2.359821      0.090132     -0.123328
  H       2.222089     -0.853006      0.058012
  H       1.334084     -0.967036     -1.508006
  H       1.652610      0.659683     -0.765633
  Li     -0.050971      1.348422      8.011242
11
Coordinates from ORCA-job DMSO_m1_dication_opt E -560.048683511698
  C      -1.432282      0.182391     -0.710368
  S      -0.113810     -0.529253      0.314661
  C       1.453345     -0.404490     -0.592789
  O      -0.040883      0.103269      1.674702
  H      -1.177355      1.229742     -0.909384
  H      -1.479699     -0.408323     -1.631231
  H      -2.358794      0.093757     -0.135576
  H       2.222697     -0.855763      0.040519
  H       1.330007     -0.965826     -1.525009
  H       1.651597      0.657522     -0.777967
  Li     -0.054625      1.371401      8.155296
11
Coordinates from ORCA-job DMSO_m1_dication_opt E -560.049598792266
  C      -1.431785      0.179149     -0.723272
  S      -0.112989     -0.532601      0.301399
  C       1.452249     -0.407223     -0.608675
  O      -0.036730      0.098736      1.662182
  H      -1.173445      1.224601     -0.928286
  H      -1.481406     -0.415511     -1.641465
  H      -2.357602      0.097848     -0.146399
  H       2.223459     -0.858952      0.022001
  H       1.327790     -0.963575     -1.543599
  H       1.650629      0.655609     -0.789775
  Li     -0.059974      1.396346      8.298746
11
Coordinates from ORCA-job DMSO_m1_dication_opt E -560.050487151112
  C      -1.431840      0.176776     -0.734125
  S      -0.110912     -0.536785      0.286592
  C       1.452369     -0.410051     -0.626209
  O      -0.029683      0.093235      1.648265
  H      -1.170309      1.220271     -0.944932
  H      -1.488289     -0.421054     -1.649876
  H      -2.355273      0.101784     -0.152646
  H       2.224622     -0.862929      0.002390
  H       1.328229     -0.962325     -1.563503
  H       1.651082      0.653406     -0.803500
  Li     -0.069800      1.422101      8.440399
11
Coordinates from ORCA-job DMSO_m1_dication_opt E -560.051351732490
  C      -1.431966      0.175764     -0.741842
  S      -0.106940     -0.542330      0.270530
  C       1.453636     -0.412902     -0.646542
  O      -0.018559      0.084437      1.633556
  H      -1.167475      1.217520     -0.957003
  H      -1.498851     -0.423961     -1.655704
  H      -2.351496      0.104965     -0.153654
  H       2.226797     -0.868094     -0.020644
  H       1.329041     -0.962076     -1.585566
  H       1.652375      0.651076     -0.820329
  Li     -0.086365      1.450031      8.580052
11
Coordinates from ORCA-job DMSO_m1_dication_opt E -560.052192199348
  C      -1.431192      0.176125     -0.745214
  S      -0.100016     -0.548192      0.255031
  C       1.455314     -0.416136     -0.671273
  O      -0.001000      0.073835      1.619340
  H      -1.163853      1.216260     -0.963904
  H      -1.510336     -0.425119     -1.657169
  H      -2.345626      0.108158     -0.148769
  H       2.231123     -0.873640     -0.050292
  H       1.325790     -0.964504     -1.610114
  H       1.652963      0.648088     -0.843963
  Li     -0.112970      1.479553      8.719182
