35
Coordinates from ORCA-job TMP_m1_shell2_cation_opt E -1531.376162685238
  C           1.97619538211834     -1.84737347724236     -0.32727303591275
  O           1.52843754311293     -0.49875894095790     -0.02619969306299
  P          -0.00882607725196     -0.12772743508895     -0.14430620346650
  O          -0.59908289937636     -0.40190798284310     -1.49965545244054
  O          -0.68939059312001     -0.91976874519802      1.03714483069664
  C          -2.13165671575630     -0.84887107666548      1.24100160948370
  O          -0.08184982863265      1.38583719708170      0.29388899863699
  C           0.32144742338233      2.44848653514688     -0.61322415356634
  H           3.05880799804644     -1.83685249212692     -0.20160660741385
  H           1.72457797133423     -2.11130917552630     -1.36071482174107
  H           1.52681041350101     -2.55763736677223      0.37231227997145
  H          -2.34892285463894     -1.55075824922160      2.04509309999867
  H          -2.65710294682775     -1.14337177552979      0.32835830696407
  H          -2.41177119600885      0.16450143750117      1.53968552781689
  H           1.40104415294650      2.40155181192441     -0.78285184731065
  H           0.06604255026169      3.37969933086031     -0.10881365235148
  H          -0.22660767704505      2.36908735941783     -1.55635541507477
  Li         -0.55830851227589     -1.11528535950773     -3.13397321790328
  C           3.23796346581187     -0.23543722784598     -3.43637862642446
  O           3.14699704821745     -1.59579164661416     -3.93763021895866
  P           1.95768503791231     -2.01060335463742     -4.90119132820816
  O           0.59169016473018     -1.78840501113297     -4.31369380862453
  O           2.24066450954843     -1.20651511617569     -6.22756938491268
  C           1.33446644631327     -1.31061826281927     -7.36526998455872
  O           2.25821519643543     -3.51442268092110     -5.27100620355197
  C           1.96255543554417     -4.58935143818441     -4.33699148074274
  H           4.09273900862210     -0.22342436296973     -2.76024339092790
  H           2.32750660249918      0.03371333609142     -2.88872424802938
  H           3.40720846143092      0.45799247687891     -4.26467234616378
  H           1.70808801722897     -0.60213442603457     -8.10338229849169
  H           0.31790867886959     -1.04307893995150     -7.06401418658972
  H           1.36469086975562     -2.32598984089630     -7.76863316029925
  H           2.62037777037236     -4.51585580405530     -3.46618392292731
  H           2.16519835701607     -5.51336340590638     -4.87728010365782
  H           0.91139548702229     -4.55148336227741     -4.03757647825517
