35
Coordinates from ORCA-job TMP_m1_shell2_cation_opt E -1531.356926335505
  C       2.618547     -1.252733     -0.060889
  O       1.761256     -0.216542      0.409969
  P       0.310342     -0.025638     -0.157102
  O       0.286654      0.274803     -1.617491
  O      -0.440644     -1.361239      0.201545
  C      -1.826565     -1.507212     -0.106363
  O      -0.351790      1.081685      0.723821
  C      -0.034220      2.464385      0.533542
  H       3.618218     -0.997601      0.288126
  H       2.602754     -1.308212     -1.152044
  H       2.312413     -2.208612      0.364092
  H      -2.084772     -2.535399      0.141634
  H      -2.003998     -1.313816     -1.168472
  H      -2.419805     -0.820951      0.496884
  H       0.905750      2.700594      1.030348
  H      -0.847814      3.026999      0.988305
  H       0.038146      2.693869     -0.528934
  Li      0.307036     -0.542352     -3.050280
  C       3.404674     -0.218574     -4.045418
  O       2.849263     -1.525912     -3.893669
  P       1.683203     -2.008220     -4.847984
  O       0.377359     -1.385035     -4.501612
  O       2.206542     -1.694106     -6.287286
  C       1.366174     -1.925454     -7.423929
  O       1.675356     -3.570136     -4.711057
  C       0.903906     -4.250188     -3.724382
  H       4.229941     -0.155525     -3.338338
  H       2.655163      0.546147     -3.820090
  H       3.778095     -0.083703     -5.059689
  H       1.808823     -1.366372     -8.246419
  H       0.354956     -1.571622     -7.225906
  H       1.347223     -2.988018     -7.662818
  H       1.482129     -4.352150     -2.805347
  H       0.685789     -5.236348     -4.132780
  H      -0.024907     -3.712038     -3.527897
35
Coordinates from ORCA-job TMP_m1_shell2_cation_opt E -1531.362473333741
  C       2.620959     -1.258469     -0.029726
  O       1.744542     -0.216681      0.444557
  P       0.295030     -0.019554     -0.135544
  O       0.276441      0.277073     -1.605410
  O      -0.467969     -1.350357      0.237686
  C      -1.876695     -1.498425     -0.052528
  O      -0.361468      1.097421      0.745288
  C      -0.042832      2.498628      0.556821
  H       3.616227     -1.014231      0.342469
  H       2.634891     -1.296050     -1.125535
  H       2.304410     -2.224972      0.373504
  H      -2.135859     -2.525182      0.205471
  H      -2.076662     -1.316646     -1.114690
  H      -2.464219     -0.806197      0.557170
  H       0.908784      2.729806      1.043134
  H      -0.847132      3.060684      1.030984
  H       0.008468      2.743362     -0.508219
  Li      0.294035     -0.538897     -3.054858
  C       3.452008     -0.209875     -4.079581
  O       2.869892     -1.527863     -3.927290
  P       1.690165     -2.014121     -4.873096
  O       0.377498     -1.390576     -4.515481
  O       2.206556     -1.700232     -6.319879
  C       1.357913     -1.929293     -7.474027
  O       1.693268     -3.581155     -4.742386
  C       0.925239     -4.291162     -3.749169
  H       4.271011     -0.152539     -3.362314
  H       2.715172      0.573001     -3.861871
  H       3.842257     -0.078934     -5.091852
  H       1.812109     -1.382093     -8.299621
  H       0.345971     -1.556754     -7.288746
  H       1.329179     -2.997274     -7.706778
  H       1.503982     -4.375523     -2.824139
  H       0.738601     -5.286125     -4.154421
  H      -0.026577     -3.786021     -3.557852
35
Coordinates from ORCA-job TMP_m1_shell2_cation_opt E -1531.365631181404
  C       2.609742     -1.257454      0.002374
  O       1.718570     -0.219779      0.493269
  P       0.271345     -0.014718     -0.102188
  O       0.258319      0.275680     -1.582135
  O      -0.506121     -1.336769      0.293413
  C      -1.934080     -1.473131      0.030810
  O      -0.375739      1.115289      0.777587
  C      -0.052338      2.526716      0.580799
  H       3.595095     -1.031305      0.410109
  H       2.657019     -1.250675     -1.093886
  H       2.274049     -2.234901      0.362872
  H      -2.195043     -2.495781      0.302380
  H      -2.154674     -1.301095     -1.028471
  H      -2.498081     -0.768942      0.649842
  H       0.915315      2.744513      1.042266
  H      -0.840150      3.088064      1.082271
  H      -0.036474      2.773723     -0.485553
  Li      0.271841     -0.537200     -3.059624
  C       3.500939     -0.213482     -4.130435
  O       2.897621     -1.534723     -3.969619
  P       1.704673     -2.024012     -4.907046
  O       0.382887     -1.404901     -4.534776
  O       2.214181     -1.706340     -6.360827
  C       1.355661     -1.932038     -7.524280
  O       1.724749     -3.596391     -4.787824
  C       0.960617     -4.331943     -3.793234
  H       4.308006     -0.160575     -3.399419
  H       2.771445      0.580233     -3.929420
  H       3.906450     -0.101799     -5.139385
  H       1.826211     -1.401381     -8.351252
  H       0.352147     -1.533030     -7.344648
  H       1.312792     -3.003443     -7.740831
  H       1.531521     -4.383520     -2.860491
  H       0.821611     -5.336037     -4.194288
  H      -0.014911     -3.864082     -3.626291
35
Coordinates from ORCA-job TMP_m1_shell2_cation_opt E -1531.367838741051
  C       2.588445     -1.249280      0.027786
  O       1.687092     -0.226494      0.548210
  P       0.242067     -0.013961     -0.059666
  O       0.233721      0.266504     -1.547442
  O      -0.549218     -1.324040      0.361030
  C      -1.990833     -1.437728      0.129662
  O      -0.393816      1.131147      0.815458
  C      -0.062408      2.544257      0.599086
  H       3.560577     -1.049365      0.477926
  H       2.668981     -1.177983     -1.063693
  H       2.230803     -2.238784      0.327465
  H      -2.256523     -2.454898      0.415723
  H      -2.228619     -1.272048     -0.926155
  H      -2.522101     -0.717780      0.758245
  H       0.924789      2.746622      1.023249
  H      -0.826742      3.108861      1.131638
  H      -0.091244      2.782804     -0.468256
  Li      0.242963     -0.538800     -3.062623
  C       3.548648     -0.227587     -4.187279
  O       2.932183     -1.547295     -4.013690
  P       1.728604     -2.036709     -4.943437
  O       0.399152     -1.426952     -4.554913
  O       2.228832     -1.709848     -6.402484
  C       1.357146     -1.932008     -7.565417
  O       1.765028     -3.613157     -4.840841
  C       1.002934     -4.365896     -3.848529
  H       4.340452     -0.173990     -3.440235
  H       2.819319      0.570981     -4.010269
  H       3.969489     -0.141973     -5.191772
  H       1.843148     -1.421337     -8.395602
  H       0.367212     -1.502955     -7.384076
  H       1.294596     -3.005727     -7.761473
  H       1.556651     -4.378103     -2.904835
  H       0.917397     -5.378455     -4.242253
  H       0.006471     -3.933251     -3.718470
35
Coordinates from ORCA-job TMP_m1_shell2_cation_opt E -1531.369641938664
  C       2.560012     -1.235396      0.042099
  O       1.653487     -0.236160      0.600868
  P       0.208916     -0.017846     -0.011773
  O       0.201995      0.248548     -1.503401
  O      -0.593464     -1.313868      0.433881
  C      -2.042365     -1.399384      0.232164
  O      -0.414577      1.143663      0.854392
  C      -0.071642      2.550273      0.609235
  H       3.518536     -1.069177      0.532615
  H       2.669043     -1.091294     -1.038644
  H       2.183611     -2.235992      0.271488
  H      -2.316772     -2.409633      0.533106
  H      -2.293448     -1.238517     -0.820725
  H      -2.539805     -0.662158      0.866702
  H       0.936558      2.737694      0.986178
  H      -0.804656      3.125430      1.173086
  H      -0.149584      2.774136     -0.457798
  Li      0.206232     -0.542235     -3.064204
  C       3.594079     -0.249590     -4.242677
  O       2.971610     -1.564311     -4.054822
  P       1.760851     -2.050075     -4.977824
  O       0.427756     -1.452922     -4.573326
  O       2.248437     -1.708469     -6.439869
  C       1.360845     -1.927945     -7.593021
  O       1.808241     -3.628912     -4.895633
  C       1.047500     -4.389651     -3.906303
  H       4.369003     -0.188297     -3.479208
  H       2.860193      0.550017     -4.095740
  H       4.031848     -0.191027     -5.240922
  H       1.857262     -1.440455     -8.430561
  H       0.386786     -1.469002     -7.405361
  H       1.273336     -3.002701     -7.768100
  H       1.578035     -4.363041     -2.950507
  H       1.012265     -5.409610     -4.287624
  H       0.035070     -3.987320     -3.815705
35
Coordinates from ORCA-job TMP_m1_shell2_cation_opt E -1531.371052812176
  C       2.527801     -1.221534      0.043662
  O       1.622959     -0.246143      0.639001
  P       0.175538     -0.024541      0.033046
  O       0.163963      0.224011     -1.457880
  O      -0.633195     -1.306418      0.501599
  C      -2.083437     -1.367022      0.323740
  O      -0.434639      1.153266      0.887140
  C      -0.076364      2.546747      0.610681
  H       3.477506     -1.089322      0.560654
  H       2.653852     -1.017766     -1.024644
  H       2.140390     -2.229657      0.212893
  H      -2.369150     -2.369287      0.639936
  H      -2.344862     -1.212337     -0.727346
  H      -2.555160     -0.613754      0.957959
  H       0.950928      2.720637      0.938187
  H      -0.772722      3.140603      1.200770
  H      -0.199009      2.756454     -0.454284
  Li      0.160827     -0.544133     -3.067573
  C       3.633342     -0.273548     -4.287129
  O       3.011258     -1.582331     -4.088893
  P       1.796747     -2.061124     -5.005915
  O       0.465429     -1.476907     -4.587912
  O       2.268746     -1.701431     -6.468739
  C       1.365570     -1.920301     -7.605768
  O       1.847067     -3.640647     -4.943921
  C       1.089389     -4.400810     -3.955324
  H       4.392847     -0.198752     -3.509768
  H       2.893251      0.524903     -4.170460
  H       4.089008     -0.234367     -5.277721
  H       1.864344     -1.456585     -8.455155
  H       0.405531     -1.436946     -7.411381
  H       1.251453     -2.994809     -7.763546
  H       1.596223     -4.340636     -2.988671
  H       1.093819     -5.427872     -4.318303
  H       0.065944     -4.022873     -3.896866
35
Coordinates from ORCA-job TMP_m1_shell2_cation_opt E -1531.371818585501
  C       2.502385     -1.210379      0.031840
  O       1.602507     -0.251468      0.651571
  P       0.149216     -0.029760      0.061980
  O       0.126118      0.199788     -1.425987
  O      -0.660074     -1.300542      0.550263
  C      -2.108643     -1.350219      0.388178
  O      -0.448043      1.161654      0.904714
  C      -0.074097      2.541431      0.605359
  H       3.449832     -1.103232      0.558915
  H       2.634790     -0.973661     -1.028621
  H       2.112076     -2.223168      0.163988
  H      -2.402721     -2.345133      0.719740
  H      -2.379372     -1.205919     -0.662229
  H      -2.570180     -0.585240      1.015853
  H       0.967426      2.704022      0.891947
  H      -0.735792      3.155864      1.214095
  H      -0.229149      2.745663     -0.456404
  Li      0.112963     -0.543523     -3.075017
  C       3.658901     -0.292974     -4.304926
  O       3.041252     -1.599307     -4.109973
  P       1.825002     -2.068329     -5.022978
  O       0.499222     -1.492296     -4.596124
  O       2.283250     -1.691870     -6.484818
  C       1.370816     -1.910324     -7.608220
  O       1.870596     -3.647597     -4.976593
  C       1.119230     -4.404500     -3.986198
  H       4.407507     -0.207248     -3.518077
  H       2.913910      0.503628     -4.206837
  H       4.130556     -0.255110     -5.288181
  H       1.867181     -1.465845     -8.469359
  H       0.418945     -1.411586     -7.412401
  H       1.234177     -2.983753     -7.756723
  H       1.607826     -4.319694     -3.011792
  H       1.149778     -5.437989     -4.329292
  H       0.087806     -4.046612     -3.945623
35
Coordinates from ORCA-job TMP_m1_shell2_cation_opt E -1531.372143800770
  C       2.488014     -1.208069      0.019879
  O       1.593112     -0.251557      0.644672
  P       0.134662     -0.030803      0.070416
  O       0.099437      0.183902     -1.416205
  O      -0.673211     -1.294611      0.573365
  C      -2.120064     -1.346857      0.417717
  O      -0.452230      1.169765      0.905861
  C      -0.065146      2.541259      0.598650
  H       3.437730     -1.109514      0.544907
  H       2.619444     -0.969143     -1.040434
  H       2.098663     -2.222532      0.145290
  H      -2.416636     -2.336688      0.762488
  H      -2.396937     -1.215377     -0.633078
  H      -2.583887     -0.575075      1.035990
  H       0.983886      2.694674      0.863946
  H      -0.704660      3.169493      1.217173
  H      -0.234642      2.749140     -0.460603
  Li      0.077838     -0.543058     -3.083382
  C       3.667307     -0.301469     -4.300641
  O       3.056545     -1.610546     -4.120481
  P       1.837724     -2.071146     -5.030064
  O       0.516492     -1.497617     -4.597740
  O       2.287127     -1.684053     -6.490998
  C       1.373121     -1.901743     -7.609081
  O       1.878010     -3.650079     -4.991873
  C       1.137807     -4.406983     -3.996809
  H       4.413015     -0.214039     -3.510970
  H       2.919236      0.492546     -4.201571
  H       4.145616     -0.249265     -5.280485
  H       1.866840     -1.466188     -8.476520
  H       0.422782     -1.398074     -7.416157
  H       1.225293     -2.974337     -7.756488
  H       1.620938     -4.309022     -3.020395
  H       1.180958     -5.444297     -4.327207
  H       0.101012     -4.063865     -3.957105
35
Coordinates from ORCA-job TMP_m1_shell2_cation_opt E -1531.372470608782
  C       2.472231     -1.213739      0.007187
  O       1.585051     -0.249133      0.625227
  P       0.120723     -0.029629      0.069339
  O       0.068937      0.166123     -1.417667
  O      -0.685516     -1.284664      0.592326
  C      -2.130449     -1.346462      0.441525
  O      -0.452059      1.182237      0.896596
  C      -0.047189      2.545580      0.586605
  H       3.427544     -1.114723      0.522261
  H       2.597160     -0.992293     -1.058172
  H       2.084648     -2.227747      0.145604
  H      -2.426463     -2.329977      0.804945
  H      -2.413445     -1.235320     -0.610320
  H      -2.601427     -0.566569      1.045064
  H       1.008353      2.685839      0.835254
  H      -0.664613      3.187687      1.213560
  H      -0.226130      2.761902     -0.470011
  Li      0.037025     -0.544670     -3.095599
  C       3.667886     -0.305688     -4.282955
  O       3.071114     -1.622771     -4.131912
  P       1.846500     -2.072735     -5.035600
  O       0.529759     -1.499964     -4.595659
  O       2.285756     -1.674675     -6.495981
  C       1.372928     -1.889924     -7.611768
  O       1.881591     -3.651302     -5.005430
  C       1.162124     -4.411760     -4.001405
  H       4.416973     -0.224475     -3.495481
  H       2.914836      0.481466     -4.164472
  H       4.144543     -0.222040     -5.262065
  H       1.864007     -1.459000     -8.483298
  H       0.421828     -1.384841     -7.423059
  H       1.217368     -2.961611     -7.762238
  H       1.648178     -4.302394     -3.027008
  H       1.215774     -5.451974     -4.321525
  H       0.119647     -4.085980     -3.951798
35
Coordinates from ORCA-job TMP_m1_shell2_cation_opt E -1531.372947202144
  C       2.447875     -1.231276     -0.009809
  O       1.574850     -0.243979      0.586434
  P       0.102190     -0.026761      0.057239
  O       0.023291      0.137163     -1.432207
  O      -0.701680     -1.266146      0.616535
  C      -2.144273     -1.345295      0.473606
  O      -0.446579      1.204061      0.870807
  C      -0.013979      2.555822      0.557393
  H       3.414083     -1.120754      0.482454
  H       2.556029     -1.054229     -1.085962
  H       2.062729     -2.240384      0.169551
  H      -2.435701     -2.317761      0.869673
  H      -2.435486     -1.270552     -0.579536
  H      -2.625531     -0.551571      1.051803
  H       1.049084      2.674129      0.787518
  H      -0.602491      3.216116      1.193536
  H      -0.202380      2.783357     -0.495976
  Li     -0.025022     -0.552249     -3.116148
  C       3.660388     -0.308621     -4.242506
  O       3.092663     -1.641447     -4.148994
  P       1.855964     -2.073779     -5.041580
  O       0.544733     -1.500736     -4.587285
  O       2.279413     -1.660025     -6.501716
  C       1.368148     -1.867226     -7.616421
  O       1.885371     -3.651855     -5.024929
  C       1.204141     -4.421878     -4.005430
  H       4.423526     -0.247071     -3.466425
  H       2.897390      0.459775     -4.071698
  H       4.119701     -0.161677     -5.223260
  H       1.856379     -1.436610     -8.490034
  H       0.415876     -1.361784     -7.430571
  H       1.205062     -2.937252     -7.775340
  H       1.704467     -4.300474     -3.038995
  H       1.269856     -5.463805     -4.318254
  H       0.155106     -4.120450     -3.931400
35
Coordinates from ORCA-job TMP_m1_shell2_cation_opt E -1531.373468160918
  C       2.430693     -1.251163     -0.020290
  O       1.569253     -0.240278      0.551280
  P       0.091124     -0.025369      0.039486
  O      -0.008564      0.112922     -1.453438
  O      -0.711050     -1.250940      0.630630
  C      -2.152878     -1.343459      0.495483
  O      -0.438576      1.220829      0.841466
  C       0.011378      2.565487      0.522890
  H       3.406466     -1.123341      0.448423
  H       2.520278     -1.119648     -1.105059
  H       2.047727     -2.251823      0.205669
  H      -2.437648     -2.306620      0.918441
  H      -2.449551     -1.298772     -0.557864
  H      -2.639008     -0.538276      1.054008
  H       1.077767      2.669059      0.745271
  H      -0.562541      3.236269      1.161507
  H      -0.181020      2.795894     -0.529440
  Li     -0.069018     -0.562189     -3.131435
  C       3.652503     -0.310732     -4.203476
  O       3.110098     -1.655817     -4.160662
  P       1.860648     -2.072997     -5.042110
  O       0.552951     -1.498522     -4.573043
  O       2.271364     -1.648093     -6.502666
  C       1.358957     -1.843439     -7.617615
  O       1.887488     -3.650748     -5.037545
  C       1.237880     -4.431237     -4.006410
  H       4.435095     -0.271912     -3.445373
  H       2.882606      0.435717     -3.974818
  H       4.083729     -0.107230     -5.187261
  H       1.845682     -1.405878     -8.488722
  H       0.406798     -1.338653     -7.427920
  H       1.193569     -2.911703     -7.786851
  H       1.757775     -4.307974     -3.050414
  H       1.306233     -5.471843     -4.323231
  H       0.186986     -4.142748     -3.906842
35
Coordinates from ORCA-job TMP_m1_shell2_cation_opt E -1531.374131983428
  C       2.416604     -1.272094     -0.032934
  O       1.565776     -0.237828      0.515682
  P       0.082509     -0.027912      0.016906
  O      -0.037311      0.083780     -1.480770
  O      -0.716275     -1.238161      0.645202
  C      -2.159560     -1.339725      0.523120
  O      -0.429874      1.234138      0.805831
  C       0.027329      2.574407      0.472084
  H       3.401148     -1.122842      0.410123
  H       2.483857     -1.182940     -1.123598
  H       2.035278     -2.260379      0.242639
  H      -2.434071     -2.293062      0.973944
  H      -2.462034     -1.324672     -0.529083
  H      -2.641856     -0.521155      1.064796
  H       1.095451      2.668886      0.687978
  H      -0.540210      3.251337      1.109742
  H      -0.173173      2.795189     -0.580527
  Li     -0.109356     -0.574952     -3.144396
  C       3.652768     -0.318328     -4.161440
  O       3.132781     -1.673422     -4.167932
  P       1.866757     -2.071140     -5.036217
  O       0.563420     -1.493054     -4.546851
  O       2.264476     -1.634911     -6.497517
  C       1.344612     -1.810130     -7.611555
  O       1.890279     -3.648768     -5.049436
  C       1.266835     -4.441613     -4.009658
  H       4.460118     -0.307826     -3.429019
  H       2.879106      0.400069     -3.866192
  H       4.044552     -0.060943     -5.148982
  H       1.831687     -1.360219     -8.475991
  H       0.397057     -1.302653     -7.408090
  H       1.176983     -2.875692     -7.792603
  H       1.811522     -4.325095     -3.067190
  H       1.329906     -5.477751     -4.341490
  H       0.218107     -4.155768     -3.884509
35
Coordinates from ORCA-job TMP_m1_shell2_cation_opt E -1531.374594085556
  C       2.402914     -1.286365     -0.054698
  O       1.563638     -0.236127      0.485137
  P       0.073880     -0.033910      0.001196
  O      -0.066178      0.048590     -1.497755
  O      -0.717822     -1.228090      0.668439
  C      -2.163156     -1.332647      0.562109
  O      -0.423901      1.244808      0.773362
  C       0.034519      2.578144      0.409912
  H       3.394964     -1.124248      0.366253
  H       2.448004     -1.221369     -1.147867
  H       2.022953     -2.264615      0.254424
  H      -2.429297     -2.274845      1.040162
  H      -2.472084     -1.345279     -0.487906
  H      -2.636789     -0.499373      1.087897
  H       1.105832      2.667856      0.608929
  H      -0.522563      3.264640      1.046306
  H      -0.183909      2.779108     -0.642640
  Li     -0.152334     -0.589324     -3.156026
  C       3.657359     -0.332905     -4.115008
  O       3.159371     -1.695639     -4.169826
  P       1.880248     -2.071085     -5.028956
  O       0.583623     -1.489822     -4.519173
  O       2.265521     -1.619619     -6.489222
  C       1.331936     -1.771569     -7.596852
  O       1.895837     -3.648392     -5.067037
  C       1.290514     -4.451512     -4.022294
  H       4.485118     -0.346164     -3.406035
  H       2.879264      0.353516     -3.762241
  H       4.013860     -0.025957     -5.101434
  H       1.817995     -1.313040     -8.457105
  H       0.393389     -1.256465     -7.374089
  H       1.155214     -2.833482     -7.787494
  H       1.854410     -4.343099     -3.090799
  H       1.347840     -5.482894     -4.369146
  H       0.245027     -4.164049     -3.878454
35
Coordinates from ORCA-job TMP_m1_shell2_cation_opt E -1531.375002554508
  C       2.382470     -1.305606     -0.091480
  O       1.563069     -0.234350      0.441079
  P       0.062915     -0.043242     -0.016858
  O      -0.107073     -0.006835     -1.513214
  O      -0.716153     -1.212123      0.706379
  C      -2.163740     -1.318849      0.621897
  O      -0.414243      1.261082      0.725923
  C       0.044927      2.579280      0.309730
  H       3.385766     -1.133657      0.297544
  H       2.395229     -1.270328     -1.186485
  H       2.005483     -2.270809      0.258203
  H      -2.421586     -2.242180      1.139335
  H      -2.482546     -1.372206     -0.423597
  H      -2.627246     -0.464519      1.121522
  H       1.121953      2.663523      0.475906
  H      -0.489555      3.286959      0.942107
  H      -0.203900      2.748025     -0.741382
  Li     -0.217826     -0.614621     -3.173235
  C       3.655296     -0.357506     -4.035147
  O       3.194485     -1.728220     -4.169371
  P       1.902174     -2.071980     -5.020108
  O       0.616524     -1.488911     -4.482513
  O       2.270471     -1.593209     -6.476060
  C       1.315407     -1.710965     -7.570339
  O       1.903997     -3.647881     -5.097947
  C       1.327484     -4.465998     -4.046576
  H       4.508481     -0.397406     -3.358223
  H       2.869125      0.273843     -3.606410
  H       3.965219      0.027066     -5.009837
  H       1.796434     -1.243314     -8.428346
  H       0.390526     -1.184760     -7.319689
  H       1.120398     -2.766637     -7.775353
  H       1.917128     -4.368387     -3.130383
  H       1.377489     -5.491368     -4.411481
  H       0.286616     -4.179143     -3.873520
35
Coordinates from ORCA-job TMP_m1_shell2_cation_opt E -1531.375171065912
  C       2.367013     -1.332075     -0.112618
  O       1.568162     -0.242360      0.416615
  P       0.062294     -0.052082     -0.025968
  O      -0.124973     -0.040983     -1.518490
  O      -0.712792     -1.203684      0.727650
  C      -2.162479     -1.303161      0.652344
  O      -0.401031      1.268479      0.697698
  C       0.054972      2.574409      0.240258
  H       3.378856     -1.162560      0.254769
  H       2.357662     -1.315538     -1.207788
  H       1.987559     -2.286707      0.262169
  H      -2.422458     -2.213805      1.190608
  H      -2.485329     -1.377224     -0.390560
  H      -2.617230     -0.435194      1.135937
  H       1.135292      2.658309      0.383294
  H      -0.464526      3.299215      0.865643
  H      -0.213957      2.717316     -0.809646
  Li     -0.251644     -0.632417     -3.181591
  C       3.639959     -0.364112     -3.985240
  O       3.209029     -1.740355     -4.165230
  P       1.913675     -2.071305     -5.014994
  O       0.635896     -1.490585     -4.462655
  O       2.275169     -1.574533     -6.466600
  C       1.305338     -1.671625     -7.550572
  O       1.909024     -3.646167     -5.115110
  C       1.357919     -4.471403     -4.054152
  H       4.505983     -0.410011     -3.325300
  H       2.845088      0.228680     -3.519421
  H       3.923292      0.065224     -4.949322
  H       1.780178     -1.197454     -8.408389
  H       0.388390     -1.140998     -7.281207
  H       1.099313     -2.723150     -7.765518
  H       1.971124     -4.380613     -3.152968
  H       1.397788     -5.493864     -4.428144
  H       0.322635     -4.182894     -3.853435
35
Coordinates from ORCA-job TMP_m1_shell2_cation_opt E -1531.375259071405
  C       2.350796     -1.365738     -0.115719
  O       1.572125     -0.258828      0.409612
  P       0.064702     -0.059385     -0.026539
  O      -0.130468     -0.057596     -1.516448
  O      -0.715763     -1.199228      0.739023
  C      -2.167098     -1.284936      0.664597
  O      -0.386195      1.271498      0.687074
  C       0.070214      2.567892      0.203653
  H       3.368546     -1.207421      0.240307
  H       2.330570     -1.361657     -1.210846
  H       1.962811     -2.311459      0.273119
  H      -2.436922     -2.187786      1.211109
  H      -2.490943     -1.365474     -0.377546
  H      -2.613818     -0.408235      1.140035
  H       1.152445      2.650880      0.333546
  H      -0.438751      3.306045      0.822127
  H      -0.208239      2.695740     -0.845852
  Li     -0.265015     -0.643440     -3.184137
  C       3.618888     -0.353748     -3.966546
  O       3.210442     -1.735171     -4.164754
  P       1.917343     -2.068501     -5.016767
  O       0.643420     -1.494339     -4.458892
  O       2.276416     -1.562872     -6.466096
  C       1.298906     -1.654644     -7.544024
  O       1.915016     -3.643177     -5.124098
  C       1.390759     -4.470465     -4.050601
  H       4.488747     -0.393398     -3.311276
  H       2.815425      0.218596     -3.490040
  H       3.891547      0.095182     -4.924995
  H       1.766650     -1.176438     -8.403546
  H       0.383154     -1.126113     -7.266130
  H       1.090664     -2.704867     -7.763948
  H       2.024642     -4.378612     -3.163805
  H       1.424306     -5.493016     -4.424941
  H       0.359872     -4.184517     -3.824586
35
Coordinates from ORCA-job TMP_m1_shell2_cation_opt E -1531.375289675694
  C       2.336577     -1.393329     -0.111381
  O       1.572505     -0.272543      0.406509
  P       0.065076     -0.063254     -0.026266
  O      -0.135147     -0.066938     -1.515405
  O      -0.721926     -1.193790      0.746751
  C      -2.174046     -1.269429      0.672908
  O      -0.373924      1.275443      0.680928
  C       0.085749      2.565078      0.183222
  H       3.357802     -1.244242      0.238728
  H       2.312189     -1.400747     -1.206599
  H       1.940196     -2.331301      0.288038
  H      -2.451460     -2.166396      1.225376
  H      -2.499233     -1.354526     -0.368491
  H      -2.615389     -0.386633      1.142388
  H       1.169024      2.645742      0.307331
  H      -0.416485      3.312348      0.796335
  H      -0.195891      2.685512     -0.866462
  Li     -0.273960     -0.651700     -3.185512
  C       3.602060     -0.344207     -3.956295
  O       3.208561     -1.728059     -4.168054
  P       1.916630     -2.064830     -5.021373
  O       0.643579     -1.497241     -4.459579
  O       2.272801     -1.554424     -6.470045
  C       1.292700     -1.646838     -7.545699
  O       1.919627     -3.639386     -5.132376
  C       1.422398     -4.469953     -4.048748
  H       4.474275     -0.379988     -3.303890
  H       2.793724      0.214697     -3.472020
  H       3.867858      0.118807     -4.910167
  H       1.754939     -1.164372     -8.405886
  H       0.374750     -1.123449     -7.264730
  H       1.087492     -2.697024     -7.769379
  H       2.074026     -4.374870     -3.175099
  H       1.453427     -5.492667     -4.422931
  H       0.394691     -4.190720     -3.800053
35
Coordinates from ORCA-job TMP_m1_shell2_cation_opt E -1531.375312917477
  C       2.322674     -1.420893     -0.106024
  O       1.572752     -0.286556      0.403471
  P       0.065889     -0.066233     -0.026662
  O      -0.139507     -0.074327     -1.515608
  O      -0.728374     -1.187275      0.753500
  C      -2.181185     -1.252434      0.681177
  O      -0.360012      1.279900      0.675202
  C       0.101777      2.563616      0.164768
  H       3.346551     -1.281097      0.240200
  H       2.296249     -1.438472     -1.201240
  H       1.916470     -2.350695      0.302682
  H      -2.465425     -2.143690      1.239445
  H      -2.508270     -1.341544     -0.359295
  H      -2.616076     -0.363617      1.145489
  H       1.185569      2.643081      0.285963
  H      -0.396842      3.318322      0.771778
  H      -0.181203      2.676204     -0.885498
  Li     -0.281189     -0.660290     -3.186061
  C       3.583204     -0.335483     -3.944505
  O       3.203865     -1.720814     -4.171170
  P       1.913087     -2.060872     -5.026638
  O       0.639662     -1.500352     -4.461310
  O       2.267119     -1.546562     -6.474754
  C       1.286526     -1.640604     -7.550030
  O       1.923084     -3.635241     -5.141757
  C       1.456384     -4.470454     -4.048355
  H       4.458189     -0.369056     -3.295631
  H       2.770932      0.209255     -3.450674
  H       3.841115      0.142233     -4.893419
  H       1.744196     -1.151440     -8.408919
  H       0.364954     -1.124705     -7.266730
  H       1.087867     -2.691054     -7.778622
  H       2.128211     -4.372815     -3.190379
  H       1.483918     -5.492685     -4.424205
  H       0.433034     -4.198578     -3.774123
35
Coordinates from ORCA-job TMP_m1_shell2_cation_opt E -1531.375337799746
  C       2.305788     -1.452428     -0.099925
  O       1.572259     -0.302722      0.398810
  P       0.066378     -0.068532     -0.027594
  O      -0.146216     -0.082649     -1.516336
  O      -0.736523     -1.177098      0.762334
  C      -2.189880     -1.229891      0.693560
  O      -0.342015      1.286620      0.667877
  C       0.121901      2.563392      0.143100
  H       3.331895     -1.323888      0.244075
  H       2.279159     -1.480317     -1.195041
  H       1.886648     -2.372408      0.317840
  H      -2.481053     -2.113789      1.259937
  H      -2.520281     -1.324744     -0.345344
  H      -2.616196     -0.333516      1.151385
  H       1.205997      2.641820      0.262605
  H      -0.374272      3.326044      0.742200
  H      -0.161529      2.666036     -0.908093
  Li     -0.290317     -0.672377     -3.186190
  C       3.558064     -0.327536     -3.926437
  O       3.196127     -1.713284     -4.174845
  P       1.906949     -2.056588     -5.033623
  O       0.631508     -1.505355     -4.464375
  O       2.258562     -1.537213     -6.480666
  C       1.279427     -1.633439     -7.557123
  O       1.926958     -3.630460     -5.155629
  C       1.500554     -4.473287     -4.052088
  H       4.436873     -0.360187     -3.282610
  H       2.741625      0.197876     -3.418597
  H       3.804970      0.170435     -4.867945
  H       1.732515     -1.133938     -8.412514
  H       0.352418     -1.128553     -7.271559
  H       1.091371     -2.684215     -7.793010
  H       2.197435     -4.372487     -3.214732
  H       1.524748     -5.494214     -4.431788
  H       0.483347     -4.212337     -3.745590
35
Coordinates from ORCA-job TMP_m1_shell2_cation_opt E -1531.375357858548
  C       2.292560     -1.476340     -0.097048
  O       1.571860     -0.315311      0.393638
  P       0.066902     -0.069581     -0.028969
  O      -0.152414     -0.088924     -1.517169
  O      -0.742610     -1.167265      0.769665
  C      -2.196293     -1.209771      0.705317
  O      -0.326209      1.292559      0.661560
  C       0.138625      2.564053      0.125700
  H       3.319621     -1.357171      0.247456
  H       2.267435     -1.509707     -1.192036
  H       1.861959     -2.388766      0.325395
  H      -2.492031     -2.087524      1.278822
  H      -2.530155     -1.309491     -0.331988
  H      -2.614461     -0.307036      1.158077
  H       1.222642      2.642354      0.245453
  H      -0.357658      3.332093      0.717793
  H      -0.144219      2.657546     -0.926462
  Li     -0.296764     -0.684577     -3.185390
  C       3.534425     -0.322268     -3.908452
  O       3.187982     -1.707775     -4.176338
  P       1.901208     -2.054285     -5.038794
  O       0.622332     -1.511694     -4.467687
  O       2.251393     -1.530047     -6.484197
  C       1.275007     -1.627642     -7.562997
  O       1.931218     -3.627495     -5.167826
  C       1.537168     -4.477801     -4.058301
  H       4.416783     -0.354329     -3.269412
  H       2.714508      0.185082     -3.387935
  H       3.770568      0.193373     -4.843196
  H       1.725228     -1.117486     -8.413589
  H       0.342927     -1.133402     -7.275478
  H       1.097803     -2.678538     -7.806198
  H       2.253027     -4.374787     -3.237507
  H       1.559560     -5.496987     -4.442796
  H       0.525269     -4.226287     -3.727041
35
Coordinates from ORCA-job TMP_m1_shell2_cation_opt E -1531.375376671877
  C       2.281130     -1.495617     -0.097563
  O       1.571309     -0.325617      0.386946
  P       0.066915     -0.070100     -0.030817
  O      -0.159319     -0.095230     -1.517848
  O      -0.747439     -1.157288      0.776832
  C      -2.201369     -1.191000      0.717912
  O      -0.311966      1.298093      0.654931
  C       0.154136      2.564867      0.109619
  H       3.308466     -1.384844      0.248867
  H       2.258105     -1.531736     -1.192442
  H       1.840170     -2.401972      0.327015
  H      -2.500035     -2.063029      1.298542
  H      -2.539063     -1.295731     -0.317616
  H      -2.611705     -0.282421      1.165976
  H       1.238002      2.642574      0.230164
  H      -0.342652      3.337397      0.695375
  H      -0.127855      2.649831     -0.943430
  Li     -0.302038     -0.698953     -3.183963
  C       3.511263     -0.317411     -3.890360
  O       3.180665     -1.702765     -4.175906
  P       1.897476     -2.053788     -5.042025
  O       0.613549     -1.520544     -4.470908
  O       2.246051     -1.523629     -6.485076
  C       1.272795     -1.621785     -7.566582
  O       1.938630     -3.626122     -5.178228
  C       1.568272     -4.484011     -4.066450
  H       4.397214     -0.347713     -3.256215
  H       2.687808      0.171817     -3.358154
  H       3.735862      0.214312     -4.818882
  H       1.720778     -1.100803     -8.411740
  H       0.336035     -1.137988     -7.276829
  H       1.106211     -2.672534     -7.817250
  H       2.295962     -4.378685     -3.256571
  H       1.592330     -5.501198     -4.456080
  H       0.559505     -4.241604     -3.719174
35
Coordinates from ORCA-job TMP_m1_shell2_cation_opt E -1531.375395358535
  C       2.271039     -1.511687     -0.101202
  O       1.570904     -0.334194      0.378754
  P       0.066430     -0.070905     -0.033055
  O      -0.166831     -0.102545     -1.518328
  O      -0.750883     -1.148098      0.784057
  C      -2.205158     -1.174414      0.731126
  O      -0.299745      1.302698      0.647632
  C       0.168498      2.564876      0.093582
  H       3.298557     -1.408414      0.246937
  H       2.249243     -1.549591     -1.195965
  H       1.821346     -2.412991      0.324813
  H      -2.505576     -2.041147      1.318680
  H      -2.546899     -1.284181     -0.302511
  H      -2.608264     -0.260557      1.174822
  H       1.252385      2.640831      0.214113
  H      -0.327604      3.341827      0.673981
  H      -0.113377      2.642208     -0.960029
  Li     -0.306197     -0.715871     -3.182031
  C       3.489924     -0.310787     -3.874293
  O       3.175524     -1.696927     -4.173188
  P       1.897192     -2.054735     -5.042664
  O       0.606991     -1.532033     -4.473291
  O       2.243562     -1.517247     -6.482807
  C       1.272755     -1.615291     -7.566554
  O       1.950843     -3.626046     -5.185205
  C       1.592052     -4.491018     -4.074828
  H       4.379293     -0.336911     -3.244809
  H       2.662696      0.161512     -3.332704
  H       3.702713      0.233699     -4.798140
  H       1.718432     -1.084242     -8.406601
  H       0.332068     -1.141115     -7.273967
  H       1.115531     -2.665650     -7.824354
  H       2.322260     -4.382708     -3.267725
  H       1.622706     -5.506260     -4.468959
  H       0.582785     -4.257316     -3.723217
35
Coordinates from ORCA-job TMP_m1_shell2_cation_opt E -1531.375417533241
  C       2.254314     -1.537540     -0.106705
  O       1.570307     -0.347379      0.365038
  P       0.065028     -0.073561     -0.036824
  O      -0.179499     -0.117227     -1.519101
  O      -0.755516     -1.134753      0.796575
  C      -2.210440     -1.150373      0.752608
  O      -0.282376      1.309177      0.633860
  C       0.190538      2.562712      0.064036
  H       3.283161     -1.445128      0.240503
  H       2.230923     -1.582330     -1.201125
  H       1.793144     -2.429930      0.325753
  H      -2.513546     -2.008300      1.351540
  H      -2.558577     -1.268999     -0.277865
  H      -2.603295     -0.228381      1.188480
  H       1.275084      2.633899      0.180887
  H      -0.300320      3.348448      0.636952
  H      -0.094080      2.628762     -0.989584
  Li     -0.314388     -0.743902     -3.179453
  C       3.460116     -0.298621     -3.851343
  O       3.171223     -1.686500     -4.168121
  P       1.900292     -2.055713     -5.041808
  O       0.601295     -1.550425     -4.474429
  O       2.241676     -1.505195     -6.477456
  C       1.272288     -1.602645     -7.562679
  O       1.973424     -3.625238     -5.193375
  C       1.625323     -4.500274     -4.086837
  H       4.354735     -0.316080     -3.229125
  H       2.627352      0.148252     -3.296783
  H       3.654271      0.263439     -4.768737
  H       1.712819     -1.057954     -8.396635
  H       0.326671     -1.141926     -7.264781
  H       1.126911     -2.652070     -7.830785
  H       2.353547     -4.386044     -3.278806
  H       1.669896     -5.512868     -4.486283
  H       0.612893     -4.280560     -3.735522
35
Coordinates from ORCA-job TMP_m1_shell2_cation_opt E -1531.375442572175
  C       2.234267     -1.567311     -0.112676
  O       1.569576     -0.362110      0.348647
  P       0.062654     -0.077887     -0.041009
  O      -0.195750     -0.137646     -1.519639
  O      -0.759919     -1.119904      0.813290
  C      -2.215625     -1.124150      0.779807
  O      -0.263989      1.316246      0.615631
  C       0.214357      2.558086      0.024545
  H       3.265554     -1.486454      0.230127
  H       2.205862     -1.623369     -1.206493
  H       1.762055     -2.448484      0.330847
  H      -2.521256     -1.971233      1.392687
  H      -2.571637     -1.254177     -0.246542
  H      -2.597555     -0.192933      1.205622
  H       1.300259      2.622139      0.132576
  H      -0.266179      3.355669      0.589751
  H      -0.077504      2.611219     -1.027838
  Li     -0.325873     -0.778692     -3.176070
  C       3.430331     -0.283781     -3.826691
  O       3.168997     -1.673693     -4.160337
  P       1.906437     -2.055993     -5.038734
  O       0.598151     -1.572410     -4.472847
  O       2.241173     -1.488411     -6.468955
  C       1.271953     -1.585127     -7.554607
  O       2.002406     -3.623049     -5.200844
  C       1.659559     -4.509827     -4.101233
  H       4.330445     -0.290251     -3.212327
  H       2.592339      0.136508     -3.259386
  H       3.604168      0.295018     -4.737775
  H       1.705383     -1.026085     -8.382756
  H       0.321325     -1.139155     -7.250349
  H       1.138607     -2.633150     -7.834301
  H       2.379862     -4.388705     -3.287092
  H       1.723415     -5.519169     -4.506128
  H       0.641345     -4.306959     -3.756833
35
Coordinates from ORCA-job TMP_m1_shell2_cation_opt E -1531.375487547087
  C       2.192158     -1.628484     -0.116883
  O       1.567138     -0.392655      0.318880
  P       0.057544     -0.087957     -0.048244
  O      -0.228768     -0.182193     -1.519299
  O      -0.768359     -1.089423      0.849152
  C      -2.225061     -1.070790      0.835237
  O      -0.228025      1.329688      0.576209
  C       0.259338      2.545030     -0.061429
  H       3.228745     -1.569316      0.214193
  H       2.150975     -1.712403     -1.208618
  H       1.700026     -2.484415      0.353835
  H      -2.535673     -1.894426      1.476869
  H      -2.596818     -1.224987     -0.182062
  H      -2.585989     -0.121355      1.238600
  H       1.348121      2.593557      0.024009
  H      -0.196401      3.367726      0.488096
  H      -0.051928      2.571738     -1.109293
  Li     -0.351297     -0.849021     -3.167922
  C       3.376866     -0.256539     -3.779962
  O       3.165442     -1.648122     -4.144596
  P       1.917869     -2.053270     -5.032291
  O       0.594131     -1.614246     -4.466117
  O       2.238051     -1.450590     -6.451538
  C       1.268325     -1.547265     -7.536982
  O       2.058300     -3.614119     -5.217315
  C       1.729384     -4.525321     -4.132345
  H       4.286079     -0.242259     -3.179383
  H       2.531346      0.115304     -3.190470
  H       3.513693      0.351194     -4.678560
  H       1.685691     -0.960653     -8.354268
  H       0.307970     -1.131388     -7.220836
  H       1.158999     -2.591844     -7.839446
  H       2.436043     -4.392622     -3.307985
  H       1.829666     -5.526858     -4.548932
  H       0.701613     -4.356947     -3.798237
35
Coordinates from ORCA-job TMP_m1_shell2_cation_opt E -1531.375545082368
  C       2.154165     -1.680839     -0.118361
  O       1.565398     -0.417063      0.287505
  P       0.052040     -0.097800     -0.056188
  O      -0.264921     -0.233976     -1.517633
  O      -0.770870     -1.055698      0.889806
  C      -2.227970     -1.018747      0.897127
  O      -0.195628      1.344323      0.528089
  C       0.294798      2.528707     -0.163415
  H       3.196482     -1.638079      0.196964
  H       2.096100     -1.797499     -1.206521
  H       1.648697     -2.510344      0.384649
  H      -2.539003     -1.816148      1.570889
  H      -2.617176     -1.202181     -0.108653
  H      -2.571031     -0.051809      1.273783
  H       1.386315      2.561104     -0.109005
  H      -0.131083      3.378005      0.369397
  H      -0.044352      2.526410     -1.202991
  Li     -0.381240     -0.926065     -3.157001
  C       3.330604     -0.239494     -3.724085
  O       3.162460     -1.628647     -4.122109
  P       1.929130     -2.049095     -5.022059
  O       0.592360     -1.657120     -4.453637
  O       2.235266     -1.405615     -6.427277
  C       1.266099     -1.500261     -7.513361
  O       2.111996     -3.601407     -5.237059
  C       1.790593     -4.542296     -4.174664
  H       4.246596     -0.209143     -3.134541
  H       2.480414      0.087481     -3.115001
  H       3.435559      0.395656     -4.608069
  H       1.667045     -0.885227     -8.317950
  H       0.296164     -1.115752     -7.186736
  H       1.180824     -2.539551     -7.841279
  H       2.479405     -4.405722     -3.335789
  H       1.926759     -5.532566     -4.607639
  H       0.753202     -4.408771     -3.855114
35
Coordinates from ORCA-job TMP_m1_shell2_cation_opt E -1531.375624400757
  C       2.140722     -1.695121     -0.123395
  O       1.566239     -0.418330      0.262417
  P       0.046315     -0.103357     -0.061584
  O      -0.296781     -0.276722     -1.514238
  O      -0.762216     -1.032800      0.925027
  C      -2.219378     -0.993440      0.952893
  O      -0.186069      1.356058      0.487930
  C       0.296868      2.516379     -0.248008
  H       3.189087     -1.651901      0.171328
  H       2.063001     -1.838755     -1.207271
  H       1.640460     -2.509686      0.408552
  H      -2.521762     -1.772751      1.651319
  H      -2.624132     -1.201470     -0.041868
  H      -2.556248     -0.016945      1.310256
  H       1.390121      2.536552     -0.230341
  H      -0.099538      3.384789      0.276817
  H      -0.076124      2.494565     -1.275749
  Li     -0.408686     -0.987875     -3.144065
  C       3.319345     -0.236970     -3.681370
  O       3.161364     -1.624662     -4.089995
  P       1.937958     -2.046068     -5.004701
  O       0.593166     -1.689979     -4.435644
  O       2.240616     -1.366184     -6.395453
  C       1.277558     -1.459529     -7.486595
  O       2.147377     -3.590641     -5.248172
  C       1.800292     -4.560678     -4.220853
  H       4.232985     -0.205567     -3.088126
  H       2.465376      0.081178     -3.072853
  H       3.425021      0.405136     -4.560308
  H       1.670377     -0.825771     -8.280711
  H       0.299408     -1.096762     -7.159257
  H       1.210004     -2.494288     -7.833114
  H       2.457054     -4.436833     -3.354581
  H       1.964651     -5.538829     -4.671349
  H       0.750763     -4.447971     -3.934869
35
Coordinates from ORCA-job TMP_m1_shell2_cation_opt E -1531.375712291210
  C       2.126296     -1.712881     -0.121315
  O       1.566994     -0.421372      0.236442
  P       0.042214     -0.107648     -0.068328
  O      -0.330965     -0.321545     -1.509384
  O      -0.751911     -1.002985      0.961113
  C      -2.208143     -0.958250      1.011398
  O      -0.171684      1.369577      0.442255
  C       0.300920      2.503096     -0.339660
  H       3.180418     -1.668197      0.152084
  H       2.028655     -1.888456     -1.198861
  H       1.631078     -2.508102      0.443578
  H      -2.501297     -1.715627      1.737346
  H      -2.629904     -1.193790      0.029970
  H      -2.536781      0.029225      1.345652
  H       1.394472      2.511654     -0.356837
  H      -0.068569      3.390489      0.173061
  H      -0.104520      2.458780     -1.354330
  Li     -0.438057     -1.055364     -3.127386
  C       3.296447     -0.240687     -3.627824
  O       3.150929     -1.623189     -4.056164
  P       1.938446     -2.042209     -4.988981
  O       0.585462     -1.726092     -4.418273
  O       2.239813     -1.323178     -6.361655
  C       1.289334     -1.415983     -7.463111
  O       2.177114     -3.576425     -5.268057
  C       1.822983     -4.580391     -4.277470
  H       4.205860     -0.211136     -3.027814
  H       2.436831      0.063836     -3.019983
  H       3.404163      0.414182     -4.496972
  H       1.674630     -0.758256     -8.241359
  H       0.299913     -1.081443     -7.139335
  H       1.247700     -2.444661     -7.831331
  H       2.460587     -4.474138     -3.394716
  H       2.009228     -5.542958     -4.752503
  H       0.766534     -4.491102     -4.009178
35
Coordinates from ORCA-job TMP_m1_shell2_cation_opt E -1531.375817721384
  C       2.117093     -1.723491     -0.116537
  O       1.567546     -0.419128      0.206923
  P       0.038249     -0.109862     -0.077391
  O      -0.369801     -0.369284     -1.502457
  O      -0.736673     -0.967079      0.998217
  C      -2.190997     -0.919365      1.074555
  O      -0.158548      1.384903      0.388680
  C       0.301377      2.489258     -0.439507
  H       3.177183     -1.670627      0.131224
  H       1.996426     -1.936413     -1.184849
  H       1.633174     -2.496986      0.486751
  H      -2.470262     -1.651204      1.831509
  H      -2.631424     -1.187751      0.109935
  H      -2.512899      0.079213      1.381186
  H       1.393942      2.485516     -0.490802
  H      -0.042384      3.395120      0.058702
  H      -0.136258      2.421055     -1.439376
  Li     -0.471988     -1.128640     -3.106483
  C       3.266276     -0.254548     -3.562027
  O       3.131905     -1.628383     -4.016109
  P       1.931846     -2.039212     -4.971118
  O       0.570317     -1.766214     -4.398954
  O       2.236135     -1.277140     -6.320364
  C       1.306760     -1.368006     -7.439112
  O       2.200198     -3.559816     -5.294545
  C       1.845986     -4.603572     -4.347954
  H       4.165829     -0.232418     -2.946798
  H       2.396762      0.037477     -2.961710
  H       3.385473      0.415652     -4.417742
  H       1.688217     -0.683326     -8.195723
  H       0.304009     -1.064644     -7.125674
  H       1.296861     -2.388800     -7.830449
  H       2.469875     -4.522971     -3.452921
  H       2.050186     -5.545637     -4.855752
  H       0.784804     -4.538907     -4.091257
35
Coordinates from ORCA-job TMP_m1_shell2_cation_opt E -1531.375904688452
  C       2.104184     -1.742138     -0.104530
  O       1.567213     -0.423168      0.178037
  P       0.035490     -0.113414     -0.088071
  O      -0.404935     -0.419381     -1.494034
  O      -0.723298     -0.926444      1.031853
  C      -2.175596     -0.871511      1.131415
  O      -0.140375      1.398111      0.329519
  C       0.312160      2.470015     -0.543103
  H       3.168941     -1.684620      0.121110
  H       1.962690     -1.994548     -1.161485
  H       1.627561     -2.488602      0.537092
  H      -2.442928     -1.573967      1.919853
  H      -2.632874     -1.174380      0.185071
  H      -2.489275      0.138854      1.406075
  H       1.403119      2.452066     -0.619094
  H      -0.010233      3.394680     -0.065610
  H      -0.149640      2.375415     -1.529849
  Li     -0.501848     -1.203906     -3.085597
  C       3.222795     -0.268772     -3.493167
  O       3.112285     -1.631662     -3.981697
  P       1.925469     -2.037064     -4.956164
  O       0.556125     -1.808302     -4.381950
  O       2.226759     -1.232363     -6.280585
  C       1.315167     -1.317167     -7.414288
  O       2.225064     -3.541526     -5.324803
  C       1.884489     -4.623047     -4.417395
  H       4.113369     -0.249753     -2.864836
  H       2.341545     -0.002332     -2.897767
  H       3.344186      0.423356     -4.330862
  H       1.690793     -0.604665     -8.147703
  H       0.301572     -1.044698     -7.107540
  H       1.335292     -2.328156     -7.829479
  H       2.503039     -4.563950     -3.517132
  H       2.105616     -5.543142     -4.957406
  H       0.821271     -4.585045     -4.163807
35
Coordinates from ORCA-job TMP_m1_shell2_cation_opt E -1531.375961079143
  C       2.090013     -1.766811     -0.085450
  O       1.568234     -0.430970      0.142570
  P       0.034477     -0.118671     -0.102467
  O      -0.444796     -0.480888     -1.481162
  O      -0.705245     -0.874597      1.068034
  C      -2.155090     -0.808719      1.194310
  O      -0.116341      1.410678      0.253488
  C       0.329336      2.441052     -0.670653
  H       3.159326     -1.705699      0.116112
  H       1.925002     -2.068433     -1.125843
  H       1.620640     -2.476239      0.601566
  H      -2.408018     -1.473980      2.018894
  H      -2.631803     -1.152184      0.271809
  H      -2.458627      0.214604      1.429144
  H       1.418202      2.407132     -0.767571
  H       0.026404      3.387410     -0.224036
  H      -0.154286      2.311276     -1.642829
  Li     -0.528888     -1.296333     -3.058818
  C       3.158913     -0.286250     -3.409708
  O       3.084999     -1.635593     -3.939109
  P       1.918113     -2.037054     -4.938281
  O       0.539150     -1.864842     -4.365325
  O       2.212965     -1.180023     -6.229527
  C       1.322028     -1.252521     -7.381089
  O       2.257786     -3.518732     -5.360571
  C       1.934974     -4.643850     -4.500790
  H       4.033811     -0.268967     -2.759719
  H       2.258823     -0.053175     -2.828624
  H       3.285903      0.431485     -4.224717
  H       1.689736     -0.505427     -8.083271
  H       0.296999     -1.017822     -7.081443
  H       1.377822     -2.248809     -7.826919
  H       2.548111     -4.610187     -3.595677
  H       2.176406     -5.535460     -5.078509
  H       0.870112     -4.636629     -4.251750
35
Coordinates from ORCA-job TMP_m1_shell2_cation_opt E -1531.375969807912
  C       2.114971     -1.730510     -0.109716
  O       1.570832     -0.406600      0.136601
  P       0.034403     -0.110929     -0.103232
  O      -0.447877     -0.455690     -1.484166
  O      -0.694379     -0.891509      1.057407
  C      -2.144260     -0.843514      1.189933
  O      -0.135593      1.410827      0.272727
  C       0.306906      2.460663     -0.631037
  H       3.184497     -1.650965      0.083740
  H       1.945247     -2.024277     -1.151452
  H       1.663915     -2.454075      0.574614
  H      -2.386331     -1.523714      2.005539
  H      -2.620317     -1.179036      0.264156
  H      -2.457629      0.173036      1.440402
  H       1.396602      2.437699     -0.720519
  H      -0.008508      3.396151     -0.170556
  H      -0.169017      2.341461     -1.608339
  Li     -0.532011     -1.263974     -3.066684
  C       3.165626     -0.293087     -3.420812
  O       3.072838     -1.649860     -3.927421
  P       1.911833     -2.044850     -4.934382
  O       0.529374     -1.855234     -4.372745
  O       2.229038     -1.199397     -6.226225
  C       1.354507     -1.271144     -7.391231
  O       2.236520     -3.532270     -5.348651
  C       1.889237     -4.651478     -4.490223
  H       4.013298     -0.287785     -2.735612
  H       2.249796     -0.021937     -2.882861
  H       3.345942      0.403355     -4.244145
  H       1.743030     -0.534622     -8.093214
  H       0.328782     -1.020264     -7.107770
  H       1.404731     -2.272500     -7.825874
  H       2.496527     -4.627208     -3.580967
  H       2.119617     -5.546826     -5.066599
  H       0.823044     -4.625165     -4.248619
35
Coordinates from ORCA-job TMP_m1_shell2_cation_opt E -1531.376006836006
  C       2.101583     -1.748592     -0.097825
  O       1.570198     -0.414880      0.124407
  P       0.032207     -0.115592     -0.107013
  O      -0.457347     -0.482898     -1.479126
  O      -0.691706     -0.873086      1.071457
  C      -2.141807     -0.821964      1.208613
  O      -0.126865      1.413575      0.243497
  C       0.317461      2.443588     -0.682511
  H       3.172776     -1.676058      0.089232
  H       1.923607     -2.063486     -1.132159
  H       1.648081     -2.454525      0.603398
  H      -2.381727     -1.487887      2.036521
  H      -2.621483     -1.172663      0.290436
  H      -2.454047      0.198826      1.443165
  H       1.406412      2.410546     -0.779817
  H       0.013468      3.390447     -0.237798
  H      -0.166333      2.310842     -1.654316
  Li     -0.537229     -1.297624     -3.061364
  C       3.155582     -0.290273     -3.402343
  O       3.078172     -1.645894     -3.918661
  P       1.921857     -2.044168     -4.928085
  O       0.537187     -1.873066     -4.366598
  O       2.223964     -1.178926     -6.210883
  C       1.341796     -1.242999     -7.370802
  O       2.260343     -3.524327     -5.355695
  C       1.909392     -4.654170     -4.510895
  H       3.999516     -0.281867     -2.712638
  H       2.234393     -0.030336     -2.868309
  H       3.335057      0.412949     -4.220239
  H       1.720334     -0.496650     -8.067936
  H       0.316215     -1.002712     -7.077573
  H       1.394539     -2.238600     -7.818727
  H       2.504009     -4.632930     -3.593049
  H       2.155575     -5.542857     -5.090942
  H       0.840015     -4.636972     -4.283353
35
Coordinates from ORCA-job TMP_m1_shell2_cation_opt E -1531.376021941160
  C       2.104130     -1.748071     -0.103556
  O       1.576202     -0.411294      0.109878
  P       0.036241     -0.113946     -0.114124
  O      -0.459595     -0.486544     -1.482708
  O      -0.680905     -0.868388      1.070491
  C      -2.131258     -0.822214      1.211274
  O      -0.123012      1.416523      0.231411
  C       0.313215      2.443219     -0.702326
  H       3.176751     -1.675908      0.075314
  H       1.918343     -2.072946     -1.133500
  H       1.654535     -2.446600      0.607606
  H      -2.366579     -1.486110      2.042117
  H      -2.611926     -1.177755      0.295517
  H      -2.446678      0.198210      1.443267
  H       1.402106      2.415377     -0.802171
  H       0.005406      3.391398     -0.263044
  H      -0.172239      2.302104     -1.672174
  Li     -0.537396     -1.299615     -3.064461
  C       3.144716     -0.300169     -3.381842
  O       3.074525     -1.652624     -3.909532
  P       1.921818     -2.046253     -4.924954
  O       0.535979     -1.876132     -4.367776
  O       2.226730     -1.174336     -6.202802
  C       1.344249     -1.229140     -7.363097
  O       2.260193     -3.525227     -5.356186
  C       1.907299     -4.656452     -4.512847
  H       3.982923     -0.295820     -2.685161
  H       2.218554     -0.046307     -2.853287
  H       3.329985      0.409267     -4.192964
  H       1.723158     -0.478136     -8.055030
  H       0.318793     -0.990654     -7.067922
  H       1.396173     -2.221303     -7.818793
  H       2.504700     -4.638849     -3.596715
  H       2.149432     -5.544535     -5.095460
  H       0.838626     -4.635997     -4.282377
35
Coordinates from ORCA-job TMP_m1_shell2_cation_opt E -1531.376034603433
  C       2.106117     -1.745736     -0.108506
  O       1.580771     -0.406058      0.093341
  P       0.038524     -0.111942     -0.120842
  O      -0.466577     -0.488143     -1.485652
  O      -0.668712     -0.865135      1.070536
  C      -2.118804     -0.826821      1.217768
  O      -0.121936      1.419359      0.221406
  C       0.305769      2.444145     -0.718194
  H       3.180735     -1.671966      0.057278
  H       1.908688     -2.084535     -1.131770
  H       1.664409     -2.434636      0.616851
  H      -2.346684     -1.490050      2.051224
  H      -2.601602     -1.186991      0.304972
  H      -2.438961      0.192322      1.449016
  H       1.394436      2.421321     -0.821826
  H      -0.004995      3.392827     -0.282047
  H      -0.182318      2.297061     -1.685885
  Li     -0.542879     -1.296518     -3.069719
  C       3.138986     -0.308179     -3.368150
  O       3.068520     -1.659818     -3.898869
  P       1.919755     -2.048106     -4.921200
  O       0.531663     -1.877689     -4.369917
  O       2.230432     -1.170654     -6.194078
  C       1.351794     -1.218010     -7.357422
  O       2.257592     -3.526196     -5.355336
  C       1.901002     -4.658635     -4.514511
  H       3.960869     -0.312375     -2.652247
  H       2.203572     -0.045572     -2.860532
  H       3.349972      0.399292     -4.174573
  H       1.734111     -0.464217     -8.044441
  H       0.325638     -0.979709     -7.064500
  H       1.403591     -2.207745     -7.818454
  H       2.499979     -4.645572     -3.599339
  H       2.138971     -5.546016     -5.099852
  H       0.832766     -4.634531     -4.282460
35
Coordinates from ORCA-job TMP_m1_shell2_cation_opt E -1531.376044247626
  C       2.105840     -1.744358     -0.115921
  O       1.583083     -0.403831      0.086059
  P       0.039902     -0.110030     -0.123337
  O      -0.468262     -0.479492     -1.489667
  O      -0.663047     -0.869913      1.066503
  C      -2.112955     -0.837486      1.215506
  O      -0.121981      1.419675      0.226506
  C       0.298807      2.449347     -0.710521
  H       3.181271     -1.671856      0.045172
  H       1.904070     -2.084169     -1.138012
  H       1.666139     -2.431703      0.612048
  H      -2.337498     -1.505589      2.045977
  H      -2.595569     -1.194708      0.301466
  H      -2.436472      0.179332      1.452277
  H       1.387394      2.432637     -0.815914
  H      -0.016209      3.395082     -0.270970
  H      -0.189968      2.303171     -1.677979
  Li     -0.546805     -1.277537     -3.079003
  C       3.144762     -0.311210     -3.370509
  O       3.067582     -1.663090     -3.899023
  P       1.917247     -2.047858     -4.921910
  O       0.528794     -1.868245     -4.373773
  O       2.233863     -1.175488     -6.197221
  C       1.356064     -1.221185     -7.360773
  O       2.249221     -3.528801     -5.350654
  C       1.894262     -4.655693     -4.501954
  H       3.957631     -0.321834     -2.644405
  H       2.206229     -0.037821     -2.874435
  H       3.372976      0.391639     -4.176208
  H       1.741951     -0.470244     -8.048955
  H       0.330559     -0.978214     -7.069395
  H       1.404073     -2.211823     -7.820322
  H       2.499628     -4.640000     -3.591081
  H       2.124978     -5.546837     -5.084509
  H       0.827633     -4.627093     -4.262996
35
Coordinates from ORCA-job TMP_m1_shell2_cation_opt E -1531.376051706083
  C       2.101583     -1.749236     -0.122508
  O       1.583180     -0.407797      0.083887
  P       0.040342     -0.110360     -0.123530
  O      -0.469422     -0.472884     -1.491485
  O      -0.662657     -0.874231      1.063788
  C      -2.112334     -0.841528      1.213113
  O      -0.119057      1.418079      0.233368
  C       0.297901      2.451532     -0.700946
  H       3.176964     -1.680908      0.040771
  H       1.900866     -2.083491     -1.146632
  H       1.658041     -2.438107      0.601569
  H      -2.337075     -1.513440      2.040450
  H      -2.595263     -1.194016      0.297424
  H      -2.434958      0.174389      1.454791
  H       1.386322      2.437660     -0.807946
  H      -0.018766      3.395010     -0.257725
  H      -0.192045      2.307348     -1.668049
  Li     -0.549674     -1.261907     -3.085684
  C       3.149691     -0.308595     -3.376385
  O       3.068593     -1.660582     -3.902687
  P       1.915663     -2.045674     -4.923178
  O       0.527369     -1.859711     -4.375797
  O       2.234540     -1.179801     -6.202576
  C       1.356046     -1.227905     -7.365162
  O       2.244760     -3.528920     -5.346235
  C       1.895302     -4.651029     -4.489495
  H       3.962076     -0.320455     -2.649732
  H       2.212060     -0.031395     -2.880819
  H       3.380526      0.392078     -4.183208
  H       1.742479     -0.479505     -8.055818
  H       0.331026     -0.982615     -7.074094
  H       1.402522     -2.220008     -7.821645
  H       2.506246     -4.630281     -3.582516
  H       2.122303     -5.545276     -5.068778
  H       0.830044     -4.621665     -4.244462
35
Coordinates from ORCA-job TMP_m1_shell2_cation_opt E -1531.376062171629
  C       2.094716     -1.757931     -0.136869
  O       1.583249     -0.414077      0.071584
  P       0.040055     -0.112330     -0.126895
  O      -0.479286     -0.473831     -1.491477
  O      -0.657583     -0.873607      1.065106
  C      -2.106359     -0.839756      1.221120
  O      -0.112612      1.416628      0.230818
  C       0.295680      2.449121     -0.708114
  H       3.170485     -1.694794      0.025967
  H       1.892099     -2.088684     -1.161735
  H       1.647880     -2.445592      0.586184
  H      -2.327644     -1.512251      2.048901
  H      -2.593643     -1.190993      0.307290
  H      -2.426587      0.176313      1.465143
  H       1.383172      2.436094     -0.823920
  H      -0.018449      3.392673     -0.263259
  H      -0.202184      2.302950     -1.670787
  Li     -0.559602     -1.251078     -3.092210
  C       3.150479     -0.306534     -3.371161
  O       3.067259     -1.657527     -3.897763
  P       1.914175     -2.042273     -4.918529
  O       0.524504     -1.855013     -4.373883
  O       2.236151     -1.178258     -6.198563
  C       1.360006     -1.227985     -7.362615
  O       2.244530     -3.525520     -5.340662
  C       1.898142     -4.647471     -4.483129
  H       3.959704     -0.320623     -2.641004
  H       2.212052     -0.026227     -2.879044
  H       3.386604      0.393371     -4.177143
  H       1.746493     -0.478838     -8.052435
  H       0.334071     -0.984165     -7.073635
  H       1.409050     -2.220122     -7.818654
  H       2.510055     -4.625294     -3.576916
  H       2.125503     -5.541615     -5.062477
  H       0.833028     -4.619987     -4.237165
35
Coordinates from ORCA-job TMP_m1_shell2_cation_opt E -1531.376073910255
  C       2.081309     -1.778955     -0.156116
  O       1.582793     -0.431015      0.059196
  P       0.040416     -0.118263     -0.129689
  O      -0.490349     -0.474064     -1.491035
  O      -0.655174     -0.876826      1.065106
  C      -2.103091     -0.835730      1.227352
  O      -0.099561      1.410914      0.232209
  C       0.300072      2.443000     -0.710869
  H       3.157138     -1.727285      0.010302
  H       1.878529     -2.100257     -1.183869
  H       1.625387     -2.466624      0.561180
  H      -2.324385     -1.510431      2.053315
  H      -2.595935     -1.180616      0.314109
  H      -2.416329      0.181169      1.476771
  H       1.386249      2.428351     -0.838168
  H      -0.008144      3.386761     -0.262347
  H      -0.208367      2.297229     -1.668007
  Li     -0.567628     -1.234057     -3.100742
  C       3.150121     -0.290982     -3.373935
  O       3.066899     -1.643976     -3.894073
  P       1.914410     -2.035253     -4.912919
  O       0.523528     -1.847687     -4.371524
  O       2.237361     -1.177404     -6.197081
  C       1.362044     -1.234307     -7.361420
  O       2.248552     -3.519738     -5.327788
  C       1.905024     -4.638801     -4.465751
  H       3.961037     -0.300576     -2.645586
  H       2.212779     -0.009279     -2.880623
  H       3.383338      0.405665     -4.183612
  H       1.745454     -0.485129     -8.052937
  H       0.334862     -0.994218     -7.073771
  H       1.415962     -2.227530     -7.814446
  H       2.516277     -4.611068     -3.559275
  H       2.134985     -5.534814     -5.041211
  H       0.839632     -4.613430     -4.220675
35
Coordinates from ORCA-job TMP_m1_shell2_cation_opt E -1531.376085782360
  C       2.074875     -1.789612     -0.182369
  O       1.581825     -0.441240      0.044357
  P       0.039474     -0.122809     -0.133863
  O      -0.501284     -0.472822     -1.492052
  O      -0.651580     -0.882283      1.062811
  C      -2.098669     -0.839198      1.231893
  O      -0.091982      1.405808      0.233042
  C       0.301378      2.439361     -0.711057
  H       3.150856     -1.743837     -0.015224
  H       1.870663     -2.101095     -1.212809
  H       1.616134     -2.481622      0.529033
  H      -2.317736     -1.516947      2.055963
  H      -2.596429     -1.179306      0.319502
  H      -2.408941      0.177237      1.486974
  H       1.386244      2.421928     -0.849274
  H       0.000530      3.382913     -0.257151
  H      -0.216803      2.297578     -1.663602
  Li     -0.576825     -1.214624     -3.110353
  C       3.151010     -0.279367     -3.372385
  O       3.067720     -1.633934     -3.887957
  P       1.916204     -2.029349     -4.905407
  O       0.524847     -1.837919     -4.367228
  O       2.241779     -1.178718     -6.193660
  C       1.368420     -1.241615     -7.359320
  O       2.249130     -3.516264     -5.312554
  C       1.901474     -4.631612     -4.447598
  H       3.964198     -0.285147     -2.646546
  H       2.214811      0.002755     -2.877007
  H       3.380351      0.415633     -4.184669
  H       1.751967     -0.495093     -8.053633
  H       0.340411     -1.001292     -7.074646
  H       1.423996     -2.236830     -7.807769
  H       2.508847     -4.600987     -3.538525
  H       2.133147     -5.530251     -5.018259
  H       0.835152     -4.604667     -4.206586
35
Coordinates from ORCA-job TMP_m1_shell2_cation_opt E -1531.376096098249
  C       2.065886     -1.806800     -0.200020
  O       1.579797     -0.457230      0.035681
  P       0.038840     -0.129421     -0.136489
  O      -0.509486     -0.472585     -1.492949
  O      -0.653120     -0.888607      1.059825
  C      -2.099763     -0.838711      1.232371
  O      -0.081873      1.398815      0.235351
  C       0.312324      2.433117     -0.707612
  H       3.142052     -1.767996     -0.032367
  H       1.859671     -2.110665     -1.232265
  H       1.603723     -2.501218      0.506975
  H      -2.320733     -1.518009      2.054668
  H      -2.601445     -1.173300      0.320059
  H      -2.404491      0.178423      1.491478
  H       1.396304      2.409471     -0.852316
  H       0.020171      3.377193     -0.249155
  H      -0.212075      2.297809     -1.657756
  Li     -0.580182     -1.200257     -3.117249
  C       3.145625     -0.259961     -3.376826
  O       3.068086     -1.617698     -3.886026
  P       1.918781     -2.022374     -4.901392
  O       0.527631     -1.830994     -4.364099
  O       2.242972     -1.179351     -6.194798
  C       1.370352     -1.251218     -7.360852
  O       2.253304     -3.511667     -5.298604
  C       1.904724     -4.622331     -4.427787
  H       3.965382     -0.256432     -2.658444
  H       2.211420      0.016535     -2.874456
  H       3.361945      0.433991     -4.193611
  H       1.751710     -0.507147     -8.058970
  H       0.341332     -1.012922     -7.078001
  H       1.429540     -2.248656     -7.803894
  H       2.510538     -4.586337     -3.517758
  H       2.138141     -5.524247     -4.992499
  H       0.838108     -4.594447     -4.188145
35
Coordinates from ORCA-job TMP_m1_shell2_cation_opt E -1531.376102261879
  C       2.063048     -1.812056     -0.211224
  O       1.577596     -0.463535      0.031045
  P       0.037232     -0.132279     -0.138248
  O      -0.513566     -0.469551     -1.495221
  O      -0.655105     -0.894332      1.056093
  C      -2.101639     -0.843177      1.229780
  O      -0.079472      1.395059      0.238683
  C       0.319154      2.431513     -0.699875
  H       3.139807     -1.774062     -0.047238
  H       1.852817     -2.112814     -1.243563
  H       1.603638     -2.509116      0.495090
  H      -2.323030     -1.523746      2.050933
  H      -2.604478     -1.175467      0.317251
  H      -2.405436      0.173719      1.491102
  H       1.402909      2.403116     -0.845890
  H       0.032532      3.375215     -0.237149
  H      -0.206671      2.303703     -1.650362
  Li     -0.582327     -1.188437     -3.123046
  C       3.143488     -0.250879     -3.379940
  O       3.069778     -1.610019     -3.887252
  P       1.920788     -2.018723     -4.900899
  O       0.530701     -1.824005     -4.362516
  O       2.244174     -1.182021     -6.198334
  C       1.371823     -1.259180     -7.364403
  O       2.252465     -3.510560     -5.290962
  C       1.903810     -4.615978     -4.413302
  H       3.967218     -0.242832     -2.666185
  H       2.210422      0.020985     -2.872933
  H       3.351828      0.443439     -4.198505
  H       1.754099     -0.519285     -8.066432
  H       0.342889     -1.018583     -7.083106
  H       1.430206     -2.259001     -7.802203
  H       2.511643     -4.575962     -3.504703
  H       2.135010     -5.521412     -4.973250
  H       0.837844     -4.584963     -4.171170
35
Coordinates from ORCA-job TMP_m1_shell2_cation_opt E -1531.376106894950
  C       2.059285     -1.816934     -0.218313
  O       1.574793     -0.469255      0.028868
  P       0.035149     -0.134383     -0.139081
  O      -0.516955     -0.465797     -1.497382
  O      -0.658635     -0.899300      1.052690
  C      -2.105149     -0.846551      1.226359
  O      -0.078330      1.391963      0.243323
  C       0.326950      2.430627     -0.689655
  H       3.136895     -1.779168     -0.059909
  H       1.843663     -2.116298     -1.249974
  H       1.603710     -2.515335      0.489192
  H      -2.327392     -1.527673      2.046831
  H      -2.608332     -1.177292      0.313465
  H      -2.407921      0.170380      1.488789
  H       1.410746      2.397421     -0.834457
  H       0.044725      3.373696     -0.222916
  H      -0.198245      2.310564     -1.641539
  Li     -0.582786     -1.178471     -3.127731
  C       3.141629     -0.243199     -3.385003
  O       3.071586     -1.603468     -3.890948
  P       1.922148     -2.015852     -4.902693
  O       0.533195     -1.818390     -4.362130
  O       2.243925     -1.184894     -6.203931
  C       1.371434     -1.267254     -7.369560
  O       2.251674     -3.509846     -5.286311
  C       1.906023     -4.609772     -4.400389
  H       3.968888     -0.231439     -2.675413
  H       2.209648      0.024102     -2.873712
  H       3.342906      0.451281     -4.205180
  H       1.754757     -0.531686     -8.075538
  H       0.342846     -1.023984     -7.089355
  H       1.428630     -2.269475     -7.801995
  H       2.518595     -4.564881     -3.495192
  H       2.133780     -5.518680     -4.956091
  H       0.841357     -4.575986     -4.153051
35
Coordinates from ORCA-job TMP_m1_shell2_cation_opt E -1531.376110404066
  C       2.055184     -1.819528     -0.225721
  O       1.571644     -0.472771      0.026504
  P       0.032348     -0.135348     -0.139552
  O      -0.520993     -0.462044     -1.498922
  O      -0.661925     -0.902848      1.050310
  C      -2.108368     -0.849472      1.224218
  O      -0.078940      1.390034      0.247843
  C       0.332489      2.430622     -0.680051
  H       3.133729     -1.781592     -0.073806
  H       1.833693     -2.117465     -1.256590
  H       1.604004     -2.519198      0.483301
  H      -2.330602     -1.530677      2.044614
  H      -2.611695     -1.179783      0.311277
  H      -2.410684      0.167497      1.486983
  H       1.416313      2.393175     -0.823519
  H       0.053929      3.372994     -0.209682
  H      -0.192000      2.317319     -1.633161
  Li     -0.583548     -1.169735     -3.131612
  C       3.142383     -0.239036     -3.389168
  O       3.074042     -1.599712     -3.894690
  P       1.923150     -2.014002     -4.904415
  O       0.535178     -1.813714     -4.361613
  O       2.243514     -1.187577     -6.208667
  C       1.370528     -1.273937     -7.373546
  O       2.250730     -3.509588     -5.283485
  C       1.909047     -4.604863     -4.390183
  H       3.972199     -0.225514     -2.682621
  H       2.211518      0.025393     -2.874530
  H       3.339101      0.455568     -4.210313
  H       1.755302     -0.542651     -8.083162
  H       0.342596     -1.027209     -7.094063
  H       1.425552     -2.278358     -7.801098
  H       2.526640     -4.555538     -3.488675
  H       2.133416     -5.516598     -4.942620
  H       0.845723     -4.569073     -4.137515
35
Coordinates from ORCA-job TMP_m1_shell2_cation_opt E -1531.376114092887
  C       2.048733     -1.822704     -0.235192
  O       1.567374     -0.476789      0.023951
  P       0.028418     -0.136110     -0.139476
  O      -0.526583     -0.457755     -1.499693
  O      -0.666421     -0.906051      1.048444
  C      -2.112767     -0.851394      1.222673
  O      -0.080087      1.388145      0.253544
  C       0.338616      2.430607     -0.668869
  H       3.128358     -1.785384     -0.090876
  H       1.820308     -2.117861     -1.265379
  H       1.602098     -2.524026      0.474998
  H      -2.335103     -1.532362      2.043218
  H      -2.616305     -1.181354      0.309761
  H      -2.414084      0.165840      1.485461
  H       1.422427      2.388016     -0.810754
  H       0.064300      3.372253     -0.194558
  H      -0.185099      2.324597     -1.623231
  Li     -0.583631     -1.160852     -3.134861
  C       3.145059     -0.234790     -3.394762
  O       3.077484     -1.595880     -3.899215
  P       1.924306     -2.012314     -4.906030
  O       0.537364     -1.809589     -4.360667
  O       2.242542     -1.190394     -6.213457
  C       1.368314     -1.281264     -7.376955
  O       2.250803     -3.509221     -5.280857
  C       1.914808     -4.599933     -4.379734
  H       3.977909     -0.219422     -2.691839
  H       2.215896      0.027572     -2.876163
  H       3.336956      0.459511     -4.217278
  H       1.754358     -0.554878     -8.090891
  H       0.341339     -1.030423     -7.097752
  H       1.420482     -2.288166     -7.798935
  H       2.537924     -4.545342     -3.482408
  H       2.136168     -5.514383     -4.928891
  H       0.852931     -4.563127     -4.121257
35
Coordinates from ORCA-job TMP_m1_shell2_cation_opt E -1531.376118411167
  C       2.039395     -1.826551     -0.248747
  O       1.561497     -0.481660      0.020770
  P       0.022905     -0.136789     -0.138932
  O      -0.534220     -0.452315     -1.499793
  O      -0.672634     -0.909473      1.046682
  C      -2.118876     -0.852791      1.221393
  O      -0.081790      1.386018      0.260893
  C       0.345905      2.430547     -0.655132
  H       3.120221     -1.790891     -0.113127
  H       1.802819     -2.116459     -1.278608
  H       1.597501     -2.530750      0.461492
  H      -2.341586     -1.533517      2.042016
  H      -2.622823     -1.182031      0.308485
  H      -2.418621      0.164845      1.484337
  H       1.429633      2.381346     -0.795231
  H       0.077006      3.371376     -0.176136
  H      -0.176962      2.333174     -1.610867
  Li     -0.582732     -1.150746     -3.137671
  C       3.150328     -0.229848     -3.402229
  O       3.082625     -1.591451     -3.904767
  P       1.926077     -2.010597     -4.907141
  O       0.540507     -1.805322     -4.358693
  O       2.241114     -1.193756     -6.218387
  C       1.364378     -1.289963     -7.379510
  O       2.251858     -3.508803     -5.277541
  C       1.923519     -4.594717     -4.367698
  H       3.987399     -0.212014     -2.704388
  H       2.223861      0.031001     -2.878154
  H       3.335907      0.463900     -4.226659
  H       1.751451     -0.569723     -8.099086
  H       0.338849     -1.033772     -7.099952
  H       1.412398     -2.299889     -7.794640
  H       2.552736     -4.533666     -3.475129
  H       2.142292     -5.512022     -4.913125
  H       0.863258     -4.557918     -4.102654
35
Coordinates from ORCA-job TMP_m1_shell2_cation_opt E -1531.376123210136
  C       2.027023     -1.831586     -0.266368
  O       1.554010     -0.487897      0.017178
  P       0.015925     -0.137585     -0.137960
  O      -0.543751     -0.445734     -1.499245
  O      -0.680707     -0.913224      1.044916
  C      -2.126848     -0.853327      1.220328
  O      -0.083518      1.383476      0.269679
  C       0.354561      2.430192     -0.639251
  H       3.109027     -1.799021     -0.139501
  H       1.781784     -2.113244     -1.296504
  H       1.589271     -2.540129      0.442083
  H      -2.350547     -1.534135      2.040594
  H      -2.631624     -1.180810      0.307275
  H      -2.424125      0.164811      1.484098
  H       1.438111      2.373044     -0.777498
  H       0.092201      3.370128     -0.154945
  H      -0.167396      2.342633     -1.596434
  Li     -0.580208     -1.139791     -3.139680
  C       3.158122     -0.223581     -3.411798
  O       3.089586     -1.585960     -3.911295
  P       1.928757     -2.008772     -4.907466
  O       0.545064     -1.801013     -4.355316
  O       2.239197     -1.197579     -6.223287
  C       1.358378     -1.299904     -7.380846
  O       2.254106     -3.508295     -5.273204
  C       1.935352     -4.589393     -4.354091
  H       4.000746     -0.202274     -2.720753
  H       2.235409      0.036261     -2.880609
  H       3.335400      0.469359     -4.238765
  H       1.745823     -0.586875     -8.107364
  H       0.334788     -1.037441     -7.100040
  H       1.401128     -2.313289     -7.788014
  H       2.570992     -4.520863     -3.466673
  H       2.152296     -5.509572     -4.895399
  H       0.876862     -4.553836     -4.081778
35
Coordinates from ORCA-job TMP_m1_shell2_cation_opt E -1531.376127272955
  C       2.015995     -1.836513     -0.281346
  O       1.547576     -0.493661      0.014330
  P       0.010049     -0.138349     -0.137197
  O      -0.551667     -0.440060     -1.498686
  O      -0.687691     -0.916219      1.043437
  C      -2.133729     -0.852972      1.219708
  O      -0.084249      1.381294      0.276537
  C       0.361210      2.429689     -0.627235
  H       3.098672     -1.807595     -0.159365
  H       1.765252     -2.109997     -1.312338
  H       1.579710     -2.549134      0.423953
  H      -2.358756     -1.534619      2.038909
  H      -2.639675     -1.177647      0.306302
  H      -2.428396      0.165451      1.485348
  H       1.444548      2.366523     -0.764525
  H       0.103993      3.368916     -0.138853
  H      -0.160288      2.349504     -1.585336
  Li     -0.577129     -1.131266     -3.140607
  C       3.166148     -0.218239     -3.420096
  O       3.096398     -1.581269     -3.916937
  P       1.931668     -2.007246     -4.906975
  O       0.549979     -1.797348     -4.351391
  O       2.237471     -1.200575     -6.226795
  C       1.352048     -1.307455     -7.380569
  O       2.256209     -3.507841     -5.269344
  C       1.946045     -4.585611     -4.343327
  H       4.013651     -0.193916     -2.735132
  H       2.246867      0.041265     -2.882684
  H       3.336067      0.474180     -4.249098
  H       1.738873     -0.600130     -8.112968
  H       0.330303     -1.039985     -7.097712
  H       1.390079     -2.323485     -7.781584
  H       2.586697     -4.511163     -3.459982
  H       2.162221     -5.507789     -4.881529
  H       0.889047     -4.551966     -4.064843
35
Coordinates from ORCA-job TMP_m1_shell2_cation_opt E -1531.376131276079
  C       2.007692     -1.841279     -0.290153
  O       1.543151     -0.498212      0.011833
  P       0.006133     -0.138900     -0.137173
  O      -0.557786     -0.437173     -1.498143
  O      -0.691949     -0.916862      1.043143
  C      -2.137763     -0.850444      1.221112
  O      -0.083484      1.380260      0.278887
  C       0.364479      2.428946     -0.623551
  H       3.090554     -1.815946     -0.169026
  H       1.754934     -2.109662     -1.321957
  H       1.570232     -2.555782      0.412593
  H      -2.363743     -1.532964      2.039331
  H      -2.645579     -1.172303      0.307733
  H      -2.429813      0.168209      1.488841
  H       1.447584      2.362763     -0.761442
  H       0.110289      3.368152     -0.133573
  H      -0.157667      2.351717     -1.581574
  Li     -0.574566     -1.128104     -3.140111
  C       3.172222     -0.215662     -3.424007
  O       3.101747     -1.578646     -3.920455
  P       1.934325     -2.006311     -4.905951
  O       0.554368     -1.795862     -4.347325
  O       2.235925     -1.201185     -6.227929
  C       1.346476     -1.309892     -7.378590
  O       2.258186     -3.507192     -5.267925
  C       1.955027     -4.584329     -4.338908
  H       4.022538     -0.189955     -2.742589
  H       2.254924      0.043422     -2.882839
  H       3.337637      0.477335     -4.253492
  H       1.731717     -0.605055     -8.114220
  H       0.326001     -1.040181     -7.093171
  H       1.381690     -2.327048     -7.777051
  H       2.599017     -4.506776     -3.458200
  H       2.171570     -5.506898     -4.876283
  H       0.899127     -4.553410     -4.055767
35
Coordinates from ORCA-job TMP_m1_shell2_cation_opt E -1531.376136155087
  C       2.000255     -1.845721     -0.296251
  O       1.539285     -0.501867      0.008857
  P       0.002718     -0.138902     -0.137693
  O      -0.564194     -0.434701     -1.497738
  O      -0.694752     -0.916187      1.043446
  C      -2.140152     -0.846629      1.224401
  O      -0.082310      1.380175      0.279145
  C       0.364302      2.428848     -0.624040
  H       3.083003     -1.824068     -0.173482
  H       1.747597     -2.110577     -1.328978
  H       1.559947     -2.560920      0.404103
  H      -2.366534     -1.530776      2.041163
  H      -2.650770     -1.164707      0.311237
  H      -2.429215      0.172018      1.495458
  H       1.447147      2.362060     -0.763934
  H       0.111605      3.368163     -0.133505
  H      -0.159539      2.352071     -1.581205
  Li     -0.571600     -1.127492     -3.138698
  C       3.179343     -0.215803     -3.425741
  O       3.107695     -1.578162     -3.923645
  P       1.937570     -2.006031     -4.904906
  O       0.559679     -1.795403     -4.342305
  O       2.234532     -1.200693     -6.228134
  C       1.340746     -1.309357     -7.375554
  O       2.259754     -3.506869     -5.268512
  C       1.963450     -4.584723     -4.338276
  H       4.030793     -0.190725     -2.745736
  H       2.262959      0.043293     -2.882885
  H       3.343150      0.478399     -4.254578
  H       1.723821     -0.605367     -8.113127
  H       0.321497     -1.038541     -7.086703
  H       1.373576     -2.326812     -7.773522
  H       2.610656     -4.505565     -3.459992
  H       2.180480     -5.506841     -4.876213
  H       0.908701     -4.556818     -4.050388
35
Coordinates from ORCA-job TMP_m1_shell2_cation_opt E -1531.376142043875
  C       1.992262     -1.849725     -0.302252
  O       1.534934     -0.504935      0.004593
  P      -0.001245     -0.138199     -0.138533
  O      -0.572473     -0.430961     -1.497502
  O      -0.696966     -0.915122      1.043945
  C      -2.141684     -0.842446      1.229450
  O      -0.081539      1.380755      0.279390
  C       0.360489      2.429922     -0.625302
  H       3.074758     -1.831896     -0.176742
  H       1.740762     -2.111655     -1.336025
  H       1.548271     -2.565115      0.395661
  H      -2.367721     -1.529428      2.043935
  H      -2.656099     -1.155198      0.316562
  H      -2.427163      0.175821      1.505697
  H       1.442962      2.364435     -0.768864
  H       0.108412      3.369000     -0.133985
  H      -0.166351      2.352660     -1.580794
  Li     -0.568023     -1.126978     -3.136967
  C       3.190010     -0.218446     -3.427227
  O       3.115931     -1.579718     -3.927975
  P       1.942031     -2.006246     -4.904345
  O       0.566961     -1.794728     -4.335746
  O       2.233368     -1.200118     -6.228655
  C       1.334509     -1.307855     -7.372198
  O       2.260708     -3.507108     -5.270585
  C       1.971672     -4.585675     -4.339112
  H       4.041398     -0.196295     -2.747084
  H       2.273948      0.041432     -2.884151
  H       3.354938      0.477089     -4.254718
  H       1.715105     -0.604301     -8.111473
  H       0.316758     -1.035998     -7.079012
  H       1.364539     -2.325322     -7.770404
  H       2.622915     -4.505305     -3.463867
  H       2.188433     -5.507260     -4.878047
  H       0.918386     -4.560308     -4.045597
35
Coordinates from ORCA-job TMP_m1_shell2_cation_opt E -1531.376148810225
  C       1.976430     -1.858168     -0.314891
  O       1.526866     -0.511743     -0.004524
  P      -0.008424     -0.137279     -0.139940
  O      -0.588425     -0.423250     -1.497126
  O      -0.700968     -0.914322      1.044424
  C      -2.144292     -0.835629      1.238224
  O      -0.079639      1.381018      0.281917
  C       0.353481      2.431742     -0.624815
  H       3.058670     -1.847631     -0.186339
  H       1.725839     -2.114747     -1.350286
  H       1.526371     -2.573553      0.379190
  H      -2.369641     -1.527753      2.048546
  H      -2.665406     -1.138464      0.325786
  H      -2.422718      0.181965      1.523927
  H       1.435008      2.368514     -0.776393
  H       0.103305      3.369921     -0.130773
  H      -0.180064      2.354685     -1.576584
  Li     -0.562666     -1.122664     -3.135314
  C       3.210090     -0.222704     -3.431174
  O       3.131579     -1.581950     -3.937177
  P       1.949987     -2.005811     -4.904468
  O       0.580170     -1.791326     -4.324221
  O       2.231455     -1.199973     -6.231339
  C       1.324001     -1.307398     -7.367943
  O       2.261782     -3.507215     -5.273642
  C       1.986464     -4.584724     -4.337069
  H       4.062196     -0.206023     -2.751829
  H       2.295226      0.037669     -2.886396
  H       3.376124      0.475055     -4.256519
  H       1.700361     -0.605298     -8.110770
  H       0.308899     -1.033525     -7.067524
  H       1.349301     -2.325273     -7.765462
  H       2.646764     -4.500620     -3.468963
  H       2.200685     -5.506645     -4.876423
  H       0.936380     -4.562111     -4.032041
35
Coordinates from ORCA-job TMP_m1_shell2_cation_opt E -1531.376153327209
  C       1.978169     -1.853869     -0.312886
  O       1.527135     -0.507425     -0.006033
  P      -0.008706     -0.134913     -0.139952
  O      -0.589948     -0.420720     -1.496871
  O      -0.698711     -0.913309      1.045055
  C      -2.141686     -0.835877      1.241221
  O      -0.082040      1.383269      0.282200
  C       0.342885      2.435234     -0.626724
  H       3.060069     -1.842434     -0.181512
  H       1.730810     -2.112208     -1.348665
  H       1.526688     -2.568543      0.380942
  H      -2.365368     -1.530643      2.049742
  H      -2.663997     -1.136035      0.328590
  H      -2.419836      0.180758      1.530490
  H       1.424153      2.377208     -0.782016
  H       0.089821      3.372567     -0.132523
  H      -0.193556      2.354816     -1.576533
  Li     -0.560552     -1.126290     -3.132545
  C       3.218639     -0.229301     -3.430686
  O       3.136207     -1.587956     -3.938129
  P       1.952442     -2.007867     -4.904706
  O       0.583963     -1.792789     -4.320843
  O       2.232753     -1.199653     -6.230197
  C       1.324462     -1.304523     -7.366180
  O       2.261043     -3.509004     -5.277102
  C       1.981792     -4.587804     -4.343163
  H       4.068570     -0.217196     -2.748531
  H       2.303044      0.034122     -2.888770
  H       3.390590      0.467814     -4.255295
  H       1.699985     -0.600335     -8.107450
  H       0.309524     -1.031899     -7.064147
  H       1.349865     -2.321313     -7.766419
  H       2.640629     -4.506700     -3.473708
  H       2.195222     -5.508948     -4.884166
  H       0.931135     -4.563457     -4.040415
35
Coordinates from ORCA-job TMP_m1_shell2_cation_opt E -1531.376157747025
  C       1.979336     -1.849476     -0.313314
  O       1.527965     -0.502405     -0.011884
  P      -0.008634     -0.131931     -0.140625
  O      -0.594062     -0.417802     -1.496084
  O      -0.693953     -0.912220      1.045821
  C      -2.136388     -0.837189      1.245976
  O      -0.083630      1.385894      0.282918
  C       0.329401      2.439571     -0.629311
  H       3.061186     -1.837342     -0.181409
  H       1.733597     -2.111450     -1.348627
  H       1.527357     -2.561998      0.382310
  H      -2.356810     -1.534579      2.053111
  H      -2.660534     -1.135244      0.333741
  H      -2.414654      0.178333      1.538880
  H       1.409951      2.387987     -0.791459
  H       0.073795      3.375717     -0.134147
  H      -0.212600      2.355080     -1.575532
  Li     -0.559519     -1.128595     -3.130278
  C       3.227991     -0.236696     -3.429163
  O       3.141088     -1.594813     -3.937641
  P       1.954980     -2.009927     -4.904323
  O       0.587477     -1.794388     -4.317021
  O       2.235361     -1.199245     -6.227755
  C       1.328018     -1.301637     -7.364469
  O       2.260579     -3.510811     -5.279791
  C       1.974227     -4.590441     -4.348725
  H       4.075441     -0.229431     -2.743850
  H       2.311743      0.030430     -2.890379
  H       3.406826      0.459290     -4.253176
  H       1.702748     -0.594109     -8.102952
  H       0.312429     -1.031935     -7.062052
  H       1.355451     -2.316914     -7.768321
  H       2.630716     -4.513335     -3.477238
  H       2.185714     -5.511166     -4.891218
  H       0.922600     -4.562451     -4.049941
35
Coordinates from ORCA-job TMP_m1_shell2_cation_opt E -1531.376159251043
  C       1.980567     -1.846670     -0.314586
  O       1.528831     -0.499631     -0.013874
  P      -0.008121     -0.130383     -0.140790
  O      -0.593604     -0.413965     -1.496599
  O      -0.692306     -0.913845      1.044199
  C      -2.134824     -0.840826      1.244453
  O      -0.084475      1.386489      0.285958
  C       0.324841      2.442431     -0.625493
  H       3.062484     -1.834120     -0.183204
  H       1.734850     -2.109358     -1.349733
  H       1.529017     -2.558984      0.381496
  H      -2.354424     -1.539877      2.050372
  H      -2.658510     -1.137856      0.331622
  H      -2.414223      0.173878      1.539108
  H       1.405238      2.393497     -0.789375
  H       0.067863      3.377276     -0.128596
  H      -0.218445      2.357876     -1.570948
  Li     -0.558915     -1.125842     -3.130667
  C       3.232029     -0.238711     -3.430885
  O       3.143039     -1.597074     -3.938268
  P       1.955527     -2.010650     -4.904358
  O       0.588574     -1.792795     -4.316442
  O       2.236919     -1.201233     -6.228082
  C       1.329777     -1.303155     -7.364989
  O       2.258905     -3.512256     -5.279014
  C       1.969227     -4.590550     -4.347230
  H       4.080170     -0.231877     -2.746399
  H       2.316705      0.029906     -2.891284
  H       3.411044      0.456497     -4.255518
  H       1.704572     -0.595327     -8.103145
  H       0.314116     -1.033565     -7.062701
  H       1.357295     -2.318302     -7.769134
  H       2.625655     -4.514524     -3.475635
  H       2.178279     -5.512198     -4.889103
  H       0.917517     -4.559502     -4.049087
35
Coordinates from ORCA-job TMP_m1_shell2_cation_opt E -1531.376160900149
  C       1.978317     -1.847508     -0.319329
  O       1.528801     -0.499480     -0.019459
  P      -0.008245     -0.129382     -0.141885
  O      -0.596559     -0.410305     -1.496884
  O      -0.690588     -0.915405      1.042431
  C      -2.132984     -0.843135      1.244327
  O      -0.082946      1.386441      0.288694
  C       0.322693      2.444411     -0.622407
  H       3.060569     -1.836147     -0.190571
  H       1.730147     -2.111328     -1.353627
  H       1.527433     -2.558358      0.378666
  H      -2.351468     -1.542977      2.049861
  H      -2.657437     -1.139523      0.331730
  H      -2.412528      0.171193      1.540181
  H       1.402606      2.396530     -0.789668
  H       0.066489      3.378155     -0.123084
  H      -0.223469      2.360760     -1.566259
  Li     -0.558687     -1.122420     -3.131389
  C       3.234472     -0.237963     -3.432384
  O       3.144873     -1.596899     -3.937866
  P       1.956413     -2.010538     -4.903200
  O       0.589815     -1.791647     -4.315022
  O       2.238435     -1.202611     -6.227401
  C       1.332091     -1.305258     -7.364978
  O       2.259118     -3.512780     -5.276572
  C       1.966694     -4.589879     -4.344009
  H       4.084986     -0.229317     -2.750841
  H       2.320916      0.030678     -2.889767
  H       3.410076      0.456820     -4.258151
  H       1.706185     -0.596473     -8.102563
  H       0.315813     -1.037283     -7.063268
  H       1.361430     -2.320241     -7.769385
  H       2.623418     -4.514843     -3.472563
  H       2.173274     -5.512407     -4.885339
  H       0.915042     -4.556108     -4.045948
35
Coordinates from ORCA-job TMP_m1_shell2_cation_opt E -1531.376161891837
  C       1.977952     -1.846390     -0.323064
  O       1.528876     -0.498266     -0.022315
  P      -0.008355     -0.128227     -0.142781
  O      -0.596876     -0.405199     -1.498315
  O      -0.689986     -0.918123      1.039414
  C      -2.132444     -0.847145      1.241669
  O      -0.082915      1.386230      0.292334
  C       0.321250      2.447073     -0.616371
  H       3.060353     -1.835242     -0.195566
  H       1.728468     -2.110030     -1.357096
  H       1.527788     -2.557291      0.375357
  H      -2.350458     -1.548505      2.046016
  H      -2.656859     -1.142292      0.328640
  H      -2.412767      0.166458      1.539330
  H       1.401061      2.400214     -0.784628
  H       0.064915      3.379265     -0.114235
  H      -0.225640      2.365562     -1.559995
  Li     -0.558044     -1.117989     -3.132699
  C       3.237341     -0.237206     -3.435301
  O       3.146482     -1.596906     -3.938360
  P       1.957086     -2.010750     -4.902448
  O       0.591031     -1.789344     -4.314414
  O       2.239789     -1.205287     -6.227961
  C       1.333293     -1.308509     -7.365457
  O       2.257951     -3.514045     -5.273698
  C       1.963351     -4.589548     -4.339922
  H       4.090255     -0.226910     -2.756778
  H       2.325636      0.032111     -2.889840
  H       3.409675      0.456755     -4.262488
  H       1.707257     -0.600126     -8.103492
  H       0.317011     -1.040332     -7.063875
  H       1.362642     -2.323772     -7.769159
  H       2.620688     -4.515240     -3.468850
  H       2.167432     -5.513157     -4.880357
  H       0.911953     -4.553066     -4.041226
35
Coordinates from ORCA-job TMP_m1_shell2_cation_opt E -1531.376162685238
  C       1.976195     -1.847373     -0.327273
  O       1.528438     -0.498759     -0.026200
  P      -0.008826     -0.127727     -0.144306
  O      -0.599083     -0.401908     -1.499655
  O      -0.689391     -0.919769      1.037145
  C      -2.131657     -0.848871      1.241002
  O      -0.081850      1.385837      0.293889
  C       0.321447      2.448487     -0.613224
  H       3.058808     -1.836852     -0.201607
  H       1.724578     -2.111309     -1.360715
  H       1.526810     -2.557637      0.372312
  H      -2.348923     -1.550758      2.045093
  H      -2.657103     -1.143372      0.328358
  H      -2.411771      0.164501      1.539686
  H       1.401044      2.401552     -0.782852
  H       0.066043      3.379699     -0.108814
  H      -0.226608      2.369087     -1.556355
  Li     -0.558309     -1.115285     -3.133973
  C       3.237963     -0.235437     -3.436379
  O       3.146997     -1.595792     -3.937630
  P       1.957685     -2.010603     -4.901191
  O       0.591690     -1.788405     -4.313694
  O       2.240665     -1.206515     -6.227569
  C       1.334466     -1.310618     -7.365270
  O       2.258215     -3.514423     -5.271006
  C       1.962555     -4.589351     -4.336991
  H       4.092739     -0.223424     -2.760243
  H       2.327507      0.033713     -2.888724
  H       3.407208      0.457992     -4.264672
  H       1.708088     -0.602134     -8.103382
  H       0.317909     -1.043079     -7.064014
  H       1.364691     -2.325990     -7.768633
  H       2.620378     -4.515856     -3.466184
  H       2.165198     -5.513363     -4.877280
  H       0.911395     -4.551483     -4.037576
