12
Coordinates from ORCA-job DOL_m1_reduced_opt E -275.783483658949
  C           0.48112403832468      1.00013308302819      0.52309539335581
  C           0.80155121447211     -0.33662719482501     -0.19081800480471
  O          -0.49692433895954     -0.79471572665186     -0.64971738480029
  C          -1.39453149359365     -0.21957643236817      0.28979337307940
  O          -0.95574868661824      1.12928807857651      0.36887665527975
  H           0.74045989614756      0.97410879469399      1.58799295844760
  H           0.93321934959929      1.87484088679655      0.04088508368840
  H           1.23835931327574     -1.07684854267412      0.48965518153597
  H           1.43039417170841     -0.21902372855206     -1.08150113002718
  H          -2.41287441682664     -0.24724258777244     -0.11669351537532
  H          -1.33109036864909     -0.72276878964214      1.26938385760321
  Li         -1.00074867888063      1.00359215939055     -1.86304846798262
