12
Coordinates from ORCA-job DOL_m1_cation_opt E -275.629234773778
  C       0.463206      1.007894      0.501420
  C       0.785434     -0.331961     -0.212129
  O      -0.493087     -0.725550     -0.719186
  C      -1.363785     -0.189408      0.245330
  O      -0.940385      1.150904      0.266411
  H       0.651295      0.947578      1.578991
  H       0.985704      1.870627      0.087747
  H       1.151852     -1.088145      0.490602
  H       1.485163     -0.236981     -1.043068
  H      -2.405288     -0.271825     -0.072100
  H      -1.213936     -0.669081      1.226614
  Li     -1.072984      0.901109     -1.682730
12
Coordinates from ORCA-job DOL_m1_cation_opt E -275.631395674798
  C       0.476988      1.015992      0.506941
  C       0.801645     -0.335293     -0.212809
  O      -0.496491     -0.737575     -0.723209
  C      -1.383177     -0.196135      0.248671
  O      -0.948438      1.158472      0.273660
  H       0.670669      0.961829      1.583364
  H       0.991965      1.884601      0.090065
  H       1.174451     -1.091475      0.485844
  H       1.496701     -0.244052     -1.050973
  H      -2.426081     -0.272651     -0.079870
  H      -1.247791     -0.679068      1.229228
  Li     -1.077250      0.900515     -1.683008
12
Coordinates from ORCA-job DOL_m1_cation_opt E -275.631839214576
  C       0.483588      1.017378      0.509250
  C       0.808537     -0.335356     -0.211397
  O      -0.496716     -0.746736     -0.725200
  C      -1.388446     -0.199679      0.252636
  O      -0.952392      1.164377      0.280376
  H       0.677878      0.967741      1.584598
  H       0.988678      1.889654      0.088515
  H       1.182818     -1.092658      0.483472
  H       1.495510     -0.246915     -1.056175
  H      -2.428697     -0.270161     -0.085522
  H      -1.263297     -0.684224      1.231318
  Li     -1.074272      0.901740     -1.683968
12
Coordinates from ORCA-job DOL_m1_cation_opt E -275.631945089133
  C       0.486713      1.016061      0.509186
  C       0.810789     -0.333505     -0.209714
  O      -0.496722     -0.750590     -0.723802
  C      -1.389710     -0.201606      0.255346
  O      -0.953638      1.165026      0.285110
  H       0.681344      0.968673      1.584306
  H       0.985252      1.890337      0.085091
  H       1.185226     -1.091758      0.483640
  H       1.492569     -0.246269     -1.058653
  H      -2.427632     -0.267379     -0.090221
  H      -1.270008     -0.687449      1.233294
  Li     -1.070992      0.903619     -1.685681
12
Coordinates from ORCA-job DOL_m1_cation_opt E -275.632014171269
  C       0.488891      1.014158      0.508464
  C       0.811776     -0.331212     -0.207992
  O      -0.496987     -0.753192     -0.720498
  C      -1.390018     -0.203419      0.258141
  O      -0.954395      1.163351      0.290411
  H       0.684647      0.969120      1.583440
  H       0.981197      1.890238      0.080923
  H       1.186441     -1.090429      0.484136
  H       1.489084     -0.245117     -1.060544
  H      -2.425418     -0.264094     -0.095394
  H      -1.275156     -0.690911      1.235674
  Li     -1.066872      0.906669     -1.688858
12
Coordinates from ORCA-job DOL_m1_cation_opt E -275.632054558226
  C       0.489383      1.013127      0.507880
  C       0.811553     -0.330088     -0.207142
  O      -0.497505     -0.754232     -0.717178
  C      -1.389766     -0.204610      0.260062
  O      -0.954843      1.160774      0.294503
  H       0.687189      0.969966      1.582642
  H       0.978211      1.890196      0.078278
  H       1.186962     -1.089704      0.484287
  H       1.486928     -0.244798     -1.061330
  H      -2.423576     -0.261954     -0.098596
  H      -1.277782     -0.693526      1.237417
  Li     -1.063566      0.910009     -1.692919
12
Coordinates from ORCA-job DOL_m1_cation_opt E -275.632087685381
  C       0.488724      1.012936      0.507633
  C       0.810632     -0.330068     -0.206916
  O      -0.498179     -0.754625     -0.714164
  C      -1.389431     -0.205548      0.261578
  O      -0.955316      1.158025      0.298112
  H       0.689807      0.971389      1.581976
  H       0.975974      1.890409      0.076825
  H       1.187516     -1.089415      0.484208
  H       1.485847     -0.245322     -1.061370
  H      -2.422388     -0.260900     -0.100001
  H      -1.279288     -0.695858      1.238766
  Li     -1.060708      0.914136     -1.698744
12
Coordinates from ORCA-job DOL_m1_cation_opt E -275.632110189583
  C       0.487438      1.013445      0.507874
  C       0.809540     -0.330965     -0.207177
  O      -0.498629     -0.754596     -0.712823
  C      -1.389325     -0.206031      0.262385
  O      -0.955696      1.156589      0.300106
  H       0.691734      0.972509      1.581730
  H       0.975263      1.890636      0.076898
  H       1.188035     -1.089414      0.484200
  H       1.485990     -0.246202     -1.060744
  H      -2.422435     -0.261426     -0.098878
  H      -1.279471     -0.697208      1.239393
  Li     -1.059256      0.917821     -1.705061
12
Coordinates from ORCA-job DOL_m1_cation_opt E -275.632122997968
  C       0.486299      1.014045      0.508401
  C       0.808745     -0.332005     -0.207507
  O      -0.498718     -0.754410     -0.713131
  C      -1.389460     -0.206111      0.262645
  O      -0.955873      1.156706      0.300449
  H       0.692508      0.972638      1.581913
  H       0.975775      1.890620      0.077881
  H       1.188256     -1.089432      0.484486
  H       1.486694     -0.246771     -1.059903
  H      -2.423357     -0.262988     -0.096049
  H      -1.278547     -0.697475      1.239469
  Li     -1.059130      0.920344     -1.710751
12
Coordinates from ORCA-job DOL_m1_cation_opt E -275.632127596980
  C       0.485918      1.014199      0.508826
  C       0.808533     -0.332416     -0.207596
  O      -0.498591     -0.754230     -0.714086
  C      -1.389588     -0.205917      0.262605
  O      -0.955814      1.157585      0.299707
  H       0.691967      0.971840      1.582317
  H       0.976594      1.890371      0.078862
  H       1.188007     -1.089421      0.484845
  H       1.487093     -0.246686     -1.059458
  H      -2.424194     -0.264322     -0.093535
  H      -1.277104     -0.696909      1.239344
  Li     -1.059630      0.921065     -1.713928
12
Coordinates from ORCA-job DOL_m1_cation_opt E -275.632129166012
  C       0.485944      1.014063      0.509071
  C       0.808576     -0.332380     -0.207542
  O      -0.498519     -0.754068     -0.714759
  C      -1.389588     -0.205674      0.262562
  O      -0.955691      1.158266      0.298882
  H       0.690947      0.970914      1.582709
  H       0.977103      1.890134      0.079530
  H       1.187552     -1.089472      0.485033
  H       1.487090     -0.246357     -1.059385
  H      -2.424617     -0.265044     -0.091972
  H      -1.275664     -0.696194      1.239317
  Li     -1.059943      0.920972     -1.715542
