12
Coordinates from ORCA-job DOL_m1_cation_opt E -275.632129166012
  C           0.48594449752559      1.01406288949799      0.50907112248052
  C           0.80857591154254     -0.33237981403585     -0.20754180144771
  O          -0.49851907145866     -0.75406834389486     -0.71475912123515
  C          -1.38958831317786     -0.20567423277932      0.26256209136533
  O          -0.95569102729789      1.15826555173663      0.29888168982703
  H           0.69094688186471      0.97091422309578      1.58270898406004
  H           0.97710306608062      1.89013449349182      0.07952991150101
  H           1.18755235763511     -1.08947242634602      0.48503296408400
  H           1.48708962087443     -0.24635695725246     -1.05938476153841
  H          -2.42461668588408     -0.26504419282279     -0.09197231804314
  H          -1.27566371394719     -0.69619373380254      1.23931689310032
  Li         -1.05994308335733      0.92097228681162     -1.71554245605385
