12
Coordinates from ORCA-job DOL_m1_dication_opt E -275.061185359505
  C       0.485944      1.014063      0.509071
  C       0.808576     -0.332380     -0.207542
  O      -0.498519     -0.754068     -0.714759
  C      -1.389588     -0.205674      0.262562
  O      -0.955691      1.158266      0.298882
  H       0.690947      0.970914      1.582709
  H       0.977103      1.890134      0.079530
  H       1.187552     -1.089472      0.485033
  H       1.487090     -0.246357     -1.059385
  H      -2.424617     -0.265044     -0.091972
  H      -1.275664     -0.696194      1.239317
  Li     -1.059943      0.920972     -1.715542
12
Coordinates from ORCA-job DOL_m1_dication_opt E -275.068515487083
  C       0.499333      1.005991      0.501288
  C       0.816102     -0.317653     -0.202508
  O      -0.491303     -0.735681     -0.705843
  C      -1.417773     -0.216461      0.269412
  O      -0.941175      1.144164      0.292594
  H       0.697602      0.992954      1.599077
  H       1.006180      1.889113      0.075298
  H       1.201824     -1.111827      0.479368
  H       1.514698     -0.233357     -1.053047
  H      -2.452433     -0.272545     -0.090848
  H      -1.302846     -0.707311      1.245573
  Li     -1.097020      0.927772     -1.742460
12
Coordinates from ORCA-job DOL_m1_dication_opt E -275.073407982892
  C       0.506800      0.993885      0.498418
  C       0.817876     -0.306952     -0.192647
  O      -0.479375     -0.712502     -0.703391
  C      -1.428779     -0.225242      0.280232
  O      -0.922234      1.134671      0.280122
  H       0.683077      1.028517      1.610837
  H       1.031972      1.878810      0.087467
  H       1.200706     -1.144932      0.456204
  H       1.539152     -0.230048     -1.030417
  H      -2.462392     -0.281041     -0.080018
  H      -1.302279     -0.713447      1.255326
  Li     -1.151334      0.943442     -1.794230
12
Coordinates from ORCA-job DOL_m1_dication_opt E -275.076269487061
  C       0.507837      0.986750      0.505215
  C       0.817295     -0.308282     -0.182791
  O      -0.471786     -0.697103     -0.706782
  C      -1.424508     -0.229435      0.289624
  O      -0.910744      1.132628      0.268700
  H       0.663332      1.063439      1.620920
  H       1.048557      1.869843      0.109106
  H       1.195716     -1.177340      0.430797
  H       1.555219     -0.237270     -1.007137
  H      -2.457678     -0.286559     -0.068230
  H      -1.282760     -0.713734      1.263923
  Li     -1.207291      0.962221     -1.855443
12
Coordinates from ORCA-job DOL_m1_dication_opt E -275.078880577694
  C       0.507000      0.982017      0.519551
  C       0.817755     -0.317274     -0.171394
  O      -0.468338     -0.688827     -0.710298
  C      -1.413080     -0.230668      0.297515
  O      -0.905001      1.133047      0.260952
  H       0.647768      1.089707      1.630363
  H       1.060032      1.859446      0.132495
  H       1.193764     -1.202811      0.411753
  H       1.565026     -0.245627     -0.984975
  H      -2.445582     -0.288368     -0.058740
  H      -1.256743     -0.710695      1.271159
  Li     -1.269410      0.985213     -1.930477
12
Coordinates from ORCA-job DOL_m1_dication_opt E -275.081806743658
  C       0.508911      0.977669      0.539604
  C       0.822021     -0.329770     -0.156858
  O      -0.466942     -0.687579     -0.708062
  C      -1.399308     -0.230144      0.303641
  O      -0.901903      1.131861      0.260828
  H       0.643569      1.099013      1.641048
  H       1.068270      1.846229      0.149885
  H       1.198043     -1.216129      0.407868
  H       1.567924     -0.247499     -0.966666
  H      -2.430099     -0.285713     -0.054902
  H      -1.234703     -0.706993      1.277056
  Li     -1.342591      1.014215     -2.025538
12
Coordinates from ORCA-job DOL_m1_dication_opt E -275.085102718306
  C       0.517258      0.973968      0.560947
  C       0.832535     -0.341239     -0.140917
  O      -0.464441     -0.693444     -0.696493
  C      -1.387754     -0.229060      0.307836
  O      -0.898186      1.127287      0.271794
  H       0.654179      1.086065      1.654832
  H       1.072630      1.833585      0.154716
  H       1.209303     -1.215518      0.425371
  H       1.563875     -0.240100     -0.957621
  H      -2.415807     -0.279446     -0.057961
  H      -1.227736     -0.705752      1.282102
  Li     -1.422665      1.048812     -2.136702
12
Coordinates from ORCA-job DOL_m1_dication_opt E -275.088603716282
  C       0.530517      0.971883      0.575640
  C       0.846714     -0.346746     -0.128885
  O      -0.458495     -0.703007     -0.680015
  C      -1.380881     -0.228641      0.310832
  O      -0.891927      1.121790      0.289702
  H       0.671967      1.056687      1.669159
  H       1.073442      1.827651      0.150048
  H       1.221042     -1.205455      0.457571
  H       1.557852     -0.229970     -0.958735
  H      -2.406634     -0.273843     -0.062339
  H      -1.236552     -0.708027      1.286805
  Li     -1.493856      1.082838     -2.241879
12
Coordinates from ORCA-job DOL_m1_dication_opt E -275.091570778231
  C       0.545180      0.970511      0.584546
  C       0.861321     -0.347821     -0.120270
  O      -0.449547     -0.713616     -0.663044
  C      -1.375561     -0.228878      0.314147
  O      -0.883562      1.117543      0.309639
  H       0.689153      1.020571      1.681812
  H       1.073478      1.827664      0.145802
  H       1.229378     -1.191721      0.494152
  H       1.554267     -0.223710     -0.963306
  H      -2.400231     -0.271004     -0.062987
  H      -1.250198     -0.711615      1.291915
  Li     -1.560488      1.117237     -2.344502
12
Coordinates from ORCA-job DOL_m1_dication_opt E -275.086281170692
  C       0.589004      0.980748      0.537402
  C       0.894170     -0.303652     -0.145371
  O      -0.398967     -0.775322     -0.608720
  C      -1.381118     -0.238409      0.329851
  O      -0.849692      1.125712      0.403924
  H       0.738334      0.828057      1.674187
  H       1.043781      1.904204      0.130128
  H       1.204191     -1.083402      0.648476
  H       1.564316     -0.257494     -1.026116
  H      -2.418227     -0.297254     -0.016595
  H      -1.325908     -0.738100      1.311436
  Li     -1.626693      1.220071     -2.570698
12
Coordinates from ORCA-job DOL_m1_dication_opt E -275.093103314057
  C       0.592177      0.973836      0.576418
  C       0.901853     -0.327473     -0.118027
  O      -0.407428     -0.769907     -0.597498
  C      -1.368903     -0.236310      0.330171
  O      -0.851502      1.110495      0.404475
  H       0.748008      0.857987      1.694661
  H       1.051979      1.872551      0.138172
  H       1.227622     -1.107308      0.636393
  H       1.554036     -0.242594     -1.000941
  H      -2.396155     -0.277974     -0.043747
  H      -1.303672     -0.731658      1.312121
  Li     -1.714822      1.243515     -2.664292
12
Coordinates from ORCA-job DOL_m1_dication_opt E -275.098014357462
  C       0.589393      0.961882      0.621966
  C       0.904740     -0.356997     -0.083800
  O      -0.417167     -0.753172     -0.594757
  C      -1.359395     -0.235181      0.330350
  O      -0.853253      1.095234      0.392751
  H       0.754268      0.924233      1.712219
  H       1.070606      1.824635      0.149773
  H       1.257408     -1.147951      0.596182
  H       1.551132     -0.221169     -0.957081
  H      -2.372460     -0.256108     -0.076847
  H      -1.284956     -0.726381      1.311353
  Li     -1.807126      1.256135     -2.734205
12
Coordinates from ORCA-job DOL_m1_dication_opt E -275.099371748802
  C       0.589548      0.956984      0.641453
  C       0.907125     -0.369456     -0.068926
  O      -0.416655     -0.749511     -0.594335
  C      -1.352313     -0.234707      0.331439
  O      -0.851209      1.092646      0.391570
  H       0.758459      0.946217      1.727957
  H       1.078788      1.806679      0.156407
  H       1.271356     -1.168541      0.589796
  H       1.551832     -0.214747     -0.938855
  H      -2.360277     -0.247647     -0.088118
  H      -1.275904     -0.724685      1.312428
  Li     -1.867560      1.271928     -2.792911
12
Coordinates from ORCA-job DOL_m1_dication_opt E -275.102101319304
  C       0.592796      0.947834      0.668913
  C       0.912566     -0.385198     -0.044855
  O      -0.406312     -0.740960     -0.593860
  C      -1.347033     -0.236403      0.334262
  O      -0.839417      1.090546      0.390709
  H       0.766698      0.983603      1.754331
  H       1.100620      1.778963      0.171470
  H       1.294886     -1.202968      0.581161
  H       1.563876     -0.207532     -0.904871
  H      -2.346966     -0.237442     -0.103625
  H      -1.274733     -0.726649      1.314492
  Li     -1.983791      1.301367     -2.900224
12
Coordinates from ORCA-job DOL_m1_dication_opt E -275.105372443108
  C       0.590891      0.942886      0.679547
  C       0.911230     -0.392418     -0.033629
  O      -0.390921     -0.741633     -0.596700
  C      -1.335747     -0.238107      0.339230
  O      -0.828447      1.097718      0.397218
  H       0.764833      1.010685      1.771855
  H       1.116970      1.773673      0.193901
  H       1.300884     -1.230160      0.576418
  H       1.585929     -0.222467     -0.880728
  H      -2.332865     -0.235653     -0.103365
  H      -1.271824     -0.731523      1.317562
  Li     -2.077743      1.332159     -2.993404
12
Coordinates from ORCA-job DOL_m1_dication_opt E -275.108874670710
  C       0.590271      0.937222      0.674463
  C       0.907104     -0.387204     -0.030112
  O      -0.369871     -0.747390     -0.593910
  C      -1.325729     -0.240926      0.345444
  O      -0.813645      1.104985      0.412946
  H       0.761444      1.021666      1.773620
  H       1.132419      1.780875      0.220783
  H       1.293007     -1.238629      0.576752
  H       1.618229     -0.249875     -0.857871
  H      -2.323566     -0.240063     -0.093381
  H      -1.275939     -0.741169      1.320975
  Li     -2.160534      1.365667     -3.081804
12
Coordinates from ORCA-job DOL_m1_dication_opt E -275.111948547067
  C       0.594163      0.930899      0.674216
  C       0.907672     -0.383568     -0.022840
  O      -0.352966     -0.755783     -0.582417
  C      -1.311853     -0.242494      0.351626
  O      -0.800578      1.105168      0.433994
  H       0.766122      1.019212      1.776829
  H       1.143776      1.785115      0.244334
  H       1.288744     -1.238561      0.589049
  H       1.642868     -0.272963     -0.836074
  H      -2.306625     -0.237116     -0.092032
  H      -1.278531     -0.750651      1.324368
  Li     -2.259601      1.405902     -3.193149
12
Coordinates from ORCA-job DOL_m1_dication_opt E -275.114835084781
  C       0.603527      0.925834      0.677094
  C       0.914590     -0.380713     -0.014011
  O      -0.339781     -0.764780     -0.565100
  C      -1.302908     -0.244121      0.357015
  O      -0.788951      1.099677      0.456813
  H       0.780526      1.008022      1.779997
  H       1.153256      1.788555      0.262895
  H       1.292125     -1.230202      0.608810
  H       1.661509     -0.290325     -0.819493
  H      -2.291729     -0.229111     -0.099017
  H      -1.290971     -0.761549      1.326251
  Li     -2.358004      1.443873     -3.303352
12
Coordinates from ORCA-job DOL_m1_dication_opt E -275.117433347177
  C       0.615722      0.924049      0.683204
  C       0.925994     -0.380388     -0.006327
  O      -0.331261     -0.775988     -0.547745
  C      -1.298787     -0.244387      0.359787
  O      -0.781361      1.093520      0.478939
  H       0.799745      0.987740      1.784587
  H       1.157571      1.794215      0.275682
  H       1.300224     -1.216648      0.633355
  H       1.671316     -0.302270     -0.813559
  H      -2.282927     -0.221397     -0.106658
  H      -1.304445     -0.768565      1.326081
  Li     -2.438602      1.475278     -3.399440
12
Coordinates from ORCA-job DOL_m1_dication_opt E -275.119117973569
  C       0.625019      0.923096      0.693010
  C       0.936026     -0.383839      0.001533
  O      -0.325414     -0.783011     -0.537045
  C      -1.298224     -0.243484      0.359953
  O      -0.776204      1.089800      0.492780
  H       0.814604      0.973890      1.792019
  H       1.159852      1.794420      0.281298
  H       1.310315     -1.210153      0.650415
  H       1.672454     -0.304203     -0.812359
  H      -2.279395     -0.215982     -0.113097
  H      -1.312653     -0.770087      1.324862
  Li     -2.493189      1.494713     -3.465464
12
Coordinates from ORCA-job DOL_m1_dication_opt E -275.121409280784
  C       0.634789      0.918806      0.708284
  C       0.946248     -0.389794      0.015302
  O      -0.313858     -0.788630     -0.525276
  C      -1.293211     -0.241935      0.360783
  O      -0.765598      1.086643      0.508865
  H       0.828796      0.966189      1.806085
  H       1.167807      1.788876      0.291913
  H       1.321793     -1.212177      0.667455
  H       1.678715     -0.306444     -0.801523
  H      -2.268841     -0.207210     -0.122812
  H      -1.319847     -0.772430      1.323269
  Li     -2.583603      1.523266     -3.564442
12
Coordinates from ORCA-job DOL_m1_dication_opt E -275.123902548651
  C       0.644350      0.912122      0.725240
  C       0.956346     -0.396254      0.032298
  O      -0.298723     -0.793044     -0.512262
  C      -1.285457     -0.240626      0.363041
  O      -0.752284      1.083211      0.525581
  H       0.842838      0.962897      1.822270
  H       1.179112      1.778913      0.302683
  H       1.334097     -1.218100      0.684283
  H       1.688761     -0.307446     -0.784563
  H      -2.251539     -0.193802     -0.137833
  H      -1.332592     -0.777537      1.321234
  Li     -2.691719      1.554825     -3.674070
12
Coordinates from ORCA-job DOL_m1_dication_opt E -275.126275923965
  C       0.654787      0.905825      0.742279
  C       0.967071     -0.402388      0.049023
  O      -0.283033     -0.798850     -0.499924
  C      -1.277591     -0.239291      0.364978
  O      -0.739189      1.080620      0.543037
  H       0.857904      0.958980      1.838526
  H       1.191241      1.769342      0.313157
  H       1.346109     -1.223546      0.701936
  H       1.701086     -0.308530     -0.766645
  H      -2.232944     -0.179204     -0.154779
  H      -1.350129     -0.782891      1.317652
  Li     -2.802122      1.585092     -3.781336
12
Coordinates from ORCA-job DOL_m1_dication_opt E -275.128308995608
  C       0.665740      0.901044      0.757063
  C       0.977172     -0.406973      0.062769
  O      -0.270314     -0.803105     -0.491087
  C      -1.271998     -0.236940      0.363567
  O      -0.727256      1.079129      0.557369
  H       0.869766      0.953575      1.852950
  H       1.204218      1.763842      0.328375
  H       1.354066     -1.228163      0.717122
  H       1.715503     -0.313665     -0.749266
  H      -2.220894     -0.169206     -0.167116
  H      -1.360841     -0.784462      1.312408
  Li     -2.901971      1.610085     -3.876250
12
Coordinates from ORCA-job DOL_m1_dication_opt E -275.129641741183
  C       0.672986      0.897557      0.766932
  C       0.983616     -0.409917      0.071707
  O      -0.262011     -0.804674     -0.487170
  C      -1.267136     -0.234233      0.360861
  O      -0.719142      1.079306      0.565653
  H       0.874588      0.948660      1.863280
  H       1.213800      1.760947      0.342083
  H       1.356449     -1.232625      0.726666
  H       1.726810     -0.319269     -0.736236
  H      -2.213357     -0.163405     -0.174067
  H      -1.362131     -0.782813      1.308539
  Li     -2.971282      1.625627     -3.940345
12
Coordinates from ORCA-job DOL_m1_dication_opt E -275.131574508956
  C       0.683304      0.891257      0.782237
  C       0.993081     -0.414676      0.086254
  O      -0.248810     -0.804612     -0.482034
  C      -1.259061     -0.229997      0.356514
  O      -0.706313      1.079548      0.576342
  H       0.879911      0.941311      1.879391
  H       1.229113      1.754352      0.362657
  H       1.359000     -1.240604      0.740934
  H       1.743538     -0.326339     -0.715265
  H      -2.200187     -0.153241     -0.186172
  H      -1.362578     -0.779688      1.302853
  Li     -3.077808      1.647851     -4.035808
12
Coordinates from ORCA-job DOL_m1_dication_opt E -275.133676529117
  C       0.693965      0.883235      0.799997
  C       1.004112     -0.421190      0.104723
  O      -0.231993     -0.802820     -0.476314
  C      -1.247426     -0.225580      0.352059
  O      -0.691780      1.079676      0.586662
  H       0.884522      0.933888      1.898224
  H       1.246598      1.743977      0.383221
  H       1.361365     -1.250785      0.759542
  H       1.762566     -0.333007     -0.689553
  H      -2.178431     -0.136987     -0.205603
  H      -1.366864     -0.777557      1.295363
  Li     -3.203444      1.672310     -4.140416
12
Coordinates from ORCA-job DOL_m1_dication_opt E -275.135695371287
  C       0.706577      0.875917      0.818310
  C       1.016796     -0.427997      0.123998
  O      -0.214291     -0.799839     -0.472449
  C      -1.237062     -0.221438      0.345428
  O      -0.676182      1.080087      0.595760
  H       0.889626      0.924920      1.917480
  H       1.265844      1.734073      0.404595
  H       1.362106     -1.259812      0.781594
  H       1.783665     -0.340824     -0.662145
  H      -2.157747     -0.120475     -0.227058
  H      -1.372902     -0.775232      1.285430
  Li     -3.333240      1.695779     -4.243036
12
Coordinates from ORCA-job DOL_m1_dication_opt E -275.137418358527
  C       0.718281      0.871482      0.833531
  C       1.027646     -0.433928      0.138878
  O      -0.200077     -0.798507     -0.470611
  C      -1.228320     -0.217666      0.338278
  O      -0.662484      1.081265      0.604941
  H       0.894303      0.916896      1.934406
  H       1.282410      1.729702      0.426182
  H       1.360676     -1.267044      0.801583
  H       1.803083     -0.351888     -0.639243
  H      -2.143390     -0.109530     -0.241774
  H      -1.373846     -0.772740      1.275907
  Li     -3.445092      1.717119     -4.334175
12
Coordinates from ORCA-job DOL_m1_dication_opt E -275.138528912265
  C       0.725491      0.868274      0.842916
  C       1.034477     -0.437839      0.149031
  O      -0.190568     -0.796907     -0.468998
  C      -1.222108     -0.215842      0.334198
  O      -0.653188      1.081198      0.610923
  H       0.897600      0.913532      1.944696
  H       1.293409      1.726002      0.439462
  H       1.359562     -1.271426      0.815139
  H       1.815885     -0.359166     -0.623153
  H      -2.132702     -0.102002     -0.251645
  H      -1.375596     -0.772802      1.269404
  Li     -3.519073      1.732138     -4.394069
12
Coordinates from ORCA-job DOL_m1_dication_opt E -275.140147439768
  C       0.735705      0.863290      0.856951
  C       1.044740     -0.444117      0.164448
  O      -0.176141     -0.794678     -0.466576
  C      -1.211948     -0.213439      0.328496
  O      -0.640098      1.080727      0.620556
  H       0.903054      0.908887      1.959824
  H       1.308613      1.719911      0.457240
  H       1.357767     -1.277712      0.836135
  H       1.834111     -0.369238     -0.599627
  H      -2.115708     -0.090768     -0.266093
  H      -1.378383     -0.773061      1.259938
  Li     -3.628521      1.755358     -4.483388
12
Coordinates from ORCA-job DOL_m1_dication_opt E -275.141917739722
  C       0.746593      0.856795      0.872621
  C       1.056900     -0.452153      0.184472
  O      -0.157512     -0.789783     -0.464781
  C      -1.197968     -0.211565      0.320928
  O      -0.625827      1.079043      0.630602
  H       0.908764      0.907390      1.976179
  H       1.325463      1.710628      0.474073
  H       1.353040     -1.285460      0.863378
  H       1.856986     -0.381770     -0.568168
  H      -2.090800     -0.075166     -0.287141
  H      -1.384745     -0.775328      1.246109
  Li     -3.757703      1.782528     -4.580368
12
Coordinates from ORCA-job DOL_m1_dication_opt E -275.143629005731
  C       0.758599      0.850920      0.888350
  C       1.070033     -0.460525      0.205178
  O      -0.137634     -0.784181     -0.464973
  C      -1.184498     -0.210202      0.310838
  O      -0.611628      1.076976      0.641426
  H       0.915587      0.907500      1.992196
  H       1.341690      1.702386      0.489580
  H       1.345503     -1.292533      0.893232
  H       1.881757     -0.396766     -0.534504
  H      -2.068584     -0.061747     -0.307542
  H      -1.389796     -0.777636      1.230037
  Li     -3.887839      1.810967     -4.675914
12
Coordinates from ORCA-job DOL_m1_dication_opt E -275.145096166308
  C       0.769833      0.846847      0.902358
  C       1.080710     -0.467262      0.221657
  O      -0.121361     -0.780347     -0.465623
  C      -1.174382     -0.208924      0.301589
  O      -0.599005      1.075118      0.653402
  H       0.923245      0.908640      2.006555
  H       1.355072      1.697670      0.503928
  H       1.338660     -1.298944      0.916880
  H       1.902679     -0.411235     -0.506657
  H      -2.054071     -0.053762     -0.321593
  H      -1.390527     -0.778964      1.216859
  Li     -3.997664      1.836323     -4.761449
12
Coordinates from ORCA-job DOL_m1_dication_opt E -275.146047331481
  C       0.776311      0.843900      0.911300
  C       1.087052     -0.471871      0.232907
  O      -0.110222     -0.777616     -0.465868
  C      -1.166682     -0.208660      0.296094
  O      -0.591446      1.073230      0.662659
  H       0.928761      0.911716      2.015389
  H       1.362419      1.693872      0.510727
  H       1.333562     -1.303400      0.932654
  H       1.916194     -0.420975     -0.487314
  H      -2.042279     -0.048218     -0.331501
  H      -1.390867     -0.781029      1.208141
  Li     -4.069613      1.854212     -4.817284
12
Coordinates from ORCA-job DOL_m1_dication_opt E -275.147444782811
  C       0.785469      0.839125      0.924528
  C       1.096410     -0.478963      0.250382
  O      -0.093225     -0.772946     -0.465922
  C      -1.155199     -0.209056      0.288271
  O      -0.581002      1.069223      0.677834
  H       0.938624      0.917993      2.027600
  H       1.372025      1.687006      0.517740
  H       1.325895     -1.309245      0.957060
  H       1.935938     -0.434916     -0.457479
  H      -2.023571     -0.039788     -0.347159
  H      -1.392015     -0.785337      1.194961
  Li     -4.176158      1.882065     -4.899911
12
Coordinates from ORCA-job DOL_m1_dication_opt E -275.149027690432
  C       0.793588      0.833767      0.938039
  C       1.107271     -0.488939      0.273189
  O      -0.070447     -0.766015     -0.467380
  C      -1.137706     -0.212025      0.277884
  O      -0.572597      1.062329      0.697416
  H       0.951118      0.932811      2.038631
  H       1.377938      1.678106      0.516932
  H       1.311782     -1.314885      0.992057
  H       1.961205     -0.455454     -0.416662
  H      -1.994903     -0.028938     -0.369144
  H      -1.393044     -0.794542      1.176028
  Li     -4.301016      1.918945     -4.989086
12
Coordinates from ORCA-job DOL_m1_dication_opt E -275.150599918538
  C       0.802369      0.828707      0.951104
  C       1.118778     -0.498880      0.297350
  O      -0.046222     -0.757898     -0.468923
  C      -1.122236     -0.217566      0.266335
  O      -0.564371      1.052103      0.719305
  H       0.967537      0.952634      2.046950
  H       1.381242      1.668796      0.510479
  H       1.296322     -1.317978      1.029551
  H       1.987028     -0.476696     -0.372999
  H      -1.969445     -0.021141     -0.390439
  H      -1.394255     -0.806538      1.156127
  Li     -4.423556      1.959616     -5.076935
12
Coordinates from ORCA-job DOL_m1_dication_opt E -275.151944003751
  C       0.810858      0.826195      0.962605
  C       1.127803     -0.506755      0.314749
  O      -0.028408     -0.753656     -0.470666
  C      -1.110649     -0.222478      0.256971
  O      -0.556830      1.043262      0.741004
  H       0.984052      0.967942      2.054672
  H       1.382804      1.664909      0.507104
  H       1.283777     -1.319469      1.058542
  H       2.006425     -0.495066     -0.340970
  H      -1.953895     -0.018655     -0.403187
  H      -1.390939     -0.815354      1.142367
  Li     -4.521810      1.994284     -5.155288
12
Coordinates from ORCA-job DOL_m1_dication_opt E -275.152835760550
  C       0.815719      0.825355      0.969127
  C       1.133439     -0.512598      0.326694
  O      -0.016629     -0.750780     -0.472266
  C      -1.101835     -0.228062      0.250540
  O      -0.552694      1.035517      0.757284
  H       0.996751      0.982106      2.057593
  H       1.380744      1.663349      0.500943
  H       1.273492     -1.319037      1.079833
  H       2.019035     -0.508651     -0.318498
  H      -1.942697     -0.018494     -0.411324
  H      -1.387667     -0.823561      1.133279
  Li     -4.584469      2.020015     -5.205301
12
Coordinates from ORCA-job DOL_m1_dication_opt E -275.154186872997
  C       0.821911      0.825018      0.977121
  C       1.141641     -0.522286      0.344986
  O       0.000732     -0.746649     -0.475021
  C      -1.087239     -0.239504      0.240665
  O      -0.547723      1.021368      0.784507
  H       1.017869      1.007948      2.058482
  H       1.372661      1.662374      0.486358
  H       1.256257     -1.316208      1.113940
  H       2.037097     -0.530152     -0.284169
  H      -1.925894     -0.020804     -0.422053
  H      -1.380825     -0.838110      1.120611
  Li     -4.673295      2.062163     -5.277523
12
Coordinates from ORCA-job DOL_m1_dication_opt E -275.155961991387
  C       0.826157      0.824383      0.984202
  C       1.152955     -0.536545      0.372183
  O       0.027862     -0.739481     -0.477627
  C      -1.063386     -0.256003      0.226952
  O      -0.546572      1.000180      0.818549
  H       1.042342      1.049549      2.052925
  H       1.353447      1.658191      0.456340
  H       1.229826     -1.311374      1.162653
  H       2.062366     -0.561814     -0.232852
  H      -1.897499     -0.023504     -0.438312
  H      -1.370542     -0.859631      1.101538
  Li     -4.783766      2.121209     -5.358647
12
Coordinates from ORCA-job DOL_m1_dication_opt E -275.158026327984
  C       0.830311      0.826387      0.989414
  C       1.164633     -0.552048      0.399123
  O       0.051983     -0.737637     -0.479406
  C      -1.038041     -0.275950      0.212946
  O      -0.546341      0.974502      0.857312
  H       1.071408      1.093128      2.041966
  H       1.321795      1.658782      0.419792
  H       1.204249     -1.302880      1.211164
  H       2.084535     -0.592415     -0.185077
  H      -1.875641     -0.033325     -0.447009
  H      -1.352313     -0.880477      1.089590
  Li     -4.883388      2.187093     -5.441911
12
Coordinates from ORCA-job DOL_m1_dication_opt E -275.159933976575
  C       0.837644      0.830509      0.993758
  C       1.172842     -0.561186      0.415135
  O       0.059742     -0.745881     -0.479713
  C      -1.018952     -0.286587      0.204360
  O      -0.544641      0.954785      0.892502
  H       1.104045      1.106009      2.036708
  H       1.288519      1.671118      0.400130
  H       1.187707     -1.296230      1.237800
  H       2.094754     -0.608667     -0.163017
  H      -1.867903     -0.042757     -0.443603
  H      -1.331867     -0.887906      1.090945
  Li     -4.948699      2.231954     -5.517100
12
Coordinates from ORCA-job DOL_m1_dication_opt E -275.161839788764
  C       0.848894      0.844222      0.988897
  C       1.177526     -0.560828      0.422530
  O       0.032738     -0.779353     -0.470679
  C      -1.004266     -0.284496      0.201814
  O      -0.555979      0.942331      0.913456
  H       1.157331      1.061721      2.028141
  H       1.223068      1.715629      0.392762
  H       1.186269     -1.299970      1.227307
  H       2.082863     -0.592986     -0.182713
  H      -1.882319     -0.052071     -0.418171
  H      -1.303597     -0.873096      1.121303
  Li     -4.929340      2.244056     -5.556741
12
Coordinates from ORCA-job DOL_m1_dication_opt E -275.164501892083
  C       0.865495      0.835796      0.999289
  C       1.195719     -0.557624      0.456680
  O       0.050318     -0.773723     -0.444348
  C      -0.992278     -0.261267      0.199965
  O      -0.561018      0.934100      0.914964
  H       1.187480      1.028284      2.031740
  H       1.215705      1.707733      0.402912
  H       1.189362     -1.324362      1.229878
  H       2.103037     -0.591448     -0.146738
  H      -1.848141     -0.017900     -0.447250
  H      -1.340698     -0.868011      1.100086
  Li     -5.031790      2.253582     -5.629274
12
Coordinates from ORCA-job DOL_m1_dication_opt E -275.167446975570
  C       0.869933      0.836036      0.981824
  C       1.214321     -0.534765      0.461912
  O       0.060322     -0.817036     -0.399867
  C      -0.988014     -0.238351      0.225814
  O      -0.581353      0.910811      0.942012
  H       1.216974      0.987384      2.012070
  H       1.175774      1.712064      0.385945
  H       1.226946     -1.318074      1.229829
  H       2.112019     -0.577569     -0.157609
  H      -1.836832      0.005898     -0.430396
  H      -1.391692     -0.871357      1.090714
  Li     -5.045209      2.270118     -5.674346
12
Coordinates from ORCA-job DOL_m1_dication_opt E -275.170699414921
  C       0.880522      0.836975      0.993851
  C       1.227460     -0.535922      0.488346
  O       0.077011     -0.826932     -0.365430
  C      -0.983639     -0.229692      0.245086
  O      -0.579924      0.874459      0.973472
  H       1.232634      1.033262      2.012223
  H       1.179661      1.678831      0.353186
  H       1.256215     -1.323091      1.256088
  H       2.124238     -0.582956     -0.131440
  H      -1.799991      0.034451     -0.444530
  H      -1.440176     -0.907606      1.040941
  Li     -5.140822      2.313382     -5.753888
12
Coordinates from ORCA-job DOL_m1_dication_opt E -275.173690566289
  C       0.889513      0.858624      0.994414
  C       1.237966     -0.535065      0.490846
  O       0.057706     -0.883620     -0.309444
  C      -0.984499     -0.235457      0.290513
  O      -0.576509      0.822563      1.034543
  H       1.258797      1.090950      1.996829
  H       1.148423      1.670344      0.301590
  H       1.322259     -1.301204      1.274246
  H       2.107438     -0.575182     -0.167377
  H      -1.787947      0.046235     -0.417686
  H      -1.484956     -0.962454      1.008860
  Li     -5.155001      2.369423     -5.829429
12
Coordinates from ORCA-job DOL_m1_dication_opt E -275.175010871416
  C       0.897393      0.854829      1.005103
  C       1.249075     -0.542288      0.498427
  O       0.066012     -0.895201     -0.290700
  C      -0.981824     -0.242819      0.298222
  O      -0.560785      0.812852      1.062437
  H       1.262524      1.109980      2.004314
  H       1.158362      1.660149      0.300238
  H       1.342014     -1.287914      1.299757
  H       2.116945     -0.587009     -0.161490
  H      -1.766750      0.054437     -0.429761
  H      -1.514832     -0.974809      0.984704
  Li     -5.234945      2.402952     -5.903346
