12
Coordinates from ORCA-job DOL_m1_dication_opt E -275.175010871416
  C           0.89739277047277      0.85482921548356      1.00510309818552
  C           1.24907527911136     -0.54228828516206      0.49842684059020
  O           0.06601169983355     -0.89520088893906     -0.29070027769752
  C          -0.98182399614620     -0.24281923978627      0.29822159114398
  O          -0.56078528900965      0.81285237717098      1.06243731745917
  H           1.26252408605210      1.10997972555891      2.00431385441005
  H           1.15836200085010      1.66014923355188      0.30023834681891
  H           1.34201431126915     -1.28791374354406      1.29975671346050
  H           2.11694537041821     -0.58700880552488     -0.16149035487024
  H          -1.76674998642525      0.05443743391282     -0.42976097344574
  H          -1.51483167323854     -0.97480942485004      0.98470394800930
  Li         -5.23494457318761      2.40295240212822     -5.90334610406412
