12
Coordinates from ORCA-job DOL_m1_reduced_opt E -275.780350065478
  C       0.485944      1.014063      0.509071
  C       0.808576     -0.332380     -0.207542
  O      -0.498519     -0.754068     -0.714759
  C      -1.389588     -0.205674      0.262562
  O      -0.955691      1.158266      0.298882
  H       0.690947      0.970914      1.582709
  H       0.977103      1.890134      0.079530
  H       1.187552     -1.089472      0.485033
  H       1.487090     -0.246357     -1.059385
  H      -2.424617     -0.265044     -0.091972
  H      -1.275664     -0.696194      1.239317
  Li     -1.059943      0.920972     -1.715542
12
Coordinates from ORCA-job DOL_m1_reduced_opt E -275.781149854220
  C       0.483792      1.008349      0.511458
  C       0.805212     -0.331959     -0.202490
  O      -0.495587     -0.759704     -0.703293
  C      -1.387460     -0.205189      0.263358
  O      -0.952665      1.153547      0.309153
  H       0.697389      0.968396      1.585449
  H       0.963987      1.884741      0.063981
  H       1.195260     -1.087665      0.488397
  H       1.468429     -0.234679     -1.068356
  H      -2.419120     -0.256732     -0.104727
  H      -1.282347     -0.698079      1.242293
  Li     -1.043699      0.924133     -1.717319
12
Coordinates from ORCA-job DOL_m1_reduced_opt E -275.781996908126
  C       0.483301      1.001000      0.516704
  C       0.803181     -0.332136     -0.194517
  O      -0.492603     -0.774456     -0.676823
  C      -1.390932     -0.207351      0.267035
  O      -0.949638      1.141831      0.334457
  H       0.718981      0.969312      1.587527
  H       0.940899      1.875609      0.035776
  H       1.218976     -1.081405      0.490102
  H       1.435683     -0.213482     -1.084301
  H      -2.413233     -0.240276     -0.132376
  H      -1.310449     -0.705700      1.248168
  Li     -1.010975      0.932213     -1.723848
12
Coordinates from ORCA-job DOL_m1_reduced_opt E -275.782358585194
  C       0.484035      1.000053      0.518961
  C       0.803888     -0.332988     -0.192690
  O      -0.492988     -0.784751     -0.662727
  C      -1.395304     -0.210290      0.271153
  O      -0.950683      1.136078      0.349786
  H       0.732318      0.973219      1.586756
  H       0.932232      1.873154      0.025451
  H       1.233680     -1.077843      0.487570
  H       1.423728     -0.205774     -1.090837
  H      -2.411495     -0.232963     -0.144928
  H      -1.331114     -0.711741      1.252210
  Li     -0.995105      0.939005     -1.732801
12
Coordinates from ORCA-job DOL_m1_reduced_opt E -275.782815932894
  C       0.484928      1.001095      0.520420
  C       0.805284     -0.334117     -0.192889
  O      -0.495054     -0.799208     -0.645867
  C      -1.401513     -0.215756      0.279322
  O      -0.954274      1.129686      0.369946
  H       0.748534      0.979976      1.583760
  H       0.925977      1.872599      0.018941
  H       1.251433     -1.073039      0.481828
  H       1.415610     -0.200961     -1.096121
  H      -2.410069     -0.226806     -0.155217
  H      -1.359395     -0.720964      1.258901
  Li     -0.978270      0.952656     -1.755120
12
Coordinates from ORCA-job DOL_m1_reduced_opt E -275.783071181255
  C       0.484736      1.002246      0.519941
  C       0.805405     -0.334216     -0.194243
  O      -0.496573     -0.805495     -0.639521
  C      -1.403512     -0.219335      0.285473
  O      -0.956758      1.127373      0.378683
  H       0.754096      0.982822      1.581532
  H       0.926620      1.874021      0.021763
  H       1.257079     -1.070739      0.478879
  H       1.417409     -0.203348     -1.095593
  H      -2.410029     -0.227627     -0.153181
  H      -1.370445     -0.726017      1.263745
  Li     -0.974840      0.965474     -1.779575
12
Coordinates from ORCA-job DOL_m1_reduced_opt E -275.783275118285
  C       0.483668      1.002533      0.519200
  C       0.804350     -0.333968     -0.195104
  O      -0.497412     -0.806167     -0.639084
  C      -1.402188     -0.221447      0.290219
  O      -0.957890      1.127001      0.380326
  H       0.753225      0.982275      1.580944
  H       0.929938      1.875934      0.029567
  H       1.255357     -1.070310      0.479043
  H       1.423266     -0.209696     -1.091719
  H      -2.410612     -0.232953     -0.143038
  H      -1.368671     -0.728235      1.267965
  Li     -0.979841      0.980194     -1.810416
12
Coordinates from ORCA-job DOL_m1_reduced_opt E -275.783410195560
  C       0.482219      1.001697      0.519494
  C       0.802673     -0.334161     -0.194404
  O      -0.497480     -0.802037     -0.642963
  C      -1.398457     -0.221628      0.292243
  O      -0.957441      1.127824      0.376157
  H       0.747898      0.978960      1.582702
  H       0.933107      1.877024      0.038084
  H       1.248588     -1.071963      0.482446
  H       1.428942     -0.216675     -1.086522
  H      -2.411326     -0.240299     -0.129372
  H      -1.355707     -0.727326      1.270512
  Li     -0.989827      0.993747     -1.840473
12
Coordinates from ORCA-job DOL_m1_reduced_opt E -275.783465543749
  C       0.481277      1.000573      0.520995
  C       0.801591     -0.335074     -0.192644
  O      -0.497161     -0.797282     -0.647125
  C      -1.395328     -0.220632      0.291710
  O      -0.956355      1.128716      0.371116
  H       0.742811      0.975614      1.585519
  H       0.934092      1.876640      0.042324
  H       1.242275     -1.074422      0.486508
  H       1.431074     -0.220114     -1.083038
  H      -2.411948     -0.245449     -0.119876
  H      -1.341388     -0.724889      1.270838
  Li     -0.997750      1.001477     -1.858422
12
Coordinates from ORCA-job DOL_m1_reduced_opt E -275.783479977483
  C       0.481087      1.000109      0.522383
  C       0.801432     -0.336027     -0.191357
  O      -0.496954     -0.795151     -0.649050
  C      -1.394418     -0.219860      0.290537
  O      -0.955783      1.129121      0.369021
  H       0.740809      0.974259      1.587320
  H       0.933661      1.875656      0.042180
  H       1.239447     -1.076054      0.488763
  H       1.430782     -0.220002     -1.081886
  H      -2.412485     -0.247077     -0.116949
  H      -1.333925     -0.723307      1.270089
  Li     -1.000462      1.003493     -1.863147
12
Coordinates from ORCA-job DOL_m1_reduced_opt E -275.783483658949
  C       0.481124      1.000133      0.523095
  C       0.801551     -0.336627     -0.190818
  O      -0.496924     -0.794716     -0.649717
  C      -1.394531     -0.219576      0.289793
  O      -0.955749      1.129288      0.368877
  H       0.740460      0.974109      1.587993
  H       0.933219      1.874841      0.040885
  H       1.238359     -1.076849      0.489655
  H       1.430394     -0.219024     -1.081501
  H      -2.412874     -0.247243     -0.116694
  H      -1.331090     -0.722769      1.269384
  Li     -1.000749      1.003592     -1.863048
