37
Coordinates from ORCA-job neb_TEGDME_anion_cpcm_20_initial_path E   0.000000000000
  C       6.863869      0.654136      1.263538
  O       6.662026     -0.623983      0.659562
  C       5.587201     -0.637707     -0.280705
  C       4.235818     -0.807215      0.415132
  O       3.167338     -0.958536     -0.517282
  C       2.778154      0.261177     -1.157854
  C       1.432222      0.063097     -1.808238
  O       0.432415     -0.050773     -0.809105
  C      -0.862341     -0.326802     -1.364213
  C      -1.919411     -0.308383     -0.256293
  O      -2.156150      0.913848      0.302303
  C      -5.089694     -0.377654      2.365553
  C      -5.825433     -0.205976      1.096445
  O      -6.836340      0.790396      1.257979
  C      -7.508697      1.055253      0.031169
  H       6.001554      0.970566      1.865813
  H       7.064597      1.420476      0.500185
  H       7.735168      0.562039      1.916980
  H       5.757711     -1.496133     -0.941458
  H       5.607120      0.278202     -0.891456
  H       4.257039     -1.726603      1.011568
  H       4.031729      0.038341      1.090333
  H       2.720739      1.074337     -0.416149
  H       3.505008      0.550771     -1.932257
  H       1.227549      0.925337     -2.467130
  H       1.456371     -0.841785     -2.441478
  H      -1.104957      0.439663     -2.122549
  H      -0.838234     -1.313605     -1.865946
  H      -1.583917     -1.092789      0.477297
  H      -2.820561     -0.772873     -0.749649
  H      -5.052387      0.434418      3.083283
  H      -4.434248     -1.231948      2.491146
  H      -5.135838      0.101458      0.281544
  H      -6.278994     -1.160034      0.767808
  H      -8.259750      1.823372      0.231758
  H      -6.808353      1.423208     -0.734282
  H      -8.008323      0.152706     -0.353354
37
Coordinates from ORCA-job neb_TEGDME_anion_cpcm_20_initial_path E   0.000000000000
  C       6.806355      0.965054      1.417350
  O       6.687682     -0.267634      0.704883
  C       5.490038     -0.338598     -0.064217
  C       4.296872     -0.789312      0.750889
  O       2.961323     -1.201073     -0.545469
  C       2.579310     -0.024921     -1.242491
  C       1.283002     -0.239507     -1.986923
  O       0.261234     -0.379981     -1.014302
  C      -0.993802     -0.659349     -1.640282
  C      -2.043012     -0.674078     -0.533632
  O      -2.204309      0.567046      0.045498
  C      -4.724067     -0.520329      2.085554
  C      -5.571489     -0.033872      0.981214
  O      -6.572425      0.835965      1.504881
  C      -7.268885      1.458534      0.423596
  H       6.021289      1.052285      2.180559
  H       6.765666      1.848854      0.762360
  H       7.787344      0.946191      1.898349
  H       5.665565     -1.089990     -0.846034
  H       5.364692      0.640989     -0.552253
  H       4.511232     -1.710960      1.296087
  H       3.876201     -0.029254      1.415929
  H       2.449172      0.821498     -0.539679
  H       3.296393      0.288300     -2.025119
  H       1.084720      0.628127     -2.641393
  H       1.351895     -1.146885     -2.611809
  H      -1.231640      0.120703     -2.384989
  H      -0.950077     -1.640290     -2.149299
  H      -1.718699     -1.456638      0.200726
  H      -2.921906     -1.133579     -1.058779
  H      -4.572804      0.103339      2.958519
  H      -4.368259     -1.542132      2.046715
  H      -4.936379      0.550069      0.286548
  H      -6.064324     -0.837892      0.404265
  H      -8.023984      2.102057      0.879559
  H      -6.596967      2.072025     -0.196046
  H      -7.776961      0.715237     -0.210764
37
Coordinates from ORCA-job neb_TEGDME_anion_cpcm_20_initial_path E   0.000000000000
  C       6.756020      1.268006      1.504123
  O       6.659156      0.117279      0.663724
  C       5.342014     -0.036795      0.138423
  C       4.382913     -0.722595      1.065638
  O       2.812206     -1.456173     -0.582382
  C       2.434624     -0.315202     -1.313742
  C       1.167766     -0.538767     -2.112960
  O       0.122846     -0.689982     -1.164207
  C      -1.101005     -0.982618     -1.835415
  C      -2.163080     -1.029097     -0.749972
  O      -2.287683      0.228790     -0.174704
  C      -4.455476     -0.667960      1.662357
  C      -5.309445      0.212840      0.826581
  O      -6.335416      0.799583      1.623131
  C      -7.001489      1.790397      0.829524
  H       6.132648      1.132121      2.398449
  H       6.474688      2.210296      1.008757
  H       7.809710      1.340812      1.782819
  H       5.488258     -0.689889     -0.733977
  H       5.023597      0.965637     -0.189052
  H       4.787750     -1.619628      1.531254
  H       3.780000     -0.108776      1.732879
  H       2.241996      0.553712     -0.645134
  H       3.152681      0.013880     -2.096965
  H       0.974690      0.325176     -2.774195
  H       1.267666     -1.454625     -2.720523
  H      -1.334354     -0.205065     -2.583298
  H      -1.036327     -1.965203     -2.337254
  H      -1.846199     -1.785527      0.007712
  H      -3.025799     -1.488097     -1.289652
  H      -4.268749     -0.351173      2.685363
  H      -4.566916     -1.734530      1.481140
  H      -4.653653      1.017122      0.442103
  H      -5.836578     -0.286006     -0.008814
  H      -7.777475      2.204522      1.475634
  H      -6.317430      2.591102      0.508499
  H      -7.494155      1.356437     -0.055865
37
Coordinates from ORCA-job neb_TEGDME_anion_cpcm_20_initial_path E   0.000000000000
  C       6.689478      1.551052      1.541704
  O       6.534355      0.515383      0.573963
  C       5.148792      0.251846      0.335723
  C       4.490084     -0.613160      1.352579
  O       2.691974     -1.698476     -0.599421
  C       2.317652     -0.589272     -1.353942
  C       1.062639     -0.817927     -2.179357
  O      -0.012408     -0.961980     -1.256426
  C      -1.205676     -1.281956     -1.963869
  C      -2.302823     -1.372618     -0.927035
  O      -2.477044     -0.098363     -0.384719
  C      -4.344376     -0.756957      1.142485
  C      -5.013335      0.499566      0.689666
  O      -6.095708      0.753845      1.581800
  C      -6.676641      2.009569      1.213911
  H       6.288313      1.220033      2.509589
  H       6.209440      2.498506      1.252054
  H       7.765515      1.724503      1.611563
  H       5.206164     -0.317342     -0.603322
  H       4.647818      1.222933      0.197726
  H       5.057019     -1.471734      1.699281
  H       3.728241     -0.214244      2.013891
  H       2.090294      0.303915     -0.722309
  H       3.041263     -0.255127     -2.137291
  H       0.878176      0.038026     -2.854254
  H       1.184975     -1.741013     -2.772474
  H      -1.428469     -0.512295     -2.722906
  H      -1.117799     -2.265833     -2.458776
  H      -1.997028     -2.082944     -0.129285
  H      -3.159041     -1.820578     -1.475172
  H      -4.086208     -0.800088      2.202765
  H      -4.842609     -1.668709      0.799792
  H      -4.264259      1.312371      0.734635
  H      -5.465557      0.453213     -0.320273
  H      -7.495987      2.165722      1.917539
  H      -5.941490      2.824878      1.291342
  H      -7.105737      1.995255      0.198823
37
Coordinates from ORCA-job neb_TEGDME_anion_cpcm_20_initial_path E   0.000000000000
  C       6.577870      1.825794      1.568336
  O       6.275872      0.932720      0.500806
  C       4.898863      0.535129      0.560475
  C       4.594008     -0.464488      1.611315
  O       2.577803     -1.940539     -0.601598
  C       2.196996     -0.859310     -1.366527
  C       0.951747     -1.090850     -2.215639
  O      -0.164186     -1.232181     -1.332621
  C      -1.330897     -1.560641     -2.073781
  C      -2.478685     -1.676987     -1.104988
  O      -2.740473     -0.401493     -0.580834
  C      -4.255352     -0.700998      0.581798
  C      -4.684375      0.738357      0.591242
  O      -5.794112      0.790693      1.483565
  C      -6.242161      2.141766      1.568719
  H       6.444643      1.324218      2.537101
  H       5.956808      2.734108      1.540662
  H       7.623305      2.112079      1.433197
  H       4.785297      0.058681     -0.423512
  H       4.258852      1.429056      0.628610
  H       5.301937     -1.267146      1.786361
  H       3.726188     -0.361821      2.251180
  H       1.957643      0.056360     -0.765244
  H       2.941102     -0.529189     -2.139410
  H       0.781309     -0.239864     -2.901762
  H       1.090075     -2.013468     -2.807368
  H      -1.531987     -0.793897     -2.842048
  H      -1.224668     -2.541345     -2.571632
  H      -2.212760     -2.357891     -0.274868
  H      -3.331245     -2.093106     -1.673760
  H      -3.972362     -1.090636      1.567381
  H      -5.010627     -1.356533      0.126619
  H      -3.834692      1.356668      0.931403
  H      -5.015300      1.097271     -0.401665
  H      -7.093311      2.133540      2.252071
  H      -5.437274      2.780815      1.960921
  H      -6.585852      2.525129      0.595495
37
Coordinates from ORCA-job neb_TEGDME_anion_cpcm_20_initial_path E   0.000000000000
  C       6.409465      2.103583      1.612041
  O       5.900259      1.350863      0.513183
  C       4.611051      0.787920      0.797805
  C       4.652129     -0.289624      1.817307
  O       2.444039     -2.190109     -0.609528
  C       2.053368     -1.127120     -1.369760
  C       0.825367     -1.369380     -2.253371
  O      -0.342753     -1.529311     -1.434989
  C      -1.497013     -1.833049     -2.201038
  C      -2.701531     -1.890102     -1.296961
  O      -3.001014     -0.574940     -0.830252
  C      -4.102587     -0.563372      0.067671
  C      -4.311846      0.872981      0.505555
  O      -5.416891      0.890238      1.400861
  C      -5.684002      2.203970      1.882171
  H       6.550070      1.474803      2.503171
  H       5.732310      2.932746      1.869391
  H       7.375862      2.510233      1.303060
  H       4.254955      0.394313     -0.168665
  H       3.909162      1.584612      1.097949
  H       5.487070     -0.983995      1.829930
  H       3.788272     -0.492778      2.440857
  H       1.803482     -0.203468     -0.776522
  H       2.832637     -0.770838     -2.101710
  H       0.669237     -0.517725     -2.943385
  H       0.975109     -2.281756     -2.858937
  H      -1.656269     -1.070467     -2.984055
  H      -1.385760     -2.809978     -2.703652
  H      -2.501449     -2.558832     -0.443346
  H      -3.557713     -2.297880     -1.859845
  H      -3.897244     -1.199020      0.945088
  H      -5.012358     -0.945389     -0.425647
  H      -3.403174      1.251660      1.002754
  H      -4.512573      1.510976     -0.371527
  H      -6.537473      2.133564      2.560922
  H      -4.818914      2.610032      2.427695
  H      -5.933279      2.886639      1.055781
