37
Coordinates from ORCA-job neb_TEGDME_anion_cpcm_20_MEP_ALL E -770.223079036467
  C       6.863869      0.654136      1.263538
  O       6.662026     -0.623983      0.659562
  C       5.587201     -0.637707     -0.280705
  C       4.235818     -0.807215      0.415132
  O       3.167338     -0.958536     -0.517282
  C       2.778154      0.261177     -1.157854
  C       1.432222      0.063097     -1.808238
  O       0.432415     -0.050773     -0.809105
  C      -0.862341     -0.326802     -1.364213
  C      -1.919411     -0.308383     -0.256293
  O      -2.156150      0.913848      0.302303
  C      -5.089694     -0.377654      2.365553
  C      -5.825433     -0.205976      1.096445
  O      -6.836340      0.790396      1.257979
  C      -7.508697      1.055253      0.031169
  H       6.001554      0.970566      1.865813
  H       7.064597      1.420476      0.500185
  H       7.735168      0.562039      1.916980
  H       5.757711     -1.496133     -0.941458
  H       5.607120      0.278202     -0.891456
  H       4.257039     -1.726603      1.011568
  H       4.031729      0.038341      1.090333
  H       2.720739      1.074337     -0.416149
  H       3.505008      0.550771     -1.932257
  H       1.227549      0.925337     -2.467130
  H       1.456371     -0.841785     -2.441478
  H      -1.104957      0.439663     -2.122549
  H      -0.838234     -1.313605     -1.865946
  H      -1.583917     -1.092789      0.477297
  H      -2.820561     -0.772873     -0.749649
  H      -5.052387      0.434418      3.083283
  H      -4.434248     -1.231948      2.491146
  H      -5.135838      0.101458      0.281544
  H      -6.278994     -1.160034      0.767808
  H      -8.259750      1.823372      0.231758
  H      -6.808353      1.423208     -0.734282
  H      -8.008323      0.152706     -0.353354
37
Coordinates from ORCA-job neb_TEGDME_anion_cpcm_20_MEP_ALL E -770.114671002397
  C       6.775156      1.174879      1.494765
  O       6.671963      0.003766      0.687901
  C       5.380561     -0.128749      0.049137
  C       4.347898     -0.739339      0.949806
  O       2.889582     -1.356066     -0.538071
  C       2.489083     -0.215978     -1.291681
  C       1.195445     -0.463559     -2.055037
  O       0.159163     -0.600830     -1.150475
  C      -1.071431     -0.895892     -1.763844
  C      -2.116472     -0.895408     -0.685956
  O      -2.273298      0.310978     -0.120064
  C      -4.545769     -0.642527      1.793178
  C      -5.371370      0.138577      0.875501
  O      -6.409287      0.831912      1.596333
  C      -7.088145      1.698266      0.729202
  H       6.097584      1.109321      2.343888
  H       6.552754      2.102273      0.931514
  H       7.804671      1.223177      1.825015
  H       5.537221     -0.800090     -0.770242
  H       5.108662      0.867833     -0.295006
  H       4.693110     -1.665542      1.450874
  H       3.789046     -0.092845      1.633620
  H       2.298543      0.626046     -0.620642
  H       3.201521      0.091397     -2.067273
  H       1.006966      0.416846     -2.736682
  H       1.288104     -1.360181     -2.697731
  H      -1.306249     -0.104984     -2.528289
  H      -1.011129     -1.867084     -2.294009
  H      -1.812283     -1.693776      0.048964
  H      -3.014245     -1.365598     -1.222116
  H      -4.339163     -0.206812      2.778899
  H      -4.475712     -1.693268      1.659781
  H      -4.744917      0.874444      0.370898
  H      -5.890958     -0.476398      0.118538
  H      -7.847276      2.192459      1.307662
  H      -6.396386      2.445684      0.291822
  H      -7.572946      1.157067     -0.100180
37
Coordinates from ORCA-job neb_TEGDME_anion_cpcm_20_MEP_ALL E -770.105305069351
  C       6.671947      1.625684      1.554408
  O       6.467081      0.662958      0.553216
  C       5.068517      0.324490      0.387574
  C       4.536496     -0.560491      1.451378
  O       2.649840     -1.756508     -0.626788
  C       2.284728     -0.685673     -1.354146
  C       1.029451     -0.903412     -2.179198
  O      -0.066003     -1.046270     -1.306778
  C      -1.237552     -1.373178     -1.989931
  C      -2.353580     -1.461192     -0.987434
  O      -2.607380     -0.226172     -0.419018
  C      -4.339060     -0.738162      0.939271
  C      -4.890952      0.576703      0.654245
  O      -6.003755      0.765215      1.552799
  C      -6.555354      2.051625      1.356803
  H       6.344709      1.242320      2.531056
  H       6.118598      2.570045      1.345212
  H       7.730898      1.844690      1.559190
  H       5.062367     -0.189150     -0.557418
  H       4.509092      1.285798      0.335911
  H       5.139168     -1.426537      1.725575
  H       3.717239     -0.274454      2.095662
  H       2.051391      0.225437     -0.740256
  H       3.017018     -0.340226     -2.136305
  H       0.845052     -0.042928     -2.871102
  H       1.149516     -1.819247     -2.791144
  H      -1.463043     -0.594748     -2.761902
  H      -1.147373     -2.345235     -2.505207
  H      -2.063179     -2.176808     -0.194047
  H      -3.220628     -1.893913     -1.539747
  H      -4.024219     -0.919911      1.991441
  H      -4.894520     -1.590106      0.548283
  H      -4.128921      1.348322      0.823033
  H      -5.301887      0.684111     -0.362816
  H      -7.376495      2.148232      2.044177
  H      -5.783420      2.824310      1.548605
  H      -6.935787      2.184381      0.325398
37
Coordinates from ORCA-job neb_TEGDME_anion_cpcm_20_MEP_ALL E -770.225463883462
  C       6.411748      2.088859      1.622076
  O       5.901454      1.343516      0.518704
  C       4.612006      0.779651      0.800403
  C       4.652871     -0.304406      1.812985
  O       2.442213     -2.187849     -0.624772
  C       2.051880     -1.119762     -1.378001
  C       0.823254     -1.355536     -2.262496
  O      -0.344552     -1.519886     -1.444540
  C      -1.499418     -1.817938     -2.211908
  C      -2.703505     -1.879934     -1.307582
  O      -3.001840     -0.567573     -0.832333
  C      -4.102939     -0.560980      0.066222
  C      -4.310980      0.872692      0.513374
  O      -5.415548      0.884991      1.409350
  C      -5.681505      2.195807      1.899174
  H       6.552383      1.454308      2.509102
  H       5.735298      2.916826      1.885067
  H       7.378265      2.496810      1.315191
  H       4.255138      0.392465     -0.168373
  H       3.910822      1.574893      1.105992
  H       5.487340     -0.999414      1.820739
  H       3.789198     -0.510942      2.435678
  H       1.802938     -0.199743     -0.778749
  H       2.831014     -0.759349     -2.108070
  H       0.667352     -0.499388     -2.946979
  H       0.972052     -2.264130     -2.873951
  H      -1.658555     -1.050264     -2.989958
  H      -1.389099     -2.791715     -2.720804
  H      -2.503440     -2.554236     -0.458357
  H      -3.560260     -2.283525     -1.872609
  H      -3.897578     -1.202356      0.939457
  H      -5.013228     -0.939217     -0.429047
  H      -3.401790      1.247567      1.012504
  H      -4.511724      1.516409     -0.359513
  H      -6.534672      2.121656      2.577908
  H      -4.815854      2.597787      2.446825
  H      -5.930740      2.883908      1.077289
37
Coordinates from ORCA-job neb_TEGDME_anion_cpcm_20_MEP_ALL E -770.223079036467
  C       6.863869      0.654136      1.263538
  O       6.662026     -0.623983      0.659562
  C       5.587201     -0.637707     -0.280705
  C       4.235818     -0.807215      0.415132
  O       3.167338     -0.958536     -0.517282
  C       2.778154      0.261177     -1.157854
  C       1.432222      0.063097     -1.808238
  O       0.432415     -0.050773     -0.809105
  C      -0.862341     -0.326802     -1.364213
  C      -1.919411     -0.308383     -0.256293
  O      -2.156150      0.913848      0.302303
  C      -5.089694     -0.377654      2.365553
  C      -5.825433     -0.205976      1.096445
  O      -6.836340      0.790396      1.257979
  C      -7.508697      1.055253      0.031169
  H       6.001554      0.970566      1.865813
  H       7.064597      1.420476      0.500185
  H       7.735168      0.562039      1.916980
  H       5.757711     -1.496133     -0.941458
  H       5.607120      0.278202     -0.891456
  H       4.257039     -1.726603      1.011568
  H       4.031729      0.038341      1.090333
  H       2.720739      1.074337     -0.416149
  H       3.505008      0.550771     -1.932257
  H       1.227549      0.925337     -2.467130
  H       1.456371     -0.841785     -2.441478
  H      -1.104957      0.439663     -2.122549
  H      -0.838234     -1.313605     -1.865946
  H      -1.583917     -1.092789      0.477297
  H      -2.820561     -0.772873     -0.749649
  H      -5.052387      0.434418      3.083283
  H      -4.434248     -1.231948      2.491146
  H      -5.135838      0.101458      0.281544
  H      -6.278994     -1.160034      0.767808
  H      -8.259750      1.823372      0.231758
  H      -6.808353      1.423208     -0.734282
  H      -8.008323      0.152706     -0.353354
37
Coordinates from ORCA-job neb_TEGDME_anion_cpcm_20_MEP_ALL E -770.123061872753
  C       6.773255      1.185132      1.500181
  O       6.665398      0.013730      0.689786
  C       5.375013     -0.116357      0.044576
  C       4.339699     -0.738278      0.934064
  O       2.928374     -1.336452     -0.498471
  C       2.495371     -0.218595     -1.287382
  C       1.197394     -0.478374     -2.051048
  O       0.154524     -0.611741     -1.160304
  C      -1.075677     -0.909568     -1.767355
  C      -2.119656     -0.900894     -0.689365
  O      -2.297524      0.296842     -0.127570
  C      -4.561477     -0.649676      1.785791
  C      -5.362318      0.150482      0.869464
  O      -6.403123      0.838666      1.597556
  C      -7.082235      1.708965      0.743020
  H       6.103529      1.116630      2.353388
  H       6.541667      2.104324      0.935083
  H       7.806713      1.235876      1.825347
  H       5.527417     -0.790735     -0.776323
  H       5.083214      0.872425     -0.287377
  H       4.687153     -1.664670      1.441275
  H       3.775120     -0.099345      1.630232
  H       2.295014      0.619314     -0.626136
  H       3.211664      0.080434     -2.061245
  H       1.009106      0.400925     -2.735063
  H       1.285787     -1.368845     -2.701604
  H      -1.309037     -0.120068     -2.527797
  H      -1.011450     -1.878016     -2.300265
  H      -1.817132     -1.706992      0.039141
  H      -3.028262     -1.365768     -1.218546
  H      -4.327836     -0.222748      2.757683
  H      -4.472860     -1.702576      1.641089
  H      -4.732334      0.886078      0.370480
  H      -5.864883     -0.457507      0.107676
  H      -7.845570      2.200197      1.324627
  H      -6.386319      2.451014      0.317710
  H      -7.557719      1.176173     -0.092317
37
Coordinates from ORCA-job neb_TEGDME_anion_cpcm_20_MEP_ALL E -770.114699812583
  C       6.673761      1.628626      1.558493
  O       6.470254      0.668439      0.554152
  C       5.068250      0.324469      0.385017
  C       4.549359     -0.549706      1.462630
  O       2.652254     -1.751566     -0.632825
  C       2.287462     -0.686292     -1.352443
  C       1.032597     -0.905714     -2.178186
  O      -0.066238     -1.049600     -1.314519
  C      -1.236615     -1.374768     -1.989113
  C      -2.356510     -1.465598     -0.983977
  O      -2.660278     -0.249068     -0.385883
  C      -4.341664     -0.731403      0.933644
  C      -4.891685      0.583818      0.649517
  O      -6.001479      0.772705      1.554410
  C      -6.558267      2.055075      1.356927
  H       6.347117      1.248616      2.534870
  H       6.117418      2.565575      1.342476
  H       7.737113      1.848812      1.564627
  H       5.048880     -0.188440     -0.569134
  H       4.504500      1.275881      0.329979
  H       5.135153     -1.427810      1.725592
  H       3.713475     -0.274461      2.095281
  H       2.055981      0.225742     -0.741249
  H       3.026664     -0.342767     -2.128925
  H       0.846091     -0.048737     -2.869187
  H       1.147866     -1.819674     -2.791287
  H      -1.464429     -0.601734     -2.757868
  H      -1.144238     -2.347349     -2.507063
  H      -2.062352     -2.182933     -0.202939
  H      -3.222811     -1.889619     -1.531612
  H      -4.006611     -0.911989      1.975080
  H      -4.875630     -1.593821      0.534064
  H      -4.135562      1.353151      0.822272
  H      -5.286791      0.678377     -0.364460
  H      -7.382553      2.155717      2.049969
  H      -5.789293      2.825181      1.546675
  H      -6.931187      2.182865      0.324999
37
Coordinates from ORCA-job neb_TEGDME_anion_cpcm_20_MEP_ALL E -770.225463883462
  C       6.411472      2.090287      1.621326
  O       5.901339      1.344127      0.518433
  C       4.611880      0.780414      0.800386
  C       4.652668     -0.302909      1.813757
  O       2.442374     -2.188202     -0.622901
  C       2.052088     -1.120675     -1.376947
  C       0.823576     -1.357138     -2.261418
  O      -0.344319     -1.520943     -1.443482
  C      -1.499083     -1.819596     -2.210771
  C      -2.703275     -1.880986     -1.306544
  O      -3.001719     -0.568294     -0.832278
  C      -4.102924     -0.561096      0.066141
  C      -4.311076      0.872891      0.512232
  O      -5.415751      0.885793      1.408068
  C      -5.681818      2.196952      1.896913
  H       6.552027      1.456383      2.508827
  H       5.734958      2.918417      1.883638
  H       7.378009      2.498055      1.314261
  H       4.255142      0.392513     -0.168152
  H       3.910628      1.575848      1.105318
  H       5.487164     -0.997879      1.822112
  H       3.788930     -0.509030      2.436496
  H       1.803038     -0.200234     -0.778391
  H       2.831294     -0.760760     -2.107185
  H       0.667721     -0.501491     -2.946538
  H       0.972483     -2.266168     -2.872198
  H      -1.658158     -1.052492     -2.989395
  H      -1.388665     -2.793737     -2.718950
  H      -2.503284     -2.554666     -0.456808
  H      -3.559947     -2.285020     -1.871380
  H      -3.897641     -1.201833      0.939864
  H      -5.013140     -0.939728     -0.428962
  H      -3.401960      1.248162      1.011198
  H      -4.511742      1.515968     -0.361145
  H      -6.535062      2.123257      2.575599
  H      -4.816248      2.599362      2.444376
  H      -5.930983      2.884448      1.074501
37
Coordinates from ORCA-job neb_TEGDME_anion_cpcm_20_MEP_ALL E -770.223079036467
  C       6.863869      0.654136      1.263538
  O       6.662026     -0.623983      0.659562
  C       5.587201     -0.637707     -0.280705
  C       4.235818     -0.807215      0.415132
  O       3.167338     -0.958536     -0.517282
  C       2.778154      0.261177     -1.157854
  C       1.432222      0.063097     -1.808238
  O       0.432415     -0.050773     -0.809105
  C      -0.862341     -0.326802     -1.364213
  C      -1.919411     -0.308383     -0.256293
  O      -2.156150      0.913848      0.302303
  C      -5.089694     -0.377654      2.365553
  C      -5.825433     -0.205976      1.096445
  O      -6.836340      0.790396      1.257979
  C      -7.508697      1.055253      0.031169
  H       6.001554      0.970566      1.865813
  H       7.064597      1.420476      0.500185
  H       7.735168      0.562039      1.916980
  H       5.757711     -1.496133     -0.941458
  H       5.607120      0.278202     -0.891456
  H       4.257039     -1.726603      1.011568
  H       4.031729      0.038341      1.090333
  H       2.720739      1.074337     -0.416149
  H       3.505008      0.550771     -1.932257
  H       1.227549      0.925337     -2.467130
  H       1.456371     -0.841785     -2.441478
  H      -1.104957      0.439663     -2.122549
  H      -0.838234     -1.313605     -1.865946
  H      -1.583917     -1.092789      0.477297
  H      -2.820561     -0.772873     -0.749649
  H      -5.052387      0.434418      3.083283
  H      -4.434248     -1.231948      2.491146
  H      -5.135838      0.101458      0.281544
  H      -6.278994     -1.160034      0.767808
  H      -8.259750      1.823372      0.231758
  H      -6.808353      1.423208     -0.734282
  H      -8.008323      0.152706     -0.353354
37
Coordinates from ORCA-job neb_TEGDME_anion_cpcm_20_MEP_ALL E -770.131156895702
  C       6.767941      1.191085      1.491931
  O       6.654620      0.011047      0.685805
  C       5.380637     -0.109040      0.063026
  C       4.311790     -0.752177      0.916146
  O       2.968937     -1.316088     -0.457996
  C       2.497224     -0.229442     -1.277685
  C       1.214347     -0.477893     -2.069858
  O       0.155940     -0.618283     -1.134599
  C      -1.078711     -0.907703     -1.792348
  C      -2.140008     -0.931339     -0.695497
  O      -2.310100      0.316152     -0.117544
  C      -4.565526     -0.645603      1.799492
  C      -5.375958      0.154725      0.867315
  O      -6.389923      0.828415      1.611149
  C      -7.077945      1.720254      0.730501
  H       6.102039      1.122937      2.364415
  H       6.538191      2.103619      0.934588
  H       7.812333      1.241238      1.828326
  H       5.528824     -0.795073     -0.793938
  H       5.070470      0.882470     -0.295199
  H       4.673864     -1.656116      1.423228
  H       3.770116     -0.102934      1.616076
  H       2.294111      0.631814     -0.623406
  H       3.223033      0.077353     -2.059860
  H       1.017352      0.384366     -2.726757
  H       1.287583     -1.375297     -2.700668
  H      -1.309735     -0.133005     -2.522913
  H      -1.012745     -1.885253     -2.299193
  H      -1.817906     -1.711697      0.037074
  H      -3.026645     -1.362784     -1.211292
  H      -4.320977     -0.225994      2.751455
  H      -4.467697     -1.717998      1.634118
  H      -4.722489      0.897593      0.364531
  H      -5.856343     -0.456025      0.098042
  H      -7.853718      2.210429      1.333044
  H      -6.386605      2.456660      0.322281
  H      -7.556321      1.179591     -0.093792
37
Coordinates from ORCA-job neb_TEGDME_anion_cpcm_20_MEP_ALL E -770.123426596343
  C       6.664143      1.645417      1.560118
  O       6.467190      0.662320      0.538470
  C       5.070001      0.342569      0.399271
  C       4.559196     -0.544164      1.473211
  O       2.662372     -1.776208     -0.616196
  C       2.281941     -0.675238     -1.363210
  C       1.035106     -0.905542     -2.196727
  O      -0.061188     -1.052988     -1.293793
  C      -1.249249     -1.368854     -1.999773
  C      -2.372881     -1.491908     -0.980090
  O      -2.713143     -0.264602     -0.345079
  C      -4.303794     -0.736900      0.923026
  C      -4.910692      0.607809      0.651193
  O      -5.993642      0.764330      1.554567
  C      -6.549817      2.068894      1.348087
  H       6.350419      1.257109      2.538925
  H       6.117869      2.565805      1.341707
  H       7.743371      1.857974      1.565231
  H       5.041224     -0.189654     -0.579303
  H       4.499072      1.270468      0.325644
  H       5.133843     -1.423806      1.729049
  H       3.712194     -0.270661      2.095829
  H       2.057958      0.227474     -0.741570
  H       3.031821     -0.346429     -2.126003
  H       0.847981     -0.060344     -2.866822
  H       1.148241     -1.826699     -2.789065
  H      -1.466113     -0.614342     -2.755167
  H      -1.146027     -2.355210     -2.503755
  H      -2.060495     -2.195014     -0.203628
  H      -3.222605     -1.895432     -1.527643
  H      -3.992765     -0.904693      1.951745
  H      -4.864049     -1.594071      0.517368
  H      -4.130330      1.362746      0.822218
  H      -5.278123      0.680358     -0.377011
  H      -7.387983      2.162207      2.056214
  H      -5.793243      2.830750      1.547673
  H      -6.927804      2.186530      0.325292
37
Coordinates from ORCA-job neb_TEGDME_anion_cpcm_20_MEP_ALL E -770.225463883462
  C       6.411004      2.094790      1.617361
  O       5.901088      1.346143      0.516053
  C       4.611687      0.782855      0.799116
  C       4.652540     -0.298243      1.814858
  O       2.442761     -2.189193     -0.617880
  C       2.052388     -1.123377     -1.374297
  C       0.823995     -1.361958     -2.258365
  O      -0.343954     -1.524149     -1.440184
  C      -1.498599     -1.824653     -2.206928
  C      -2.702868     -1.884245     -1.302683
  O      -3.001554     -0.570564     -0.831319
  C      -4.102846     -0.561565      0.066978
  C      -4.311256      0.873363      0.509910
  O      -5.416018      0.888059      1.405611
  C      -5.682328      2.200245      1.891561
  H       6.551569      1.462850      2.506259
  H       5.734341      2.923390      1.877796
  H       7.377509      2.502030      1.309496
  H       4.255099      0.392782     -0.168605
  H       3.910286      1.578849      1.102240
  H       5.487139     -0.993067      1.824813
  H       3.788773     -0.503131      2.437965
  H       1.803143     -0.201666     -0.777779
  H       2.831609     -0.764943     -2.105246
  H       0.668078     -0.507836     -2.945371
  H       0.973097     -2.272300     -2.867141
  H      -1.657715     -1.059277     -2.987243
  H      -1.387986     -2.799886     -2.712964
  H      -2.502858     -2.556035     -0.451457
  H      -3.559426     -2.289642     -1.866716
  H      -3.897551     -1.200358      0.942120
  H      -5.012958     -0.941415     -0.427383
  H      -3.402243      1.249861      1.008141
  H      -4.511934      1.514498     -0.364890
  H      -6.535626      2.127907      2.570326
  H      -4.816870      2.603981      2.438225
  H      -5.931517      2.885903      1.067623
37
Coordinates from ORCA-job neb_TEGDME_anion_cpcm_20_MEP_ALL E -770.223079036467
  C       6.863869      0.654136      1.263538
  O       6.662026     -0.623983      0.659562
  C       5.587201     -0.637707     -0.280705
  C       4.235818     -0.807215      0.415132
  O       3.167338     -0.958536     -0.517282
  C       2.778154      0.261177     -1.157854
  C       1.432222      0.063097     -1.808238
  O       0.432415     -0.050773     -0.809105
  C      -0.862341     -0.326802     -1.364213
  C      -1.919411     -0.308383     -0.256293
  O      -2.156150      0.913848      0.302303
  C      -5.089694     -0.377654      2.365553
  C      -5.825433     -0.205976      1.096445
  O      -6.836340      0.790396      1.257979
  C      -7.508697      1.055253      0.031169
  H       6.001554      0.970566      1.865813
  H       7.064597      1.420476      0.500185
  H       7.735168      0.562039      1.916980
  H       5.757711     -1.496133     -0.941458
  H       5.607120      0.278202     -0.891456
  H       4.257039     -1.726603      1.011568
  H       4.031729      0.038341      1.090333
  H       2.720739      1.074337     -0.416149
  H       3.505008      0.550771     -1.932257
  H       1.227549      0.925337     -2.467130
  H       1.456371     -0.841785     -2.441478
  H      -1.104957      0.439663     -2.122549
  H      -0.838234     -1.313605     -1.865946
  H      -1.583917     -1.092789      0.477297
  H      -2.820561     -0.772873     -0.749649
  H      -5.052387      0.434418      3.083283
  H      -4.434248     -1.231948      2.491146
  H      -5.135838      0.101458      0.281544
  H      -6.278994     -1.160034      0.767808
  H      -8.259750      1.823372      0.231758
  H      -6.808353      1.423208     -0.734282
  H      -8.008323      0.152706     -0.353354
37
Coordinates from ORCA-job neb_TEGDME_anion_cpcm_20_MEP_ALL E -770.141197799041
  C       6.766649      1.192354      1.492009
  O       6.647766      0.011492      0.686283
  C       5.380398     -0.107665      0.063557
  C       4.285097     -0.758719      0.893215
  O       3.006655     -1.298882     -0.419055
  C       2.505695     -0.229398     -1.269639
  C       1.224375     -0.485948     -2.068335
  O       0.158420     -0.624109     -1.126470
  C      -1.080787     -0.912797     -1.795801
  C      -2.149383     -0.939196     -0.698455
  O      -2.320835      0.319035     -0.114627
  C      -4.571857     -0.652623      1.800223
  C      -5.376915      0.159321      0.867374
  O      -6.386208      0.827683      1.615954
  C      -7.079150      1.726455      0.732379
  H       6.102688      1.128733      2.370939
  H       6.534255      2.104860      0.932120
  H       7.813149      1.245508      1.829244
  H       5.528648     -0.792215     -0.801625
  H       5.060560      0.887516     -0.299972
  H       4.661173     -1.653208      1.407633
  H       3.763750     -0.106445      1.603390
  H       2.293759      0.639833     -0.623931
  H       3.231702      0.073567     -2.054922
  H       1.024602      0.374871     -2.722740
  H       1.289463     -1.381910     -2.701062
  H      -1.311386     -0.138375     -2.524173
  H      -1.012900     -1.891713     -2.300193
  H      -1.818808     -1.716560      0.035065
  H      -3.031272     -1.362448     -1.206713
  H      -4.313267     -0.226184      2.752072
  H      -4.463182     -1.723946      1.629614
  H      -4.717382      0.903795      0.361730
  H      -5.849955     -0.455632      0.088808
  H      -7.856424      2.216919      1.336668
  H      -6.384257      2.463809      0.324997
  H      -7.554836      1.182221     -0.095558
37
Coordinates from ORCA-job neb_TEGDME_anion_cpcm_20_MEP_ALL E -770.135234633670
  C       6.665318      1.650830      1.559129
  O       6.466537      0.664061      0.532297
  C       5.072304      0.344330      0.400327
  C       4.565469     -0.535932      1.482047
  O       2.667284     -1.785554     -0.610131
  C       2.281772     -0.676719     -1.366051
  C       1.037885     -0.908050     -2.200428
  O      -0.060509     -1.055148     -1.286271
  C      -1.256537     -1.369121     -1.994693
  C      -2.382513     -1.505164     -0.975544
  O      -2.766047     -0.287158     -0.303756
  C      -4.273486     -0.728625      0.896783
  C      -4.916468      0.615050      0.653556
  O      -5.991167      0.764530      1.553864
  C      -6.551421      2.073873      1.348435
  H       6.352556      1.264113      2.541538
  H       6.116137      2.568847      1.339501
  H       7.744412      1.864406      1.566646
  H       5.034269     -0.187355     -0.580557
  H       4.493197      1.269301      0.321581
  H       5.133162     -1.422732      1.731801
  H       3.711773     -0.268018      2.095201
  H       2.060152      0.229301     -0.742257
  H       3.037596     -0.348169     -2.123171
  H       0.848085     -0.065268     -2.868561
  H       1.148705     -1.832431     -2.788458
  H      -1.468577     -0.619120     -2.756751
  H      -1.147899     -2.358351     -2.500329
  H      -2.058302     -2.206913     -0.203846
  H      -3.227197     -1.902624     -1.525769
  H      -3.976545     -0.898654      1.937420
  H      -4.849433     -1.592200      0.504588
  H      -4.128914      1.370563      0.821345
  H      -5.272077      0.681152     -0.386716
  H      -7.388725      2.167737      2.056585
  H      -5.794869      2.836997      1.547393
  H      -6.925928      2.188217      0.323252
37
Coordinates from ORCA-job neb_TEGDME_anion_cpcm_20_MEP_ALL E -770.225463883462
  C       6.410641      2.098265      1.614306
  O       5.900899      1.347665      0.514244
  C       4.611534      0.784726      0.798166
  C       4.652416     -0.294618      1.815776
  O       2.443049     -2.189998     -0.613898
  C       2.052626     -1.125526     -1.372185
  C       0.824336     -1.365763     -2.255949
  O      -0.343666     -1.526669     -1.437589
  C      -1.498214     -1.828618     -2.203915
  C      -2.702554     -1.886781     -1.299671
  O      -3.001421     -0.572318     -0.830596
  C      -4.102792     -0.561890      0.067591
  C      -4.311393      0.873780      0.508033
  O      -5.416234      0.889902      1.403614
  C      -5.682727      2.202898      1.887281
  H       6.551196      1.467872      2.504307
  H       5.733866      2.927243      1.873256
  H       7.377128      2.505079      1.305823
  H       4.255072      0.392948     -0.168915
  H       3.910022      1.581168      1.099858
  H       5.487089     -0.989337      1.827000
  H       3.788617     -0.498525      2.439161
  H       1.803231     -0.202813     -0.777276
  H       2.831873     -0.768268     -2.103685
  H       0.668386     -0.512839     -2.944441
  H       0.973588     -2.277138     -2.863144
  H      -1.657344     -1.064603     -2.985564
  H      -1.387453     -2.804712     -2.708262
  H      -2.502545     -2.557083     -0.447269
  H      -3.559020     -2.293242     -1.863080
  H      -3.897504     -1.199153      0.943852
  H      -5.012820     -0.942689     -0.426194
  H      -3.402464      1.251235      1.005695
  H      -4.512065      1.513388     -0.367889
  H      -6.536076      2.131638      2.566097
  H      -4.817360      2.607669      2.433324
  H      -5.931919      2.887110      1.062139
37
Coordinates from ORCA-job neb_TEGDME_anion_cpcm_20_MEP_ALL E -770.223079036467
  C       6.863869      0.654136      1.263538
  O       6.662026     -0.623983      0.659562
  C       5.587201     -0.637707     -0.280705
  C       4.235818     -0.807215      0.415132
  O       3.167338     -0.958536     -0.517282
  C       2.778154      0.261177     -1.157854
  C       1.432222      0.063097     -1.808238
  O       0.432415     -0.050773     -0.809105
  C      -0.862341     -0.326802     -1.364213
  C      -1.919411     -0.308383     -0.256293
  O      -2.156150      0.913848      0.302303
  C      -5.089694     -0.377654      2.365553
  C      -5.825433     -0.205976      1.096445
  O      -6.836340      0.790396      1.257979
  C      -7.508697      1.055253      0.031169
  H       6.001554      0.970566      1.865813
  H       7.064597      1.420476      0.500185
  H       7.735168      0.562039      1.916980
  H       5.757711     -1.496133     -0.941458
  H       5.607120      0.278202     -0.891456
  H       4.257039     -1.726603      1.011568
  H       4.031729      0.038341      1.090333
  H       2.720739      1.074337     -0.416149
  H       3.505008      0.550771     -1.932257
  H       1.227549      0.925337     -2.467130
  H       1.456371     -0.841785     -2.441478
  H      -1.104957      0.439663     -2.122549
  H      -0.838234     -1.313605     -1.865946
  H      -1.583917     -1.092789      0.477297
  H      -2.820561     -0.772873     -0.749649
  H      -5.052387      0.434418      3.083283
  H      -4.434248     -1.231948      2.491146
  H      -5.135838      0.101458      0.281544
  H      -6.278994     -1.160034      0.767808
  H      -8.259750      1.823372      0.231758
  H      -6.808353      1.423208     -0.734282
  H      -8.008323      0.152706     -0.353354
37
Coordinates from ORCA-job neb_TEGDME_anion_cpcm_20_MEP_ALL E -770.149093434180
  C       6.770579      1.184631      1.504479
  O       6.649128      0.011698      0.697005
  C       5.367686     -0.116119      0.029631
  C       4.257154     -0.755168      0.850199
  O       3.044271     -1.281027     -0.378954
  C       2.528621     -0.206755     -1.260188
  C       1.224260     -0.505983     -2.028919
  O       0.163164     -0.626627     -1.148352
  C      -1.078782     -0.924130     -1.761704
  C      -2.133428     -0.902819     -0.689495
  O      -2.324732      0.296810     -0.123588
  C      -4.582496     -0.669526      1.794200
  C      -5.360615      0.156527      0.868437
  O      -6.403354      0.845187      1.604773
  C      -7.090774      1.720576      0.749267
  H       6.105351      1.132926      2.367470
  H       6.533475      2.103715      0.924243
  H       7.806234      1.242728      1.828371
  H       5.530777     -0.782188     -0.794724
  H       5.062094      0.878093     -0.303966
  H       4.642662     -1.661162      1.391480
  H       3.754021     -0.107322      1.588977
  H       2.297163      0.643445     -0.629608
  H       3.238229      0.071770     -2.042327
  H       1.033242      0.379510     -2.723347
  H       1.293641     -1.385812     -2.701609
  H      -1.312229     -0.128748     -2.532603
  H      -1.009955     -1.892842     -2.302104
  H      -1.819152     -1.716515      0.034490
  H      -3.047757     -1.363848     -1.205699
  H      -4.308257     -0.219153      2.763953
  H      -4.456580     -1.717320      1.637919
  H      -4.726003      0.895982      0.361995
  H      -5.850819     -0.463295      0.087228
  H      -7.854444      2.217756      1.326432
  H      -6.384913      2.468247      0.315613
  H      -7.557461      1.176759     -0.098974
37
Coordinates from ORCA-job neb_TEGDME_anion_cpcm_20_MEP_ALL E -770.146930476799
  C       6.680630      1.636512      1.554121
  O       6.472037      0.678144      0.543573
  C       5.072739      0.323040      0.380651
  C       4.567612     -0.526327      1.485172
  O       2.663103     -1.765088     -0.623599
  C       2.293906     -0.696723     -1.352046
  C       1.038809     -0.915418     -2.177754
  O      -0.067115     -1.053710     -1.302473
  C      -1.253251     -1.374591     -1.964619
  C      -2.383931     -1.494703     -0.962710
  O      -2.818916     -0.323814     -0.260173
  C      -4.250706     -0.703721      0.849839
  C      -4.897364      0.595762      0.648462
  O      -6.000688      0.779813      1.553056
  C      -6.566798      2.062806      1.358939
  H       6.352535      1.268437      2.539593
  H       6.112956      2.574047      1.334309
  H       7.738361      1.864770      1.569849
  H       5.030378     -0.182462     -0.568571
  H       4.490030      1.271785      0.316659
  H       5.131363     -1.425959      1.732540
  H       3.711713     -0.266152      2.092004
  H       2.063793      0.229821     -0.744538
  H       3.044329     -0.346191     -2.119720
  H       0.845885     -0.057986     -2.876457
  H       1.149496     -1.833995     -2.789919
  H      -1.471657     -0.611001     -2.762191
  H      -1.150826     -2.350477     -2.494246
  H      -2.055807     -2.217954     -0.203294
  H      -3.240072     -1.912620     -1.527146
  H      -3.957612     -0.891667      1.930956
  H      -4.825580     -1.582809      0.501471
  H      -4.138186      1.373405      0.817542
  H      -5.271819      0.678011     -0.385484
  H      -7.385156      2.171459      2.046831
  H      -5.795836      2.841874      1.541560
  H      -6.928356      2.183683      0.317809
37
Coordinates from ORCA-job neb_TEGDME_anion_cpcm_20_MEP_ALL E -770.225463883462
  C       6.410410      2.099956      1.613021
  O       5.900797      1.348369      0.513573
  C       4.611431      0.785624      0.797878
  C       4.652271     -0.292825      1.816436
  O       2.443197     -2.190430     -0.611766
  C       2.052794     -1.126641     -1.371020
  C       0.824590     -1.367705     -2.254680
  O      -0.343476     -1.527943     -1.436280
  C      -1.497944     -1.830614     -2.202441
  C      -2.702360     -1.888036     -1.298251
  O      -3.001324     -0.573175     -0.830354
  C      -4.102774     -0.562007      0.067728
  C      -4.311475      0.874040      0.506894
  O      -5.416394      0.890899      1.402364
  C      -5.682985      2.204307      1.884856
  H       6.550916      1.470349      2.503586
  H       5.733578      2.929131      1.871185
  H       7.376907      2.506540      1.304265
  H       4.255069      0.392983     -0.168890
  H       3.909858      1.582300      1.098810
  H       5.486973     -0.987498      1.828342
  H       3.788427     -0.496223      2.439926
  H       1.803308     -0.203417     -0.776942
  H       2.832088     -0.769990     -2.102765
  H       0.668664     -0.515392     -2.943932
  H       0.973934     -2.279606     -2.861063
  H      -1.657039     -1.067292     -2.984773
  H      -1.387097     -2.807145     -2.705922
  H      -2.502396     -2.557582     -0.445244
  H      -3.558760     -2.295028     -1.861377
  H      -3.897534     -1.198493      0.944565
  H      -5.012743     -0.943279     -0.425802
  H      -3.402605      1.251970      1.004303
  H      -4.512098      1.512870     -0.369607
  H      -6.536390      2.133605      2.563661
  H      -4.817683      2.609594      2.430620
  H      -5.932135      2.887784      1.059094
37
Coordinates from ORCA-job neb_TEGDME_anion_cpcm_20_MEP_ALL E -770.223079036467
  C       6.863869      0.654136      1.263538
  O       6.662026     -0.623983      0.659562
  C       5.587201     -0.637707     -0.280705
  C       4.235818     -0.807215      0.415132
  O       3.167338     -0.958536     -0.517282
  C       2.778154      0.261177     -1.157854
  C       1.432222      0.063097     -1.808238
  O       0.432415     -0.050773     -0.809105
  C      -0.862341     -0.326802     -1.364213
  C      -1.919411     -0.308383     -0.256293
  O      -2.156150      0.913848      0.302303
  C      -5.089694     -0.377654      2.365553
  C      -5.825433     -0.205976      1.096445
  O      -6.836340      0.790396      1.257979
  C      -7.508697      1.055253      0.031169
  H       6.001554      0.970566      1.865813
  H       7.064597      1.420476      0.500185
  H       7.735168      0.562039      1.916980
  H       5.757711     -1.496133     -0.941458
  H       5.607120      0.278202     -0.891456
  H       4.257039     -1.726603      1.011568
  H       4.031729      0.038341      1.090333
  H       2.720739      1.074337     -0.416149
  H       3.505008      0.550771     -1.932257
  H       1.227549      0.925337     -2.467130
  H       1.456371     -0.841785     -2.441478
  H      -1.104957      0.439663     -2.122549
  H      -0.838234     -1.313605     -1.865946
  H      -1.583917     -1.092789      0.477297
  H      -2.820561     -0.772873     -0.749649
  H      -5.052387      0.434418      3.083283
  H      -4.434248     -1.231948      2.491146
  H      -5.135838      0.101458      0.281544
  H      -6.278994     -1.160034      0.767808
  H      -8.259750      1.823372      0.231758
  H      -6.808353      1.423208     -0.734282
  H      -8.008323      0.152706     -0.353354
37
Coordinates from ORCA-job neb_TEGDME_anion_cpcm_20_MEP_ALL E -770.160986909832
  C       6.767691      1.183837      1.504598
  O       6.643025      0.006477      0.701657
  C       5.362036     -0.115358      0.020342
  C       4.227173     -0.761284      0.810768
  O       3.084192     -1.257856     -0.338329
  C       2.542160     -0.199465     -1.246518
  C       1.232607     -0.512954     -2.015953
  O       0.165962     -0.630214     -1.147907
  C      -1.075912     -0.922478     -1.758252
  C      -2.132210     -0.895618     -0.683376
  O      -2.328483      0.294606     -0.124341
  C      -4.589454     -0.668367      1.806758
  C      -5.361657      0.150807      0.866517
  O      -6.408830      0.850587      1.601328
  C      -7.093244      1.719750      0.743803
  H       6.105133      1.137040      2.368488
  H       6.534618      2.097851      0.920311
  H       7.805000      1.239918      1.829865
  H       5.536558     -0.782142     -0.801619
  H       5.063079      0.873236     -0.312199
  H       4.620511     -1.661198      1.369553
  H       3.746047     -0.108169      1.571244
  H       2.300856      0.654222     -0.630374
  H       3.248760      0.071856     -2.034081
  H       1.044929      0.373945     -2.715776
  H       1.299034     -1.388345     -2.698185
  H      -1.310152     -0.129886     -2.530580
  H      -1.008716     -1.892887     -2.299785
  H      -1.819735     -1.714337      0.034441
  H      -3.053502     -1.360952     -1.201112
  H      -4.306345     -0.217451      2.765107
  H      -4.449148     -1.721420      1.644420
  H      -4.730486      0.891925      0.360060
  H      -5.849563     -0.468523      0.088848
  H      -7.859661      2.222404      1.321299
  H      -6.392052      2.467682      0.308614
  H      -7.560219      1.172763     -0.099636
37
Coordinates from ORCA-job neb_TEGDME_anion_cpcm_20_MEP_ALL E -770.160661560319
  C       6.678918      1.635899      1.552363
  O       6.475852      0.679080      0.543931
  C       5.072499      0.324217      0.380015
  C       4.573049     -0.523029      1.486151
  O       2.666164     -1.759575     -0.624456
  C       2.300013     -0.699002     -1.346343
  C       1.038978     -0.915627     -2.173852
  O      -0.067865     -1.051141     -1.302388
  C      -1.256452     -1.365160     -1.954987
  C      -2.396594     -1.500514     -0.947506
  O      -2.871770     -0.351107     -0.213955
  C      -4.212395     -0.698091      0.823952
  C      -4.897639      0.598065      0.641495
  O      -6.001846      0.780905      1.551881
  C      -6.567707      2.061770      1.351602
  H       6.352870      1.272890      2.537477
  H       6.115839      2.571922      1.330040
  H       7.740376      1.865219      1.572747
  H       5.029032     -0.186861     -0.570712
  H       4.491620      1.266329      0.309387
  H       5.126617     -1.426260      1.732697
  H       3.710552     -0.262037      2.088388
  H       2.068523      0.230608     -0.746259
  H       3.050143     -0.344758     -2.115966
  H       0.847149     -0.058444     -2.876731
  H       1.150320     -1.834110     -2.788444
  H      -1.472823     -0.611142     -2.758125
  H      -1.154766     -2.344161     -2.485334
  H      -2.054030     -2.227044     -0.202459
  H      -3.244068     -1.918947     -1.523518
  H      -3.942342     -0.880023      1.911686
  H      -4.802123     -1.573705      0.498405
  H      -4.146788      1.375875      0.812368
  H      -5.272186      0.672705     -0.383384
  H      -7.391415      2.175652      2.042801
  H      -5.803538      2.842514      1.532082
  H      -6.932169      2.177085      0.314953
37
Coordinates from ORCA-job neb_TEGDME_anion_cpcm_20_MEP_ALL E -770.225463883462
  C       6.410095      2.102384      1.611114
  O       5.900642      1.349450      0.512512
  C       4.611295      0.786940      0.797367
  C       4.652127     -0.290295      1.817211
  O       2.443427     -2.190962     -0.608938
  C       2.053010     -1.128106     -1.369492
  C       0.824907     -1.370318     -2.252977
  O      -0.343222     -1.529677     -1.434495
  C      -1.497595     -1.833350     -2.200402
  C      -2.702090     -1.889794     -1.296254
  O      -3.001202     -0.574402     -0.829948
  C      -4.102735     -0.562254      0.068019
  C      -4.311591      0.874298      0.505459
  O      -5.416594      0.892133      1.400807
  C      -5.683334      2.206093      1.881714
  H       6.550569      1.473847      2.502439
  H       5.733172      2.931811      1.868230
  H       7.376588      2.508678      1.301963
  H       4.255054      0.393122     -0.168967
  H       3.909631      1.583917      1.097288
  H       5.486883     -0.984887      1.830019
  H       3.788242     -0.493020      2.440862
  H       1.803395     -0.204197     -0.776534
  H       2.832343     -0.772263     -2.101589
  H       0.668975     -0.518838     -2.943257
  H       0.974379     -2.282928     -2.858263
  H      -1.656680     -1.070971     -2.983655
  H      -1.386625     -2.810471     -2.702712
  H      -2.502151     -2.558310     -0.442434
  H      -3.558406     -2.297523     -1.858976
  H      -3.897525     -1.197681      0.945632
  H      -5.012629     -0.944184     -0.425141
  H      -3.402797      1.252891      1.002502
  H      -4.512185      1.512070     -0.371819
  H      -6.536796      2.136130      2.560524
  H      -4.818114      2.612097      2.427075
  H      -5.932463      2.888569      1.055116
37
Coordinates from ORCA-job neb_TEGDME_anion_cpcm_20_MEP_ALL E -770.223079036467
  C       6.863869      0.654136      1.263538
  O       6.662026     -0.623983      0.659562
  C       5.587201     -0.637707     -0.280705
  C       4.235818     -0.807215      0.415132
  O       3.167338     -0.958536     -0.517282
  C       2.778154      0.261177     -1.157854
  C       1.432222      0.063097     -1.808238
  O       0.432415     -0.050773     -0.809105
  C      -0.862341     -0.326802     -1.364213
  C      -1.919411     -0.308383     -0.256293
  O      -2.156150      0.913848      0.302303
  C      -5.089694     -0.377654      2.365553
  C      -5.825433     -0.205976      1.096445
  O      -6.836340      0.790396      1.257979
  C      -7.508697      1.055253      0.031169
  H       6.001554      0.970566      1.865813
  H       7.064597      1.420476      0.500185
  H       7.735168      0.562039      1.916980
  H       5.757711     -1.496133     -0.941458
  H       5.607120      0.278202     -0.891456
  H       4.257039     -1.726603      1.011568
  H       4.031729      0.038341      1.090333
  H       2.720739      1.074337     -0.416149
  H       3.505008      0.550771     -1.932257
  H       1.227549      0.925337     -2.467130
  H       1.456371     -0.841785     -2.441478
  H      -1.104957      0.439663     -2.122549
  H      -0.838234     -1.313605     -1.865946
  H      -1.583917     -1.092789      0.477297
  H      -2.820561     -0.772873     -0.749649
  H      -5.052387      0.434418      3.083283
  H      -4.434248     -1.231948      2.491146
  H      -5.135838      0.101458      0.281544
  H      -6.278994     -1.160034      0.767808
  H      -8.259750      1.823372      0.231758
  H      -6.808353      1.423208     -0.734282
  H      -8.008323      0.152706     -0.353354
37
Coordinates from ORCA-job neb_TEGDME_anion_cpcm_20_MEP_ALL E -770.171614290140
  C       6.764820      1.182851      1.504103
  O       6.634817      0.001363      0.706015
  C       5.357405     -0.115768      0.012695
  C       4.194689     -0.767245      0.771044
  O       3.125767     -1.233554     -0.296112
  C       2.555686     -0.193657     -1.232136
  C       1.242869     -0.519861     -2.004674
  O       0.168906     -0.634293     -1.144788
  C      -1.073415     -0.921084     -1.756903
  C      -2.132533     -0.892443     -0.679191
  O      -2.332903      0.295211     -0.123586
  C      -4.596778     -0.669006      1.817744
  C      -5.363569      0.145976      0.865952
  O      -6.412600      0.854441      1.598040
  C      -7.096370      1.720321      0.737990
  H       6.104681      1.141578      2.370121
  H       6.535447      2.092220      0.916426
  H       7.803506      1.237378      1.831161
  H       5.542627     -0.781856     -0.809762
  H       5.063420      0.870323     -0.321338
  H       4.596523     -1.659984      1.345082
  H       3.738111     -0.109831      1.551458
  H       2.304738      0.666434     -0.630389
  H       3.260007      0.071600     -2.025184
  H       1.057839      0.366809     -2.706821
  H       1.305095     -1.391266     -2.693791
  H      -1.307790     -0.131796     -2.528133
  H      -1.007773     -1.892960     -2.296991
  H      -1.820428     -1.712454      0.034679
  H      -3.058376     -1.357900     -1.196146
  H      -4.303896     -0.215691      2.766550
  H      -4.441692     -1.724099      1.650745
  H      -4.734310      0.888066      0.358256
  H      -5.847977     -0.473526      0.090055
  H      -7.864495      2.226990      1.316027
  H      -6.399159      2.467398      0.302038
  H      -7.562889      1.169315     -0.100236
37
Coordinates from ORCA-job neb_TEGDME_anion_cpcm_20_MEP_ALL E -770.174202230190
  C       6.678505      1.634772      1.550475
  O       6.479645      0.676158      0.543712
  C       5.074690      0.323163      0.377687
  C       4.576161     -0.520091      1.484844
  O       2.672320     -1.754524     -0.621831
  C       2.305979     -0.696824     -1.342337
  C       1.040458     -0.913680     -2.170921
  O      -0.067185     -1.046252     -1.299319
  C      -1.261065     -1.353393     -1.944271
  C      -2.409325     -1.505128     -0.930834
  O      -2.924686     -0.376763     -0.164667
  C      -4.172901     -0.691396      0.800518
  C      -4.900514      0.597694      0.637291
  O      -6.003176      0.780894      1.550112
  C      -6.572051      2.059516      1.342202
  H       6.351929      1.276898      2.534941
  H       6.120560      2.567955      1.323666
  H       7.742304      1.863093      1.576732
  H       5.029971     -0.193995     -0.573779
  H       4.495327      1.259610      0.299030
  H       5.119738     -1.427719      1.731372
  H       3.709981     -0.257045      2.082007
  H       2.074524      0.233520     -0.747162
  H       3.056943     -0.341738     -2.111657
  H       0.849625     -0.057914     -2.875641
  H       1.151701     -1.832363     -2.786056
  H      -1.473651     -0.609184     -2.752411
  H      -1.158928     -2.335354     -2.474362
  H      -2.051361     -2.235082     -0.199940
  H      -3.247159     -1.923527     -1.517748
  H      -3.926937     -0.864806      1.894139
  H      -4.775945     -1.565187      0.499453
  H      -4.157635      1.377746      0.804817
  H      -5.275777      0.662736     -0.381102
  H      -7.399198      2.180173      2.034762
  H      -5.813814      2.842049      1.516798
  H      -6.939055      2.165987      0.309481
37
Coordinates from ORCA-job neb_TEGDME_anion_cpcm_20_MEP_ALL E -770.225463883462
  C       6.409785      2.104976      1.608969
  O       5.900486      1.350599      0.511284
  C       4.611163      0.788343      0.796748
  C       4.652001     -0.287591      1.817969
  O       2.443662     -2.191535     -0.605944
  C       2.053218     -1.129680     -1.367886
  C       0.825209     -1.373120     -2.251166
  O      -0.342975     -1.531535     -1.432576
  C      -1.497259     -1.836281     -2.198193
  C      -2.701824     -1.891674     -1.294072
  O      -3.001085     -0.575711     -0.829466
  C      -4.102693     -0.562511      0.068395
  C      -4.311707      0.874581      0.503987
  O      -5.416785      0.893465      1.399222
  C      -5.683676      2.208016      1.878433
  H       6.550238      1.477585      2.501108
  H       5.732771      2.934675      1.864973
  H       7.376269      2.510957      1.299381
  H       4.255035      0.393263     -0.169114
  H       3.909407      1.585644      1.095596
  H       5.486814     -0.982097      1.831731
  H       3.788081     -0.489594      2.441808
  H       1.803477     -0.205035     -0.776125
  H       2.832582     -0.774704     -2.100372
  H       0.669263     -0.522532     -2.942543
  H       0.974808     -2.286490     -2.855276
  H      -1.656342     -1.074912     -2.982432
  H      -1.386165     -2.814033     -2.699250
  H      -2.501900     -2.559086     -0.439383
  H      -3.558058     -2.300192     -1.856346
  H      -3.897503     -1.196804      0.946835
  H      -5.012514     -0.945147     -0.424355
  H      -3.402986      1.253885      1.000624
  H      -4.512281      1.511220     -0.374121
  H      -6.537188      2.138846      2.557262
  H      -4.818535      2.614788      2.423349
  H      -5.932793      2.889419      1.050945
37
Coordinates from ORCA-job neb_TEGDME_anion_cpcm_20_MEP_ALL E -770.223079036467
  C       6.863869      0.654136      1.263538
  O       6.662026     -0.623983      0.659562
  C       5.587201     -0.637707     -0.280705
  C       4.235818     -0.807215      0.415132
  O       3.167338     -0.958536     -0.517282
  C       2.778154      0.261177     -1.157854
  C       1.432222      0.063097     -1.808238
  O       0.432415     -0.050773     -0.809105
  C      -0.862341     -0.326802     -1.364213
  C      -1.919411     -0.308383     -0.256293
  O      -2.156150      0.913848      0.302303
  C      -5.089694     -0.377654      2.365553
  C      -5.825433     -0.205976      1.096445
  O      -6.836340      0.790396      1.257979
  C      -7.508697      1.055253      0.031169
  H       6.001554      0.970566      1.865813
  H       7.064597      1.420476      0.500185
  H       7.735168      0.562039      1.916980
  H       5.757711     -1.496133     -0.941458
  H       5.607120      0.278202     -0.891456
  H       4.257039     -1.726603      1.011568
  H       4.031729      0.038341      1.090333
  H       2.720739      1.074337     -0.416149
  H       3.505008      0.550771     -1.932257
  H       1.227549      0.925337     -2.467130
  H       1.456371     -0.841785     -2.441478
  H      -1.104957      0.439663     -2.122549
  H      -0.838234     -1.313605     -1.865946
  H      -1.583917     -1.092789      0.477297
  H      -2.820561     -0.772873     -0.749649
  H      -5.052387      0.434418      3.083283
  H      -4.434248     -1.231948      2.491146
  H      -5.135838      0.101458      0.281544
  H      -6.278994     -1.160034      0.767808
  H      -8.259750      1.823372      0.231758
  H      -6.808353      1.423208     -0.734282
  H      -8.008323      0.152706     -0.353354
37
Coordinates from ORCA-job neb_TEGDME_anion_cpcm_20_MEP_ALL E -770.181682060376
  C       6.757907      1.186012      1.491711
  O       6.613379     -0.004269      0.702273
  C       5.365596     -0.114754      0.036278
  C       4.173802     -0.772464      0.763126
  O       3.144560     -1.216190     -0.279272
  C       2.554659     -0.210527     -1.218555
  C       1.263817     -0.513582     -2.027155
  O       0.170413     -0.639900     -1.112248
  C      -1.073920     -0.913012     -1.789608
  C      -2.152693     -0.933737     -0.690408
  O      -2.338528      0.324034     -0.109351
  C      -4.598985     -0.664604      1.827167
  C      -5.382041      0.147214      0.871001
  O      -6.396228      0.838645      1.603463
  C      -7.093884      1.731569      0.717772
  H       6.101202      1.146196      2.377601
  H       6.535082      2.088126      0.917861
  H       7.805392      1.237749      1.831958
  H       5.549678     -0.787124     -0.830658
  H       5.059722      0.883409     -0.333537
  H       4.572294     -1.645922      1.314961
  H       3.735844     -0.114643      1.528844
  H       2.308186      0.684566     -0.622451
  H       3.272102      0.070294     -2.019600
  H       1.073542      0.346997     -2.688477
  H       1.313203     -1.394396     -2.682855
  H      -1.302860     -0.144659     -2.517433
  H      -1.010369     -1.892786     -2.290288
  H      -1.821653     -1.712162      0.036861
  H      -3.047485     -1.352895     -1.189468
  H      -4.301744     -0.219090      2.760127
  H      -4.437643     -1.726010      1.650445
  H      -4.728694      0.890163      0.357067
  H      -5.843769     -0.472309      0.090335
  H      -7.869705      2.231541      1.317245
  H      -6.406395      2.465973      0.303587
  H      -7.563784      1.172547     -0.098322
37
Coordinates from ORCA-job neb_TEGDME_anion_cpcm_20_MEP_ALL E -770.186028937537
  C       6.673206      1.638206      1.550526
  O       6.481280      0.640263      0.533220
  C       5.090089      0.324250      0.378834
  C       4.564911     -0.527874      1.465193
  O       2.700428     -1.761111     -0.590213
  C       2.305207     -0.657147     -1.354562
  C       1.048949     -0.893855     -2.187417
  O      -0.054002     -1.027956     -1.267860
  C      -1.274380     -1.322261     -1.946489
  C      -2.422107     -1.508557     -0.911279
  O      -2.933713     -0.366749     -0.132573
  C      -4.148121     -0.699511      0.830688
  C      -4.932747      0.596824      0.650106
  O      -6.001066      0.763439      1.547287
  C      -6.584377      2.056610      1.309763
  H       6.343148      1.275531      2.530832
  H       6.139039      2.549001      1.307205
  H       7.749585      1.844703      1.585279
  H       5.048187     -0.222372     -0.592072
  H       4.514852      1.242435      0.271936
  H       5.099198     -1.433616      1.719357
  H       3.711234     -0.247158      2.060717
  H       2.086205      0.249756     -0.741709
  H       3.065929     -0.329951     -2.106062
  H       0.861366     -0.055808     -2.860906
  H       1.156242     -1.818143     -2.776942
  H      -1.470550     -0.599484     -2.732146
  H      -1.162955     -2.316157     -2.454102
  H      -2.045142     -2.228572     -0.187401
  H      -3.236720     -1.910282     -1.497156
  H      -3.923045     -0.831894      1.891904
  H      -4.748447     -1.566653      0.528850
  H      -4.176819      1.374089      0.784853
  H      -5.299352      0.625062     -0.377558
  H      -7.421201      2.184277      2.009897
  H      -5.840339      2.831333      1.468734
  H      -6.963970      2.129333      0.291268
37
Coordinates from ORCA-job neb_TEGDME_anion_cpcm_20_MEP_ALL E -770.225463883462
  C       6.409655      2.107576      1.606077
  O       5.900385      1.351767      0.509364
  C       4.611122      0.789758      0.795585
  C       4.652092     -0.284880      1.818164
  O       2.443835     -2.192083     -0.603261
  C       2.053269     -1.131226     -1.366531
  C       0.825250     -1.375892     -2.249458
  O      -0.342890     -1.533375     -1.430626
  C      -1.497175     -1.839191     -2.195816
  C      -2.701703     -1.893548     -1.291583
  O      -3.001064     -0.577025     -0.828630
  C      -4.102641     -0.562788      0.069253
  C      -4.311766      0.874836      0.503036
  O      -5.416814      0.894753      1.398287
  C      -5.683804      2.209885      1.875845
  H       6.550196      1.481326      2.499003
  H       5.732578      2.937538      1.861055
  H       7.376093      2.513252      1.295941
  H       4.254994      0.393426     -0.169764
  H       3.909306      1.587375      1.093451
  H       5.486967     -0.979294      1.832774
  H       3.788212     -0.486171      2.442288
  H       1.803467     -0.205856     -0.775930
  H       2.832575     -0.777107     -2.099493
  H       0.669204     -0.526192     -2.941904
  H       0.974908     -2.290011     -2.852419
  H      -1.656354     -1.078828     -2.981011
  H      -1.386012     -2.817566     -2.695641
  H      -2.501689     -2.559861     -0.436058
  H      -3.557921     -2.302852     -1.853309
  H      -3.897363     -1.195952      0.948487
  H      -5.012445     -0.946127     -0.422980
  H      -3.403061      1.254847      0.999161
  H      -4.512428      1.510346     -0.375869
  H      -6.537286      2.141498      2.554791
  H      -4.818680      2.617422      2.420215
  H      -5.933011      2.890219      1.047505
37
Coordinates from ORCA-job neb_TEGDME_anion_cpcm_20_MEP_ALL E -770.223079036467
  C       6.863869      0.654136      1.263538
  O       6.662026     -0.623983      0.659562
  C       5.587201     -0.637707     -0.280705
  C       4.235818     -0.807215      0.415132
  O       3.167338     -0.958536     -0.517282
  C       2.778154      0.261177     -1.157854
  C       1.432222      0.063097     -1.808238
  O       0.432415     -0.050773     -0.809105
  C      -0.862341     -0.326802     -1.364213
  C      -1.919411     -0.308383     -0.256293
  O      -2.156150      0.913848      0.302303
  C      -5.089694     -0.377654      2.365553
  C      -5.825433     -0.205976      1.096445
  O      -6.836340      0.790396      1.257979
  C      -7.508697      1.055253      0.031169
  H       6.001554      0.970566      1.865813
  H       7.064597      1.420476      0.500185
  H       7.735168      0.562039      1.916980
  H       5.757711     -1.496133     -0.941458
  H       5.607120      0.278202     -0.891456
  H       4.257039     -1.726603      1.011568
  H       4.031729      0.038341      1.090333
  H       2.720739      1.074337     -0.416149
  H       3.505008      0.550771     -1.932257
  H       1.227549      0.925337     -2.467130
  H       1.456371     -0.841785     -2.441478
  H      -1.104957      0.439663     -2.122549
  H      -0.838234     -1.313605     -1.865946
  H      -1.583917     -1.092789      0.477297
  H      -2.820561     -0.772873     -0.749649
  H      -5.052387      0.434418      3.083283
  H      -4.434248     -1.231948      2.491146
  H      -5.135838      0.101458      0.281544
  H      -6.278994     -1.160034      0.767808
  H      -8.259750      1.823372      0.231758
  H      -6.808353      1.423208     -0.734282
  H      -8.008323      0.152706     -0.353354
37
Coordinates from ORCA-job neb_TEGDME_anion_cpcm_20_MEP_ALL E -770.187415135630
  C       6.757999      1.180755      1.496351
  O       6.611968     -0.005913      0.707877
  C       5.361306     -0.116860      0.022623
  C       4.168017     -0.768271      0.750767
  O       3.149051     -1.212494     -0.274192
  C       2.562909     -0.200922     -1.214520
  C       1.265946     -0.521093     -2.009909
  O       0.174239     -0.640805     -1.117506
  C      -1.072745     -0.919019     -1.774517
  C      -2.147823     -0.918824     -0.688723
  O      -2.337935      0.316542     -0.112939
  C      -4.603808     -0.668939      1.825968
  C      -5.378495      0.147146      0.872835
  O      -6.402724      0.844050      1.600122
  C      -7.098573      1.727844      0.723969
  H       6.101311      1.148326      2.376059
  H       6.534830      2.088258      0.913565
  H       7.802122      1.235160      1.830807
  H       5.551782     -0.783934     -0.829876
  H       5.062095      0.880475     -0.337178
  H       4.561168     -1.647422      1.304589
  H       3.731663     -0.113081      1.521567
  H       2.311553      0.686662     -0.623095
  H       3.275451      0.069382     -2.011867
  H       1.079943      0.348415     -2.686246
  H       1.317686     -1.396929     -2.680251
  H      -1.302160     -0.138871     -2.521444
  H      -1.009177     -1.893255     -2.290667
  H      -1.821391     -1.711835      0.038278
  H      -3.051384     -1.352667     -1.188605
  H      -4.300409     -0.215554      2.765626
  H      -4.434966     -1.723859      1.654915
  H      -4.731286      0.885524      0.357315
  H      -5.845463     -0.477199      0.090538
  H      -7.869476      2.231466      1.312061
  H      -6.406415      2.468461      0.297257
  H      -7.566810      1.169280     -0.101556
37
Coordinates from ORCA-job neb_TEGDME_anion_cpcm_20_MEP_ALL E -770.187589406715
  C       6.679473      1.632022      1.547861
  O       6.484934      0.646261      0.535777
  C       5.090397      0.316189      0.371184
  C       4.566928     -0.525585      1.467856
  O       2.697916     -1.753459     -0.595935
  C       2.308458     -0.667629     -1.349897
  C       1.049296     -0.897499     -2.178455
  O      -0.057766     -1.026437     -1.270301
  C      -1.275408     -1.326101     -1.930865
  C      -2.422126     -1.508017     -0.906169
  O      -2.946393     -0.379289     -0.119626
  C      -4.139856     -0.689203      0.812250
  C      -4.925108      0.592002      0.645692
  O      -6.003805      0.764310      1.549786
  C      -6.588837      2.051104      1.314003
  H       6.342462      1.277170      2.531433
  H       6.135820      2.555178      1.303943
  H       7.748516      1.846133      1.584946
  H       5.047398     -0.220186     -0.587444
  H       4.511923      1.246170      0.269937
  H       5.099151     -1.434340      1.720299
  H       3.708923     -0.244872      2.061240
  H       2.087135      0.250599     -0.741516
  H       3.067844     -0.330399     -2.105380
  H       0.860371     -0.053989     -2.863994
  H       1.155912     -1.820228     -2.776282
  H      -1.474103     -0.594608     -2.733511
  H      -1.167395     -2.312676     -2.448456
  H      -2.045823     -2.235417     -0.185077
  H      -3.243143     -1.917068     -1.496525
  H      -3.910263     -0.830234      1.889521
  H      -4.741519     -1.567501      0.523094
  H      -4.177289      1.381511      0.783205
  H      -5.300574      0.626331     -0.382987
  H      -7.419431      2.184581      2.007476
  H      -5.838324      2.836494      1.467358
  H      -6.965691      2.128682      0.285559
37
Coordinates from ORCA-job neb_TEGDME_anion_cpcm_20_MEP_ALL E -770.225463883462
  C       6.409534      2.109158      1.604485
  O       5.900321      1.352409      0.508394
  C       4.611070      0.790594      0.795051
  C       4.652050     -0.283182      1.818534
  O       2.443931     -2.192500     -0.601348
  C       2.053349     -1.132300     -1.365521
  C       0.825363     -1.377753     -2.248276
  O      -0.342794     -1.534590     -1.429346
  C      -1.497046     -1.841091     -2.194311
  C      -2.701598     -1.894731     -1.290067
  O      -3.001020     -0.577830     -0.828229
  C      -4.102623     -0.562878      0.069610
  C      -4.311812      0.875102      0.502178
  O      -5.416886      0.895732      1.397380
  C      -5.683937      2.211255      1.873825
  H       6.550072      1.483664      2.497942
  H       5.732419      2.939309      1.858747
  H       7.375965      2.514608      1.294036
  H       4.254984      0.393438     -0.169975
  H       3.909217      1.588435      1.092226
  H       5.486951     -0.977554      1.833752
  H       3.788160     -0.483980      2.442803
  H       1.803497     -0.206443     -0.775706
  H       2.832663     -0.778770     -2.098759
  H       0.669306     -0.528641     -2.941442
  H       0.975072     -2.292373     -2.850464
  H      -1.656230     -1.081394     -2.980149
  H      -1.385833     -2.819882     -2.693309
  H      -2.501584     -2.560317     -0.433976
  H      -3.557785     -2.304538     -1.851472
  H      -3.897346     -1.195295      0.949382
  H      -5.012399     -0.946664     -0.422326
  H      -3.403135      1.255563      0.998009
  H      -4.512472      1.509866     -0.377266
  H      -6.537435      2.143408      2.552805
  H      -4.818843      2.619282      2.417877
  H      -5.933146      2.890884      1.044906
37
Coordinates from ORCA-job neb_TEGDME_anion_cpcm_20_MEP_ALL E -770.223079036467
  C       6.863869      0.654136      1.263538
  O       6.662026     -0.623983      0.659562
  C       5.587201     -0.637707     -0.280705
  C       4.235818     -0.807215      0.415132
  O       3.167338     -0.958536     -0.517282
  C       2.778154      0.261177     -1.157854
  C       1.432222      0.063097     -1.808238
  O       0.432415     -0.050773     -0.809105
  C      -0.862341     -0.326802     -1.364213
  C      -1.919411     -0.308383     -0.256293
  O      -2.156150      0.913848      0.302303
  C      -5.089694     -0.377654      2.365553
  C      -5.825433     -0.205976      1.096445
  O      -6.836340      0.790396      1.257979
  C      -7.508697      1.055253      0.031169
  H       6.001554      0.970566      1.865813
  H       7.064597      1.420476      0.500185
  H       7.735168      0.562039      1.916980
  H       5.757711     -1.496133     -0.941458
  H       5.607120      0.278202     -0.891456
  H       4.257039     -1.726603      1.011568
  H       4.031729      0.038341      1.090333
  H       2.720739      1.074337     -0.416149
  H       3.505008      0.550771     -1.932257
  H       1.227549      0.925337     -2.467130
  H       1.456371     -0.841785     -2.441478
  H      -1.104957      0.439663     -2.122549
  H      -0.838234     -1.313605     -1.865946
  H      -1.583917     -1.092789      0.477297
  H      -2.820561     -0.772873     -0.749649
  H      -5.052387      0.434418      3.083283
  H      -4.434248     -1.231948      2.491146
  H      -5.135838      0.101458      0.281544
  H      -6.278994     -1.160034      0.767808
  H      -8.259750      1.823372      0.231758
  H      -6.808353      1.423208     -0.734282
  H      -8.008323      0.152706     -0.353354
37
Coordinates from ORCA-job neb_TEGDME_anion_cpcm_20_MEP_ALL E -770.193011660377
  C       6.753333      1.175086      1.498776
  O       6.600745     -0.013386      0.717839
  C       5.354844     -0.117392      0.003614
  C       4.153128     -0.760713      0.722164
  O       3.159138     -1.199471     -0.263603
  C       2.577798     -0.189046     -1.199878
  C       1.276884     -0.531786     -1.984151
  O       0.182351     -0.646023     -1.115371
  C      -1.069184     -0.921244     -1.760908
  C      -2.144645     -0.903024     -0.683893
  O      -2.338527      0.309274     -0.117031
  C      -4.613157     -0.670996      1.833703
  C      -5.379697      0.144426      0.874422
  O      -6.411616      0.850601      1.595895
  C      -7.102980      1.724069      0.724094
  H       6.099758      1.154481      2.376402
  H       6.534744      2.083852      0.906949
  H       7.796474      1.228924      1.828780
  H       5.559032     -0.779450     -0.836796
  H       5.066548      0.877785     -0.349586
  H       4.529231     -1.646903      1.272480
  H       3.720804     -0.108986      1.499431
  H       2.320635      0.698185     -0.620905
  H       3.288513      0.067704     -1.994020
  H       1.100439      0.342039     -2.672787
  H       1.331549     -1.403504     -2.669045
  H      -1.296906     -0.135936     -2.521618
  H      -1.007455     -1.895094     -2.288816
  H      -1.822418     -1.709467      0.040562
  H      -3.055345     -1.350032     -1.184748
  H      -4.298174     -0.211749      2.770447
  H      -4.427574     -1.722620      1.663089
  H      -4.734239      0.876565      0.357895
  H      -5.846597     -0.485215      0.092986
  H      -7.872816      2.233802      1.303446
  H      -6.411649      2.470578      0.286127
  H      -7.572971      1.164670     -0.105943
37
Coordinates from ORCA-job neb_TEGDME_anion_cpcm_20_MEP_ALL E -770.193854984369
  C       6.683188      1.626005      1.542490
  O       6.493379      0.646860      0.536124
  C       5.092883      0.308771      0.361280
  C       4.568750     -0.522960      1.468484
  O       2.700530     -1.740009     -0.599537
  C       2.315820     -0.675757     -1.341189
  C       1.049360     -0.898108     -2.167358
  O      -0.061646     -1.018031     -1.264125
  C      -1.281736     -1.316654     -1.906100
  C      -2.430782     -1.512900     -0.887398
  O      -2.971050     -0.402142     -0.087067
  C      -4.115845     -0.678884      0.789339
  C      -4.920812      0.589560      0.635713
  O      -6.006295      0.759461      1.553067
  C      -6.595267      2.041848      1.307402
  H       6.339296      1.280355      2.530717
  H       6.137185      2.558323      1.294132
  H       7.751313      1.844346      1.586702
  H       5.051154     -0.225988     -0.586851
  H       4.513288      1.244949      0.258141
  H       5.093016     -1.437933      1.719275
  H       3.704512     -0.237184      2.056002
  H       2.092971      0.255244     -0.740787
  H       3.073966     -0.328546     -2.102214
  H       0.862354     -0.051935     -2.864308
  H       1.155858     -1.820646     -2.771480
  H      -1.481128     -0.585885     -2.723927
  H      -1.179531     -2.300334     -2.429256
  H      -2.046866     -2.249367     -0.176763
  H      -3.252213     -1.927801     -1.487344
  H      -3.880376     -0.817011      1.876035
  H      -4.716344     -1.567178      0.517370
  H      -4.185725      1.396290      0.773436
  H      -5.308639      0.619666     -0.391707
  H      -7.424517      2.185800      1.998584
  H      -5.844894      2.841279      1.451118
  H      -6.975157      2.116498      0.272001
37
Coordinates from ORCA-job neb_TEGDME_anion_cpcm_20_MEP_ALL E -770.225463883462
  C       6.409201      2.113288      1.600386
  O       5.900143      1.354132      0.505886
  C       4.610933      0.792794      0.793663
  C       4.651959     -0.278780      1.819453
  O       2.444206     -2.193530     -0.596478
  C       2.053561     -1.135012     -1.362952
  C       0.825661     -1.382491     -2.245263
  O      -0.342534     -1.537695     -1.426074
  C      -1.496702     -1.845962     -2.190459
  C      -2.701309     -1.897789     -1.286180
  O      -3.000902     -0.579930     -0.827189
  C      -4.102567     -0.563168      0.070544
  C      -4.311939      0.875719      0.500011
  O      -5.417075      0.898152      1.395095
  C      -5.684299      2.214669      1.868698
  H       6.549746      1.489728      2.495195
  H       5.731980      2.943913      1.852820
  H       7.375610      2.518175      1.289131
  H       4.254954      0.393528     -0.170534
  H       3.908974      1.591198      1.089078
  H       5.486932     -0.973030      1.836217
  H       3.788049     -0.478330      2.444096
  H       1.803571     -0.207915     -0.775142
  H       2.832887     -0.782972     -2.096897
  H       0.669560     -0.534884     -2.940262
  H       0.975508     -2.298388     -2.845478
  H      -1.655915     -1.087969     -2.977939
  H      -1.385351     -2.825812     -2.687349
  H      -2.501281     -2.561516     -0.428647
  H      -3.557415     -2.308894     -1.846763
  H      -3.897282     -1.193674      0.951687
  H      -5.012270     -0.948107     -0.420629
  H      -3.403336      1.257341      0.995086
  H      -4.512609      1.508573     -0.380809
  H      -6.537836      2.148189      2.547766
  H      -4.819285      2.623956      2.411931
  H      -5.933525      2.892492      1.038303
37
Coordinates from ORCA-job neb_TEGDME_anion_cpcm_20_MEP_ALL E -770.223079036467
  C       6.863869      0.654136      1.263538
  O       6.662026     -0.623983      0.659562
  C       5.587201     -0.637707     -0.280705
  C       4.235818     -0.807215      0.415132
  O       3.167338     -0.958536     -0.517282
  C       2.778154      0.261177     -1.157854
  C       1.432222      0.063097     -1.808238
  O       0.432415     -0.050773     -0.809105
  C      -0.862341     -0.326802     -1.364213
  C      -1.919411     -0.308383     -0.256293
  O      -2.156150      0.913848      0.302303
  C      -5.089694     -0.377654      2.365553
  C      -5.825433     -0.205976      1.096445
  O      -6.836340      0.790396      1.257979
  C      -7.508697      1.055253      0.031169
  H       6.001554      0.970566      1.865813
  H       7.064597      1.420476      0.500185
  H       7.735168      0.562039      1.916980
  H       5.757711     -1.496133     -0.941458
  H       5.607120      0.278202     -0.891456
  H       4.257039     -1.726603      1.011568
  H       4.031729      0.038341      1.090333
  H       2.720739      1.074337     -0.416149
  H       3.505008      0.550771     -1.932257
  H       1.227549      0.925337     -2.467130
  H       1.456371     -0.841785     -2.441478
  H      -1.104957      0.439663     -2.122549
  H      -0.838234     -1.313605     -1.865946
  H      -1.583917     -1.092789      0.477297
  H      -2.820561     -0.772873     -0.749649
  H      -5.052387      0.434418      3.083283
  H      -4.434248     -1.231948      2.491146
  H      -5.135838      0.101458      0.281544
  H      -6.278994     -1.160034      0.767808
  H      -8.259750      1.823372      0.231758
  H      -6.808353      1.423208     -0.734282
  H      -8.008323      0.152706     -0.353354
37
Coordinates from ORCA-job neb_TEGDME_anion_cpcm_20_MEP_ALL E -770.198136385342
  C       6.745590      1.171621      1.498234
  O       6.582735     -0.023546      0.728371
  C       5.349426     -0.115315     -0.011396
  C       4.144757     -0.748530      0.698129
  O       3.153961     -1.187067     -0.268326
  C       2.589389     -0.183655     -1.182029
  C       1.294838     -0.541354     -1.963144
  O       0.188689     -0.654822     -1.104100
  C      -1.061482     -0.922766     -1.755035
  C      -2.142404     -0.900273     -0.679719
  O      -2.342054      0.311859     -0.116714
  C      -4.623945     -0.673544      1.843046
  C      -5.383777      0.139075      0.877432
  O      -6.418113      0.854782      1.592124
  C      -7.108223      1.724488      0.716936
  H       6.096469      1.163099      2.379364
  H       6.533830      2.076166      0.900697
  H       7.789278      1.220676      1.825644
  H       5.568590     -0.775050     -0.850819
  H       5.071478      0.879046     -0.367429
  H       4.491496     -1.647170      1.233286
  H       3.706570     -0.100362      1.472186
  H       2.332987      0.715670     -0.614730
  H       3.307940      0.066597     -1.973043
  H       1.128061      0.330006     -2.652389
  H       1.352454     -1.411844     -2.649285
  H      -1.287605     -0.136322     -2.517906
  H      -1.006151     -1.895690     -2.283803
  H      -1.825065     -1.706184      0.042599
  H      -3.058270     -1.346673     -1.180819
  H      -4.294812     -0.208605      2.773924
  H      -4.418656     -1.719724      1.670766
  H      -4.735369      0.867145      0.359431
  H      -5.846911     -0.492217      0.096473
  H      -7.877070      2.236968      1.294642
  H      -6.419686      2.471264      0.276051
  H      -7.578948      1.162252     -0.108650
37
Coordinates from ORCA-job neb_TEGDME_anion_cpcm_20_MEP_ALL E -770.198916650601
  C       6.685334      1.628614      1.539772
  O       6.499187      0.647904      0.531537
  C       5.094981      0.308909      0.359499
  C       4.573029     -0.516502      1.473538
  O       2.704929     -1.738681     -0.598411
  C       2.319352     -0.674125     -1.337975
  C       1.045752     -0.899092     -2.159220
  O      -0.066424     -1.008411     -1.252830
  C      -1.293616     -1.304839     -1.882986
  C      -2.445700     -1.525451     -0.865235
  O      -2.976726     -0.428374     -0.070123
  C      -4.101386     -0.676897      0.775566
  C      -4.915859      0.594474      0.621997
  O      -6.001287      0.754341      1.550272
  C      -6.598616      2.035654      1.299945
  H       6.337566      1.285108      2.528228
  H       6.138972      2.560931      1.285706
  H       7.753632      1.845515      1.587555
  H       5.053371     -0.232753     -0.589648
  H       4.513401      1.242501      0.246918
  H       5.087968     -1.441485      1.720622
  H       3.700526     -0.229160      2.051291
  H       2.099675      0.256967     -0.741134
  H       3.078890     -0.329347     -2.098711
  H       0.864341     -0.054373     -2.862371
  H       1.152856     -1.822868     -2.763791
  H      -1.493363     -0.578659     -2.706005
  H      -1.197899     -2.286122     -2.403888
  H      -2.051646     -2.272001     -0.167065
  H      -3.263058     -1.944388     -1.474261
  H      -3.839685     -0.804770      1.848943
  H      -4.685837     -1.564867      0.501343
  H      -4.196199      1.417116      0.762027
  H      -5.314442      0.619952     -0.404163
  H      -7.427502      2.185161      1.992548
  H      -5.853149      2.844691      1.438053
  H      -6.981368      2.105329      0.262457
37
Coordinates from ORCA-job neb_TEGDME_anion_cpcm_20_MEP_ALL E -770.225463883462
  C       6.408713      2.118585      1.595355
  O       5.899884      1.356400      0.502845
  C       4.610730      0.795640      0.792003
  C       4.651815     -0.273167      1.820687
  O       2.444603     -2.194767     -0.590318
  C       2.053875     -1.138372     -1.359686
  C       0.826103     -1.388417     -2.241458
  O      -0.342153     -1.541593     -1.421970
  C      -1.496195     -1.852096     -2.185643
  C      -2.700886     -1.901672     -1.281347
  O      -3.000729     -0.582618     -0.825937
  C      -4.102488     -0.563607      0.071640
  C      -4.312124      0.876408      0.497209
  O      -5.417356      0.901084      1.392121
  C      -5.684830      2.218839      1.862150
  H       6.549262      1.497455      2.491860
  H       5.731339      2.949788      1.845482
  H       7.375092      2.522781      1.283108
  H       4.254911      0.393720     -0.171157
  H       3.908619      1.594734      1.085195
  H       5.486893     -0.967245      1.839407
  H       3.787871     -0.471167      2.445779
  H       1.803682     -0.209728     -0.774398
  H       2.833222     -0.788190     -2.094500
  H       0.669943     -0.542704     -2.938758
  H       0.976151     -2.305910     -2.839190
  H      -1.655443     -1.096248     -2.975184
  H      -1.384643     -2.833270     -2.679883
  H      -2.500845     -2.563059     -0.422003
  H      -3.556872     -2.314418     -1.840912
  H      -3.897197     -1.191708      0.954504
  H      -5.012081     -0.950009     -0.418591
  H      -3.403630      1.259504      0.991350
  H      -4.512800      1.506859     -0.385339
  H      -6.538426      2.154057      2.541310
  H      -4.819934      2.629723      2.404371
  H      -5.934074      2.894387      1.029901
37
Coordinates from ORCA-job neb_TEGDME_anion_cpcm_20_MEP_ALL E -770.223079036467
  C       6.863869      0.654136      1.263538
  O       6.662026     -0.623983      0.659562
  C       5.587201     -0.637707     -0.280705
  C       4.235818     -0.807215      0.415132
  O       3.167338     -0.958536     -0.517282
  C       2.778154      0.261177     -1.157854
  C       1.432222      0.063097     -1.808238
  O       0.432415     -0.050773     -0.809105
  C      -0.862341     -0.326802     -1.364213
  C      -1.919411     -0.308383     -0.256293
  O      -2.156150      0.913848      0.302303
  C      -5.089694     -0.377654      2.365553
  C      -5.825433     -0.205976      1.096445
  O      -6.836340      0.790396      1.257979
  C      -7.508697      1.055253      0.031169
  H       6.001554      0.970566      1.865813
  H       7.064597      1.420476      0.500185
  H       7.735168      0.562039      1.916980
  H       5.757711     -1.496133     -0.941458
  H       5.607120      0.278202     -0.891456
  H       4.257039     -1.726603      1.011568
  H       4.031729      0.038341      1.090333
  H       2.720739      1.074337     -0.416149
  H       3.505008      0.550771     -1.932257
  H       1.227549      0.925337     -2.467130
  H       1.456371     -0.841785     -2.441478
  H      -1.104957      0.439663     -2.122549
  H      -0.838234     -1.313605     -1.865946
  H      -1.583917     -1.092789      0.477297
  H      -2.820561     -0.772873     -0.749649
  H      -5.052387      0.434418      3.083283
  H      -4.434248     -1.231948      2.491146
  H      -5.135838      0.101458      0.281544
  H      -6.278994     -1.160034      0.767808
  H      -8.259750      1.823372      0.231758
  H      -6.808353      1.423208     -0.734282
  H      -8.008323      0.152706     -0.353354
37
Coordinates from ORCA-job neb_TEGDME_anion_cpcm_20_MEP_ALL E -770.203142535714
  C       6.733283      1.171681      1.497686
  O       6.558060     -0.029103      0.738593
  C       5.343982     -0.107762     -0.025078
  C       4.138769     -0.735270      0.679870
  O       3.134959     -1.182402     -0.283357
  C       2.595498     -0.180780     -1.168008
  C       1.311938     -0.551033     -1.943066
  O       0.197060     -0.670098     -1.089999
  C      -1.055230     -0.923137     -1.752594
  C      -2.146288     -0.903694     -0.678268
  O      -2.352604      0.306854     -0.115756
  C      -4.629785     -0.672450      1.849069
  C      -5.386492      0.137764      0.877269
  O      -6.420360      0.857105      1.587641
  C      -7.106741      1.729142      0.712778
  H       6.094118      1.174986      2.385570
  H       6.527720      2.070266      0.897534
  H       7.780092      1.214911      1.819023
  H       5.574233     -0.762905     -0.866712
  H       5.072514      0.887211     -0.384676
  H       4.456156     -1.648077      1.193654
  H       3.688741     -0.086806      1.446229
  H       2.347294      0.730818     -0.607580
  H       3.328813      0.063213     -1.948513
  H       1.159227      0.310951     -2.628551
  H       1.380189     -1.427354     -2.622245
  H      -1.275030     -0.143892     -2.511351
  H      -1.006025     -1.901195     -2.279232
  H      -1.830952     -1.708851      0.043852
  H      -3.060951     -1.347876     -1.179723
  H      -4.286955     -0.213927      2.764210
  H      -4.410018     -1.717524      1.665317
  H      -4.729834      0.860991      0.367199
  H      -5.841970     -0.488093      0.096041
  H      -7.878790      2.240782      1.293242
  H      -6.424254      2.475234      0.277812
  H      -7.580369      1.170320     -0.107880
37
Coordinates from ORCA-job neb_TEGDME_anion_cpcm_20_MEP_ALL E -770.202837603597
  C       6.683286      1.638810      1.536150
  O       6.502266      0.657493      0.524918
  C       5.095683      0.314102      0.359892
  C       4.583703     -0.507854      1.488975
  O       2.704966     -1.743262     -0.601804
  C       2.319161     -0.679229     -1.335794
  C       1.037197     -0.900511     -2.154255
  O      -0.075072     -0.999081     -1.237990
  C      -1.313323     -1.294187     -1.860869
  C      -2.461842     -1.551514     -0.846497
  O      -2.964842     -0.454544     -0.070483
  C      -4.089936     -0.672593      0.759056
  C      -4.907277      0.605657      0.603232
  O      -5.987801      0.750851      1.540844
  C      -6.593703      2.032944      1.295637
  H       6.338839      1.290829      2.525603
  H       6.139076      2.565767      1.282584
  H       7.757345      1.853653      1.586815
  H       5.050515     -0.233756     -0.587350
  H       4.508495      1.241820      0.241386
  H       5.086432     -1.441628      1.726404
  H       3.697187     -0.222767      2.050796
  H       2.105470      0.254685     -0.741959
  H       3.080899     -0.334151     -2.096867
  H       0.863163     -0.062268     -2.860126
  H       1.144522     -1.828465     -2.753787
  H      -1.514244     -0.573498     -2.679093
  H      -1.223187     -2.273547     -2.375536
  H      -2.062677     -2.307806     -0.158754
  H      -3.277458     -1.970940     -1.459360
  H      -3.786737     -0.799782      1.809343
  H      -4.657659     -1.565498      0.466534
  H      -4.203935      1.446111      0.750894
  H      -5.312938      0.634862     -0.422149
  H      -7.425568      2.180356      1.995523
  H      -5.859616      2.847846      1.436997
  H      -6.980392      2.101092      0.261089
37
Coordinates from ORCA-job neb_TEGDME_anion_cpcm_20_MEP_ALL E -770.225463883462
  C       6.408114      2.124419      1.590048
  O       5.899570      1.358946      0.499687
  C       4.610479      0.798793      0.790310
  C       4.651619     -0.267010      1.822129
  O       2.445080     -2.196065     -0.583580
  C       2.054265     -1.141980     -1.356093
  C       0.826657     -1.394824     -2.237308
  O      -0.341681     -1.545819     -1.417524
  C      -1.495564     -1.858764     -2.180453
  C      -2.700369     -1.905917     -1.276169
  O      -3.000512     -0.585578     -0.824649
  C      -4.102396     -0.564144      0.072730
  C      -4.312351      0.877087      0.494068
  O      -5.417707      0.904177      1.388764
  C      -5.685484      2.223266      1.854912
  H       6.548654      1.505929      2.488393
  H       5.730556      2.956237      1.837658
  H       7.374462      2.527882      1.276749
  H       4.254863      0.393993     -0.171731
  H       3.908184      1.598622      1.081075
  H       5.486820     -0.960887      1.842990
  H       3.787626     -0.463341      2.447687
  H       1.803824     -0.211665     -0.773546
  H       2.833647     -0.793801     -2.091830
  H       0.670438     -0.551170     -2.937104
  H       0.976953     -2.314043     -2.832344
  H      -1.654843     -1.105245     -2.972228
  H      -1.383768     -2.841368     -2.671815
  H      -2.500323     -2.564763     -0.414860
  H      -3.556204     -2.320456     -1.834648
  H      -3.897110     -1.189634      0.957463
  H      -5.011853     -0.952145     -0.416499
  H      -3.403992      1.261793      0.987217
  H      -4.513022      1.504929     -0.390355
  H      -6.539159      2.160313      2.534151
  H      -4.820736      2.635893      2.396054
  H      -5.934738      2.896343      1.020651
37
Coordinates from ORCA-job neb_TEGDME_anion_cpcm_20_MEP_ALL E -770.223079036467
  C       6.863869      0.654136      1.263538
  O       6.662026     -0.623983      0.659562
  C       5.587201     -0.637707     -0.280705
  C       4.235818     -0.807215      0.415132
  O       3.167338     -0.958536     -0.517282
  C       2.778154      0.261177     -1.157854
  C       1.432222      0.063097     -1.808238
  O       0.432415     -0.050773     -0.809105
  C      -0.862341     -0.326802     -1.364213
  C      -1.919411     -0.308383     -0.256293
  O      -2.156150      0.913848      0.302303
  C      -5.089694     -0.377654      2.365553
  C      -5.825433     -0.205976      1.096445
  O      -6.836340      0.790396      1.257979
  C      -7.508697      1.055253      0.031169
  H       6.001554      0.970566      1.865813
  H       7.064597      1.420476      0.500185
  H       7.735168      0.562039      1.916980
  H       5.757711     -1.496133     -0.941458
  H       5.607120      0.278202     -0.891456
  H       4.257039     -1.726603      1.011568
  H       4.031729      0.038341      1.090333
  H       2.720739      1.074337     -0.416149
  H       3.505008      0.550771     -1.932257
  H       1.227549      0.925337     -2.467130
  H       1.456371     -0.841785     -2.441478
  H      -1.104957      0.439663     -2.122549
  H      -0.838234     -1.313605     -1.865946
  H      -1.583917     -1.092789      0.477297
  H      -2.820561     -0.772873     -0.749649
  H      -5.052387      0.434418      3.083283
  H      -4.434248     -1.231948      2.491146
  H      -5.135838      0.101458      0.281544
  H      -6.278994     -1.160034      0.767808
  H      -8.259750      1.823372      0.231758
  H      -6.808353      1.423208     -0.734282
  H      -8.008323      0.152706     -0.353354
37
Coordinates from ORCA-job neb_TEGDME_anion_cpcm_20_MEP_ALL E -770.207321426664
  C       6.728340      1.181786      1.497182
  O       6.548700     -0.013815      0.733552
  C       5.340069     -0.093923     -0.010509
  C       4.137492     -0.738577      0.696145
  O       3.119018     -1.201088     -0.289814
  C       2.577126     -0.193278     -1.180720
  C       1.309706     -0.555659     -1.959078
  O       0.191176     -0.681696     -1.082272
  C      -1.058300     -0.936914     -1.760877
  C      -2.158112     -0.934854     -0.688261
  O      -2.371673      0.298701     -0.108439
  C      -4.619065     -0.681005      1.814364
  C      -5.377573      0.151294      0.877596
  O      -6.403940      0.848137      1.589426
  C      -7.097347      1.743250      0.726499
  H       6.096377      1.180334      2.394533
  H       6.513956      2.080445      0.906572
  H       7.776882      1.225733      1.810976
  H       5.562126     -0.747453     -0.870282
  H       5.059463      0.905200     -0.376462
  H       4.473949     -1.646659      1.204964
  H       3.686212     -0.082583      1.454958
  H       2.346271      0.721404     -0.605996
  H       3.326636      0.058082     -1.951127
  H       1.155365      0.299987     -2.631184
  H       1.388085     -1.439832     -2.610193
  H      -1.272776     -0.155107     -2.510896
  H      -1.011526     -1.906806     -2.278002
  H      -1.839153     -1.725377      0.039038
  H      -3.061708     -1.362814     -1.189206
  H      -4.268738     -0.227780      2.744131
  H      -4.414428     -1.711775      1.630001
  H      -4.710829      0.877563      0.379363
  H      -5.829716     -0.459715      0.079735
  H      -7.866986      2.239725      1.313570
  H      -6.408831      2.487603      0.310162
  H      -7.566248      1.197468     -0.099450
37
Coordinates from ORCA-job neb_TEGDME_anion_cpcm_20_MEP_ALL E -770.206643465176
  C       6.686645      1.645224      1.539783
  O       6.492921      0.658645      0.519957
  C       5.098909      0.318716      0.370750
  C       4.585575     -0.501552      1.489963
  O       2.707592     -1.759694     -0.595403
  C       2.311191     -0.667712     -1.346509
  C       1.032893     -0.898860     -2.157082
  O      -0.078397     -0.994794     -1.230348
  C      -1.320231     -1.301941     -1.862511
  C      -2.454167     -1.561401     -0.856762
  O      -2.923715     -0.432632     -0.105667
  C      -4.103935     -0.677772      0.768956
  C      -4.907252      0.613127      0.604346
  O      -5.977803      0.756151      1.527104
  C      -6.593918      2.034836      1.299553
  H       6.340915      1.290470      2.521249
  H       6.140142      2.565251      1.286476
  H       7.753560      1.855839      1.586940
  H       5.049182     -0.234726     -0.586808
  H       4.508507      1.238772      0.243833
  H       5.086127     -1.440491      1.728199
  H       3.702036     -0.226112      2.049155
  H       2.106776      0.252633     -0.740658
  H       3.076244     -0.336400     -2.098365
  H       0.860294     -0.064172     -2.856963
  H       1.135900     -1.826965     -2.747660
  H      -1.528656     -0.567786     -2.662652
  H      -1.228618     -2.273011     -2.374097
  H      -2.069923     -2.320901     -0.158849
  H      -3.278589     -1.977724     -1.452486
  H      -3.781623     -0.804605      1.807045
  H      -4.660134     -1.565864      0.456748
  H      -4.206199      1.446189      0.744532
  H      -5.306632      0.644213     -0.423121
  H      -7.418070      2.171844      1.997812
  H      -5.861582      2.842365      1.442652
  H      -6.975968      2.100838      0.270885
37
Coordinates from ORCA-job neb_TEGDME_anion_cpcm_20_MEP_ALL E -770.225463883462
  C       6.408173      2.123972      1.590410
  O       5.899590      1.358799      0.499857
  C       4.610508      0.798568      0.790370
  C       4.651681     -0.267518      1.821895
  O       2.445056     -2.195909     -0.584268
  C       2.054216     -1.141611     -1.356477
  C       0.826577     -1.394212     -2.237719
  O      -0.341733     -1.545429     -1.417936
  C      -1.495643     -1.858163     -2.180912
  C      -2.700416     -1.905562     -1.276599
  O      -3.000541     -0.585346     -0.824706
  C      -4.102394     -0.564157      0.072717
  C      -4.312332      0.876958      0.494458
  O      -5.417658      0.903805      1.389200
  C      -5.685416      2.222767      1.855719
  H       6.548743      1.505235      2.488580
  H       5.730624      2.955722      1.838271
  H       7.374510      2.527519      1.277188
  H       4.254857      0.394033     -0.171770
  H       3.908224      1.598319      1.081379
  H       5.486882     -0.961403      1.842537
  H       3.787710     -0.464020      2.447429
  H       1.803797     -0.211456     -0.773667
  H       2.833574     -0.793231     -2.092145
  H       0.670336     -0.550365     -2.937278
  H       0.976851     -2.313267     -2.833013
  H      -1.654948     -1.104426     -2.972475
  H      -1.383865     -2.840632     -2.672547
  H      -2.500342     -2.564645     -0.415477
  H      -3.556271     -2.319946     -1.835162
  H      -3.897079     -1.189890      0.957271
  H      -5.011869     -0.952022     -0.416587
  H      -3.403956      1.261528      0.987681
  H      -4.513032      1.505044     -0.389786
  H      -6.539068      2.159628      2.534970
  H      -4.820648      2.635243      2.396944
  H      -5.934697      2.896073      1.021651
37
Coordinates from ORCA-job neb_TEGDME_anion_cpcm_20_MEP_ALL E -770.223079036467
  C       6.863869      0.654136      1.263538
  O       6.662026     -0.623983      0.659562
  C       5.587201     -0.637707     -0.280705
  C       4.235818     -0.807215      0.415132
  O       3.167338     -0.958536     -0.517282
  C       2.778154      0.261177     -1.157854
  C       1.432222      0.063097     -1.808238
  O       0.432415     -0.050773     -0.809105
  C      -0.862341     -0.326802     -1.364213
  C      -1.919411     -0.308383     -0.256293
  O      -2.156150      0.913848      0.302303
  C      -5.089694     -0.377654      2.365553
  C      -5.825433     -0.205976      1.096445
  O      -6.836340      0.790396      1.257979
  C      -7.508697      1.055253      0.031169
  H       6.001554      0.970566      1.865813
  H       7.064597      1.420476      0.500185
  H       7.735168      0.562039      1.916980
  H       5.757711     -1.496133     -0.941458
  H       5.607120      0.278202     -0.891456
  H       4.257039     -1.726603      1.011568
  H       4.031729      0.038341      1.090333
  H       2.720739      1.074337     -0.416149
  H       3.505008      0.550771     -1.932257
  H       1.227549      0.925337     -2.467130
  H       1.456371     -0.841785     -2.441478
  H      -1.104957      0.439663     -2.122549
  H      -0.838234     -1.313605     -1.865946
  H      -1.583917     -1.092789      0.477297
  H      -2.820561     -0.772873     -0.749649
  H      -5.052387      0.434418      3.083283
  H      -4.434248     -1.231948      2.491146
  H      -5.135838      0.101458      0.281544
  H      -6.278994     -1.160034      0.767808
  H      -8.259750      1.823372      0.231758
  H      -6.808353      1.423208     -0.734282
  H      -8.008323      0.152706     -0.353354
37
Coordinates from ORCA-job neb_TEGDME_anion_cpcm_20_MEP_ALL E -770.206147170674
  C       6.726231      1.182656      1.498413
  O       6.547860     -0.012530      0.735079
  C       5.336666     -0.092262     -0.013797
  C       4.131950     -0.740484      0.692340
  O       3.119257     -1.202210     -0.286364
  C       2.577436     -0.192209     -1.181379
  C       1.308082     -0.557793     -1.955865
  O       0.192390     -0.684168     -1.083075
  C      -1.058425     -0.938272     -1.757581
  C      -2.158165     -0.933468     -0.687740
  O      -2.373932      0.293335     -0.109564
  C      -4.617153     -0.677359      1.816094
  C      -5.376396      0.152697      0.874127
  O      -6.404722      0.849030      1.591323
  C      -7.094717      1.743870      0.728996
  H       6.095958      1.182340      2.396003
  H       6.510999      2.082134      0.906235
  H       7.775800      1.226064      1.809125
  H       5.560557     -0.743362     -0.870775
  H       5.058484      0.907785     -0.376697
  H       4.475469     -1.647448      1.205991
  H       3.684285     -0.080381      1.453980
  H       2.347175      0.719396     -0.605973
  H       3.326368      0.057893     -1.950220
  H       1.154979      0.299655     -2.632933
  H       1.392575     -1.443998     -2.606118
  H      -1.270481     -0.156493     -2.510286
  H      -1.011329     -1.909691     -2.278178
  H      -1.840792     -1.728211      0.039003
  H      -3.062568     -1.365720     -1.191433
  H      -4.266201     -0.230476      2.739613
  H      -4.413289     -1.715973      1.623502
  H      -4.707578      0.879818      0.381336
  H      -5.828444     -0.456327      0.076851
  H      -7.866520      2.240607      1.316853
  H      -6.406326      2.490821      0.313370
  H      -7.565481      1.200733     -0.100255
37
Coordinates from ORCA-job neb_TEGDME_anion_cpcm_20_MEP_ALL E -770.208578130424
  C       6.686017      1.639638      1.537753
  O       6.493808      0.653641      0.523141
  C       5.101594      0.313340      0.364602
  C       4.582326     -0.504420      1.482099
  O       2.710972     -1.751741     -0.593931
  C       2.314199     -0.666247     -1.342611
  C       1.034253     -0.894733     -2.151926
  O      -0.077248     -0.990396     -1.227726
  C      -1.316868     -1.299807     -1.860006
  C      -2.447401     -1.555919     -0.855517
  O      -2.915264     -0.420266     -0.108738
  C      -4.104618     -0.672795      0.775987
  C      -4.911242      0.607041      0.604895
  O      -5.982614      0.759033      1.526177
  C      -6.598149      2.030633      1.292147
  H       6.338407      1.289678      2.518793
  H       6.144719      2.560671      1.282400
  H       7.754615      1.849819      1.589272
  H       5.054954     -0.240142     -0.587002
  H       4.514608      1.234753      0.236887
  H       5.077953     -1.440877      1.722650
  H       3.701922     -0.224152      2.042193
  H       2.110106      0.257764     -0.738525
  H       3.077977     -0.332743     -2.097351
  H       0.862171     -0.060119     -2.854192
  H       1.135878     -1.823268     -2.743570
  H      -1.531245     -0.561364     -2.654769
  H      -1.226802     -2.270642     -2.373387
  H      -2.069802     -2.317890     -0.156182
  H      -3.277012     -1.973606     -1.446969
  H      -3.784952     -0.798936      1.818451
  H      -4.657621     -1.568221      0.467421
  H      -4.211412      1.440916      0.737362
  H      -5.310546      0.633633     -0.418041
  H      -7.422623      2.169907      1.990916
  H      -5.868380      2.837820      1.429922
  H      -6.982680      2.089997      0.267378
37
Coordinates from ORCA-job neb_TEGDME_anion_cpcm_20_MEP_ALL E -770.225463883462
  C       6.408195      2.124063      1.590199
  O       5.899594      1.358840      0.499688
  C       4.610520      0.798618      0.790250
  C       4.651716     -0.267423      1.821820
  O       2.445053     -2.195927     -0.584217
  C       2.054195     -1.141663     -1.356465
  C       0.826541     -1.394306     -2.237674
  O      -0.341754     -1.545492     -1.417863
  C      -1.495677     -1.858263     -2.180803
  C      -2.700433     -1.905627     -1.276466
  O      -3.000555     -0.585392     -0.824625
  C      -4.102391     -0.564167      0.072817
  C      -4.312326      0.876965      0.494500
  O      -5.417635      0.903847      1.389261
  C      -5.685389      2.222828      1.855727
  H       6.548784      1.505365      2.488393
  H       5.730648      2.955822      1.838036
  H       7.374525      2.527599      1.276941
  H       4.254853      0.394040     -0.171866
  H       3.908238      1.598379      1.081237
  H       5.486920     -0.961304      1.842477
  H       3.787757     -0.463900      2.447379
  H       1.803784     -0.211484     -0.773691
  H       2.833538     -0.793313     -2.092163
  H       0.670283     -0.550491     -2.937267
  H       0.976806     -2.313387     -2.832931
  H      -1.654999     -1.104562     -2.972396
  H      -1.383905     -2.840754     -2.672398
  H      -2.500341     -2.564671     -0.415319
  H      -3.556297     -2.320038     -1.834995
  H      -3.897057     -1.189862      0.957395
  H      -5.011873     -0.952057     -0.416453
  H      -3.403942      1.261560      0.987689
  H      -4.513045      1.505011     -0.389768
  H      -6.539028      2.159717      2.534997
  H      -4.820613      2.635331      2.396919
  H      -5.934688      2.896098      1.021634
37
Coordinates from ORCA-job neb_TEGDME_anion_cpcm_20_MEP_ALL E -770.223079036467
  C       6.863869      0.654136      1.263538
  O       6.662026     -0.623983      0.659562
  C       5.587201     -0.637707     -0.280705
  C       4.235818     -0.807215      0.415132
  O       3.167338     -0.958536     -0.517282
  C       2.778154      0.261177     -1.157854
  C       1.432222      0.063097     -1.808238
  O       0.432415     -0.050773     -0.809105
  C      -0.862341     -0.326802     -1.364213
  C      -1.919411     -0.308383     -0.256293
  O      -2.156150      0.913848      0.302303
  C      -5.089694     -0.377654      2.365553
  C      -5.825433     -0.205976      1.096445
  O      -6.836340      0.790396      1.257979
  C      -7.508697      1.055253      0.031169
  H       6.001554      0.970566      1.865813
  H       7.064597      1.420476      0.500185
  H       7.735168      0.562039      1.916980
  H       5.757711     -1.496133     -0.941458
  H       5.607120      0.278202     -0.891456
  H       4.257039     -1.726603      1.011568
  H       4.031729      0.038341      1.090333
  H       2.720739      1.074337     -0.416149
  H       3.505008      0.550771     -1.932257
  H       1.227549      0.925337     -2.467130
  H       1.456371     -0.841785     -2.441478
  H      -1.104957      0.439663     -2.122549
  H      -0.838234     -1.313605     -1.865946
  H      -1.583917     -1.092789      0.477297
  H      -2.820561     -0.772873     -0.749649
  H      -5.052387      0.434418      3.083283
  H      -4.434248     -1.231948      2.491146
  H      -5.135838      0.101458      0.281544
  H      -6.278994     -1.160034      0.767808
  H      -8.259750      1.823372      0.231758
  H      -6.808353      1.423208     -0.734282
  H      -8.008323      0.152706     -0.353354
37
Coordinates from ORCA-job neb_TEGDME_anion_cpcm_20_MEP_ALL E -770.207193199340
  C       6.725276      1.178743      1.499638
  O       6.549087     -0.020352      0.739824
  C       5.333928     -0.097184     -0.025322
  C       4.123740     -0.742052      0.677787
  O       3.127265     -1.192765     -0.278208
  C       2.587351     -0.184661     -1.174287
  C       1.308674     -0.557273     -1.944373
  O       0.197577     -0.681874     -1.085875
  C      -1.055659     -0.933571     -1.749796
  C      -2.152477     -0.917116     -0.681549
  O      -2.367013      0.292414     -0.114170
  C      -4.621770     -0.674154      1.833292
  C      -5.379713      0.147690      0.872062
  O      -6.414185      0.854430      1.592509
  C      -7.098009      1.738407      0.724207
  H       6.093022      1.183170      2.394054
  H       6.513802      2.078062      0.900331
  H       7.775371      1.219674      1.810567
  H       5.565761     -0.746102     -0.872018
  H       5.064770      0.902631     -0.383339
  H       4.466702     -1.648599      1.199814
  H       3.682354     -0.078877      1.445043
  H       2.349979      0.722862     -0.605781
  H       3.328206      0.061184     -1.947286
  H       1.157244      0.303751     -2.632992
  H       1.397387     -1.443720     -2.603823
  H      -1.266531     -0.152685     -2.508425
  H      -1.007759     -1.910004     -2.277694
  H      -1.839064     -1.722860      0.041867
  H      -3.062052     -1.361344     -1.189526
  H      -4.270865     -0.224417      2.747945
  H      -4.409119     -1.721321      1.634437
  H      -4.712980      0.874133      0.377341
  H      -5.834062     -0.468152      0.081022
  H      -7.872270      2.242579      1.309569
  H      -6.411518      2.488771      0.299612
  H      -7.572449      1.190584     -0.106457
37
Coordinates from ORCA-job neb_TEGDME_anion_cpcm_20_MEP_ALL E -770.208409079069
  C       6.684209      1.633766      1.533478
  O       6.500315      0.651705      0.526654
  C       5.101347      0.308425      0.355729
  C       4.580574     -0.507938      1.477932
  O       2.710955     -1.738863     -0.596839
  C       2.319694     -0.672904     -1.333391
  C       1.035237     -0.893140     -2.144990
  O      -0.076738     -0.989110     -1.228159
  C      -1.311025     -1.296730     -1.856307
  C      -2.445677     -1.550031     -0.849225
  O      -2.931998     -0.421322     -0.093092
  C      -4.089092     -0.664365      0.769185
  C      -4.912345      0.601270      0.602482
  O      -5.989334      0.757261      1.531432
  C      -6.600545      2.026809      1.285413
  H       6.335700      1.290097      2.518862
  H       6.146904      2.560079      1.277481
  H       7.757265      1.846226      1.590005
  H       5.059373     -0.243756     -0.586204
  H       4.517862      1.233684      0.230818
  H       5.072525     -1.441141      1.719371
  H       3.698949     -0.220216      2.038602
  H       2.112409      0.261335     -0.737342
  H       3.079773     -0.330730     -2.096518
  H       0.863251     -0.057513     -2.853216
  H       1.136792     -1.822740     -2.740477
  H      -1.531814     -0.558880     -2.650877
  H      -1.223404     -2.271593     -2.373811
  H      -2.068811     -2.313282     -0.153368
  H      -3.275423     -1.970611     -1.443372
  H      -3.786503     -0.792990      1.825588
  H      -4.653381     -1.568845      0.476028
  H      -4.212714      1.439981      0.732337
  H      -5.314636      0.624301     -0.417590
  H      -7.428318      2.170136      1.985886
  H      -5.871540      2.838783      1.418767
  H      -6.989835      2.082844      0.258729
37
Coordinates from ORCA-job neb_TEGDME_anion_cpcm_20_MEP_ALL E -770.225463883462
  C       6.408117      2.125258      1.588917
  O       5.899557      1.359285      0.498914
  C       4.610485      0.799237      0.789824
  C       4.651675     -0.266101      1.822120
  O       2.445107     -2.196280     -0.582662
  C       2.054249     -1.142549     -1.355637
  C       0.826622     -1.395813     -2.236704
  O      -0.341691     -1.546462     -1.416820
  C      -1.495589     -1.859772     -2.179577
  C      -2.700367     -1.906542     -1.275238
  O      -3.000523     -0.586007     -0.824303
  C      -4.102383     -0.564191      0.073097
  C      -4.312354      0.877224      0.493794
  O      -5.417687      0.904695      1.388508
  C      -5.685476      2.223988      1.854071
  H       6.548694      1.507174      2.487535
  H       5.730549      2.957173      1.836171
  H       7.374448      2.528599      1.275410
  H       4.254850      0.393999     -0.172026
  H       3.908182      1.599184      1.080249
  H       5.486890     -0.959953      1.843269
  H       3.787703     -0.462169      2.447790
  H       1.803807     -0.211978     -0.773501
  H       2.833605     -0.794685     -2.091551
  H       0.670368     -0.552476     -2.936875
  H       0.976919     -2.315295     -2.831332
  H      -1.654904     -1.106612     -2.971686
  H      -1.383787     -2.842595     -2.670501
  H      -2.500285     -2.564998     -0.413639
  H      -3.556210     -2.321348     -1.833508
  H      -3.897060     -1.189280      0.958105
  H      -5.011846     -0.952430     -0.415933
  H      -3.403990      1.262170      0.986745
  H      -4.513062      1.504665     -0.390906
  H      -6.539131      2.161323      2.533362
  H      -4.820721      2.636874      2.395004
  H      -5.934766      2.896686      1.019514
37
Coordinates from ORCA-job neb_TEGDME_anion_cpcm_20_MEP_ALL E -770.223079036467
  C       6.863869      0.654136      1.263538
  O       6.662026     -0.623983      0.659562
  C       5.587201     -0.637707     -0.280705
  C       4.235818     -0.807215      0.415132
  O       3.167338     -0.958536     -0.517282
  C       2.778154      0.261177     -1.157854
  C       1.432222      0.063097     -1.808238
  O       0.432415     -0.050773     -0.809105
  C      -0.862341     -0.326802     -1.364213
  C      -1.919411     -0.308383     -0.256293
  O      -2.156150      0.913848      0.302303
  C      -5.089694     -0.377654      2.365553
  C      -5.825433     -0.205976      1.096445
  O      -6.836340      0.790396      1.257979
  C      -7.508697      1.055253      0.031169
  H       6.001554      0.970566      1.865813
  H       7.064597      1.420476      0.500185
  H       7.735168      0.562039      1.916980
  H       5.757711     -1.496133     -0.941458
  H       5.607120      0.278202     -0.891456
  H       4.257039     -1.726603      1.011568
  H       4.031729      0.038341      1.090333
  H       2.720739      1.074337     -0.416149
  H       3.505008      0.550771     -1.932257
  H       1.227549      0.925337     -2.467130
  H       1.456371     -0.841785     -2.441478
  H      -1.104957      0.439663     -2.122549
  H      -0.838234     -1.313605     -1.865946
  H      -1.583917     -1.092789      0.477297
  H      -2.820561     -0.772873     -0.749649
  H      -5.052387      0.434418      3.083283
  H      -4.434248     -1.231948      2.491146
  H      -5.135838      0.101458      0.281544
  H      -6.278994     -1.160034      0.767808
  H      -8.259750      1.823372      0.231758
  H      -6.808353      1.423208     -0.734282
  H      -8.008323      0.152706     -0.353354
37
Coordinates from ORCA-job neb_TEGDME_anion_cpcm_20_MEP_ALL E -770.208333377568
  C       6.722769      1.175832      1.498486
  O       6.542369     -0.028537      0.742849
  C       5.333094     -0.100215     -0.029548
  C       4.118583     -0.742856      0.669770
  O       3.126836     -1.186268     -0.276597
  C       2.591192     -0.181369     -1.168704
  C       1.315031     -0.554265     -1.941861
  O       0.201536     -0.681462     -1.080188
  C      -1.050439     -0.932712     -1.748500
  C      -2.150056     -0.915111     -0.679355
  O      -2.362650      0.300755     -0.113914
  C      -4.628869     -0.681110      1.839827
  C      -5.383753      0.143515      0.877218
  O      -6.418201      0.855537      1.591734
  C      -7.104905      1.738242      0.717183
  H       6.088299      1.185955      2.394509
  H       6.514640      2.072561      0.894996
  H       7.773230      1.212547      1.810963
  H       5.571735     -0.748731     -0.879751
  H       5.070710      0.901664     -0.392873
  H       4.457471     -1.647939      1.191681
  H       3.679650     -0.075863      1.431760
  H       2.354524      0.729259     -0.602279
  H       3.332332      0.065601     -1.944319
  H       1.160950      0.303022     -2.630014
  H       1.407790     -1.444371     -2.593979
  H      -1.258864     -0.150582     -2.503908
  H      -1.004574     -1.907858     -2.273607
  H      -1.838763     -1.718100      0.044859
  H      -3.057874     -1.356846     -1.188200
  H      -4.271441     -0.216591      2.759959
  H      -4.404995     -1.719827      1.644082
  H      -4.716298      0.869774      0.374449
  H      -5.839399     -0.478611      0.083874
  H      -7.876560      2.244411      1.302218
  H      -6.416951      2.486851      0.288387
  H      -7.578148      1.183700     -0.111206
37
Coordinates from ORCA-job neb_TEGDME_anion_cpcm_20_MEP_ALL E -770.209245922189
  C       6.686096      1.632872      1.532425
  O       6.503240      0.646307      0.525008
  C       5.103750      0.306992      0.354873
  C       4.576688     -0.506026      1.472869
  O       2.714606     -1.736977     -0.592337
  C       2.321031     -0.667584     -1.331269
  C       1.035427     -0.890901     -2.140790
  O      -0.076250     -0.985953     -1.223675
  C      -1.309321     -1.296079     -1.852532
  C      -2.444955     -1.547213     -0.843710
  O      -2.935743     -0.417970     -0.087859
  C      -4.078792     -0.665169      0.769690
  C      -4.913880      0.601520      0.601673
  O      -5.989761      0.753398      1.531346
  C      -6.606232      2.024174      1.279131
  H       6.332848      1.290780      2.517250
  H       6.149825      2.559323      1.272348
  H       7.757113      1.842462      1.590616
  H       5.064685     -0.250881     -0.589561
  H       4.521585      1.231201      0.223489
  H       5.067321     -1.444064      1.716934
  H       3.697581     -0.216342      2.033144
  H       2.116061      0.264358     -0.735432
  H       3.079427     -0.329745     -2.095608
  H       0.864003     -0.056439     -2.849163
  H       1.134359     -1.821229     -2.733312
  H      -1.537540     -0.554325     -2.640116
  H      -1.221030     -2.271164     -2.372842
  H      -2.069981     -2.311749     -0.148599
  H      -3.272370     -1.968708     -1.435496
  H      -3.785886     -0.785746      1.827891
  H      -4.644504     -1.564956      0.483390
  H      -4.216002      1.439978      0.723440
  H      -5.318463      0.616025     -0.420039
  H      -7.431702      2.167402      1.979486
  H      -5.876067      2.838651      1.406554
  H      -6.997169      2.073776      0.250782
37
Coordinates from ORCA-job neb_TEGDME_anion_cpcm_20_MEP_ALL E -770.225463883462
  C       6.407998      2.126983      1.587085
  O       5.899496      1.359962      0.497792
  C       4.610436      0.800145      0.789196
  C       4.651634     -0.264217      1.822499
  O       2.445200     -2.196744     -0.580520
  C       2.054327     -1.143757     -1.354500
  C       0.826733     -1.397897     -2.235362
  O      -0.341597     -1.547812     -1.415369
  C      -1.495463     -1.861883     -2.177861
  C      -2.700265     -1.907841     -1.273511
  O      -3.000480     -0.586890     -0.823832
  C      -4.102365     -0.564265      0.073517
  C      -4.312398      0.877540      0.492846
  O      -5.417756      0.905817      1.387504
  C      -5.685604      2.225540      1.851813
  H       6.548572      1.509752      2.486291
  H       5.730395      2.959107      1.833535
  H       7.374324      2.530061      1.273224
  H       4.254841      0.393985     -0.172281
  H       3.908097      1.600340      1.078846
  H       5.486873     -0.958019      1.844327
  H       3.787652     -0.459724      2.448330
  H       1.803836     -0.212645     -0.773251
  H       2.833690     -0.796561     -2.090722
  H       0.670468     -0.555227     -2.936334
  H       0.977078     -2.317935     -2.829117
  H      -1.654783     -1.109477     -2.970686
  H      -1.383614     -2.845165     -2.667853
  H      -2.500184     -2.565475     -0.411285
  H      -3.556078     -2.323204     -1.831413
  H      -3.897045     -1.188511      0.959121
  H      -5.011801     -0.952998     -0.415171
  H      -3.404061      1.262983      0.985458
  H      -4.513103      1.504138     -0.392451
  H      -6.539277      2.163487      2.531139
  H      -4.820879      2.638968      2.392379
  H      -5.934895      2.897441      1.016614
37
Coordinates from ORCA-job neb_TEGDME_anion_cpcm_20_MEP_ALL E -770.223079036467
  C       6.863869      0.654136      1.263538
  O       6.662026     -0.623983      0.659562
  C       5.587201     -0.637707     -0.280705
  C       4.235818     -0.807215      0.415132
  O       3.167338     -0.958536     -0.517282
  C       2.778154      0.261177     -1.157854
  C       1.432222      0.063097     -1.808238
  O       0.432415     -0.050773     -0.809105
  C      -0.862341     -0.326802     -1.364213
  C      -1.919411     -0.308383     -0.256293
  O      -2.156150      0.913848      0.302303
  C      -5.089694     -0.377654      2.365553
  C      -5.825433     -0.205976      1.096445
  O      -6.836340      0.790396      1.257979
  C      -7.508697      1.055253      0.031169
  H       6.001554      0.970566      1.865813
  H       7.064597      1.420476      0.500185
  H       7.735168      0.562039      1.916980
  H       5.757711     -1.496133     -0.941458
  H       5.607120      0.278202     -0.891456
  H       4.257039     -1.726603      1.011568
  H       4.031729      0.038341      1.090333
  H       2.720739      1.074337     -0.416149
  H       3.505008      0.550771     -1.932257
  H       1.227549      0.925337     -2.467130
  H       1.456371     -0.841785     -2.441478
  H      -1.104957      0.439663     -2.122549
  H      -0.838234     -1.313605     -1.865946
  H      -1.583917     -1.092789      0.477297
  H      -2.820561     -0.772873     -0.749649
  H      -5.052387      0.434418      3.083283
  H      -4.434248     -1.231948      2.491146
  H      -5.135838      0.101458      0.281544
  H      -6.278994     -1.160034      0.767808
  H      -8.259750      1.823372      0.231758
  H      -6.808353      1.423208     -0.734282
  H      -8.008323      0.152706     -0.353354
37
Coordinates from ORCA-job neb_TEGDME_anion_cpcm_20_MEP_ALL E -770.209464468072
  C       6.720158      1.173375      1.498073
  O       6.536304     -0.031865      0.744951
  C       5.333267     -0.101603     -0.031832
  C       4.119071     -0.741175      0.668167
  O       3.121315     -1.186188     -0.280177
  C       2.591446     -0.178950     -1.167935
  C       1.319573     -0.552898     -1.940570
  O       0.204281     -0.682005     -1.076006
  C      -1.047220     -0.932878     -1.747280
  C      -2.149042     -0.915917     -0.679824
  O      -2.361041      0.305761     -0.113188
  C      -4.631958     -0.680346      1.846609
  C      -5.386638      0.140703      0.878767
  O      -6.419351      0.855623      1.590156
  C      -7.107758      1.738482      0.712945
  H       6.085785      1.188090      2.394670
  H       6.514173      2.069138      0.892348
  H       7.770995      1.208315      1.810650
  H       5.574439     -0.748858     -0.884770
  H       5.073740      0.901835     -0.398319
  H       4.452779     -1.647729      1.187220
  H       3.677577     -0.073203      1.424050
  H       2.357653      0.733241     -0.599317
  H       3.334851      0.068288     -1.941806
  H       1.163227      0.301731     -2.628133
  H       1.415648     -1.445324     -2.586333
  H      -1.253406     -0.149582     -2.501086
  H      -1.002669     -1.906862     -2.271008
  H      -1.839134     -1.716199      0.046726
  H      -3.054970     -1.354593     -1.188081
  H      -4.272303     -0.215530      2.761752
  H      -4.402095     -1.720536      1.647385
  H      -4.717898      0.866620      0.374584
  H      -5.841204     -0.482002      0.086483
  H      -7.878748      2.245545      1.298852
  H      -6.420277      2.485635      0.283935
  H      -7.580570      1.181858     -0.112655
37
Coordinates from ORCA-job neb_TEGDME_anion_cpcm_20_MEP_ALL E -770.209623454244
  C       6.686703      1.635086      1.532529
  O       6.503793      0.647152      0.522818
  C       5.104926      0.307810      0.355497
  C       4.578015     -0.504970      1.475183
  O       2.714886     -1.740360     -0.590820
  C       2.319257     -0.666083     -1.332383
  C       1.033895     -0.890497     -2.139619
  O      -0.077709     -0.984970     -1.220621
  C      -1.311971     -1.297950     -1.850047
  C      -2.445332     -1.550001     -0.841547
  O      -2.933681     -0.419439     -0.090246
  C      -4.075255     -0.664062      0.767476
  C      -4.911854      0.602597      0.598910
  O      -5.986091      0.751640      1.528938
  C      -6.606188      2.023361      1.278228
  H       6.332649      1.291337      2.516435
  H       6.149953      2.560985      1.271959
  H       7.757297      1.843651      1.590230
  H       5.065150     -0.252034     -0.589203
  H       4.520760      1.231563      0.222487
  H       5.066675     -1.443959      1.717896
  H       3.696552     -0.214983      2.033062
  H       2.117220      0.264020     -0.734429
  H       3.077293     -0.331070     -2.096152
  H       0.862397     -0.057384     -2.847330
  H       1.130433     -1.821852     -2.729216
  H      -1.544003     -0.552552     -2.632844
  H      -1.221271     -2.271263     -2.372583
  H      -2.072660     -2.314957     -0.146368
  H      -3.272363     -1.971423     -1.431963
  H      -3.781004     -0.785000      1.823044
  H      -4.639833     -1.562469      0.479525
  H      -4.215347      1.444491      0.719512
  H      -5.317288      0.617839     -0.424244
  H      -7.431140      2.164028      1.980255
  H      -5.876886      2.839148      1.405913
  H      -6.997981      2.072569      0.249719
37
Coordinates from ORCA-job neb_TEGDME_anion_cpcm_20_MEP_ALL E -770.225463883462
  C       6.407898      2.127945      1.586199
  O       5.899448      1.360360      0.497280
  C       4.610392      0.800658      0.788928
  C       4.651585     -0.263179      1.822773
  O       2.445271     -2.196979     -0.579332
  C       2.054396     -1.144394     -1.353859
  C       0.826834     -1.399010     -2.234628
  O      -0.341517     -1.548539     -1.414594
  C      -1.495352     -1.863024     -2.176962
  C      -2.700180     -1.908553     -1.272625
  O      -3.000441     -0.587382     -0.823624
  C      -4.102353     -0.564329      0.073680
  C      -4.312435      0.877684      0.492272
  O      -5.417820      0.906387      1.386882
  C      -5.685715      2.226340      1.850514
  H       6.548461      1.511174      2.485722
  H       5.730267      2.960178      1.832207
  H       7.374224      2.530888      1.272162
  H       4.254837      0.394002     -0.172353
  H       3.908025      1.600984      1.078152
  H       5.486841     -0.956949      1.844978
  H       3.787590     -0.458389      2.448677
  H       1.803864     -0.212993     -0.773089
  H       2.833773     -0.797552     -2.090233
  H       0.670570     -0.556700     -2.936032
  H       0.977220     -2.319346     -2.827913
  H      -1.654667     -1.111024     -2.970173
  H      -1.383464     -2.846553     -2.666452
  H      -2.500108     -2.565746     -0.410059
  H      -3.555966     -2.324221     -1.830341
  H      -3.897045     -1.188121      0.959607
  H      -5.011765     -0.953331     -0.414838
  H      -3.404122      1.263399      0.984716
  H      -4.513129      1.503828     -0.393350
  H      -6.539406      2.164610      2.529846
  H      -4.821015      2.640063      2.390897
  H      -5.934997      2.897811      1.014967
37
Coordinates from ORCA-job neb_TEGDME_anion_cpcm_20_MEP_ALL E -770.223079036467
  C       6.863869      0.654136      1.263538
  O       6.662026     -0.623983      0.659562
  C       5.587201     -0.637707     -0.280705
  C       4.235818     -0.807215      0.415132
  O       3.167338     -0.958536     -0.517282
  C       2.778154      0.261177     -1.157854
  C       1.432222      0.063097     -1.808238
  O       0.432415     -0.050773     -0.809105
  C      -0.862341     -0.326802     -1.364213
  C      -1.919411     -0.308383     -0.256293
  O      -2.156150      0.913848      0.302303
  C      -5.089694     -0.377654      2.365553
  C      -5.825433     -0.205976      1.096445
  O      -6.836340      0.790396      1.257979
  C      -7.508697      1.055253      0.031169
  H       6.001554      0.970566      1.865813
  H       7.064597      1.420476      0.500185
  H       7.735168      0.562039      1.916980
  H       5.757711     -1.496133     -0.941458
  H       5.607120      0.278202     -0.891456
  H       4.257039     -1.726603      1.011568
  H       4.031729      0.038341      1.090333
  H       2.720739      1.074337     -0.416149
  H       3.505008      0.550771     -1.932257
  H       1.227549      0.925337     -2.467130
  H       1.456371     -0.841785     -2.441478
  H      -1.104957      0.439663     -2.122549
  H      -0.838234     -1.313605     -1.865946
  H      -1.583917     -1.092789      0.477297
  H      -2.820561     -0.772873     -0.749649
  H      -5.052387      0.434418      3.083283
  H      -4.434248     -1.231948      2.491146
  H      -5.135838      0.101458      0.281544
  H      -6.278994     -1.160034      0.767808
  H      -8.259750      1.823372      0.231758
  H      -6.808353      1.423208     -0.734282
  H      -8.008323      0.152706     -0.353354
37
Coordinates from ORCA-job neb_TEGDME_anion_cpcm_20_MEP_ALL E -770.210242191365
  C       6.702194      1.164558      1.496574
  O       6.501382     -0.042726      0.757030
  C       5.329498     -0.100631     -0.045450
  C       4.119235     -0.734481      0.657228
  O       3.087349     -1.194933     -0.300274
  C       2.586887     -0.166206     -1.167994
  C       1.337923     -0.548655     -1.932523
  O       0.219929     -0.690662     -1.054886
  C      -1.030599     -0.937050     -1.737477
  C      -2.144986     -0.921157     -0.681865
  O      -2.359681      0.317470     -0.111783
  C      -4.645780     -0.690211      1.856955
  C      -5.393544      0.134379      0.888394
  O      -6.422914      0.856247      1.578623
  C      -7.116651      1.742645      0.702225
  H       6.073648      1.202058      2.397933
  H       6.504821      2.053684      0.882676
  H       7.754963      1.189180      1.804643
  H       5.581786     -0.740044     -0.910218
  H       5.084377      0.906444     -0.421946
  H       4.435963     -1.646591      1.169646
  H       3.663627     -0.054484      1.388993
  H       2.374433      0.748638     -0.583566
  H       3.347161      0.081190     -1.928519
  H       1.172176      0.290438     -2.621870
  H       1.463475     -1.458024     -2.540347
  H      -1.222055     -0.148438     -2.485900
  H      -0.993224     -1.907198     -2.258245
  H      -1.845665     -1.713878      0.054626
  H      -3.042117     -1.350089     -1.193722
  H      -4.266856     -0.215099      2.765632
  H      -4.389207     -1.712901      1.650787
  H      -4.719790      0.852990      0.383394
  H      -5.844866     -0.487283      0.094230
  H      -7.884300      2.250396      1.289056
  H      -6.430915      2.485313      0.274776
  H      -7.587676      1.185108     -0.116836
37
Coordinates from ORCA-job neb_TEGDME_anion_cpcm_20_MEP_ALL E -770.210248477891
  C       6.689704      1.649174      1.531858
  O       6.504623      0.661378      0.510824
  C       5.109413      0.314666      0.362752
  C       4.588651     -0.493012      1.494207
  O       2.710643     -1.759714     -0.589979
  C       2.307590     -0.667324     -1.336397
  C       1.019193     -0.890343     -2.130745
  O      -0.091627     -0.979907     -1.203568
  C      -1.329459     -1.310843     -1.834915
  C      -2.447037     -1.574887     -0.833207
  O      -2.908930     -0.425144     -0.116515
  C      -4.059479     -0.655714      0.746803
  C      -4.892686      0.616723      0.577048
  O      -5.960341      0.746096      1.509949
  C      -6.600637      2.017520      1.279643
  H       6.334240      1.293907      2.511044
  H       6.148843      2.573330      1.274734
  H       7.758763      1.855617      1.587410
  H       5.063599     -0.254282     -0.582488
  H       4.513097      1.233517      0.222645
  H       5.067529     -1.443459      1.727729
  H       3.693638     -0.210754      2.035532
  H       2.122611      0.258351     -0.728926
  H       3.061561     -0.341356     -2.101929
  H       0.848410     -0.062728     -2.838807
  H       1.102325     -1.827343     -2.706056
  H      -1.589365     -0.542317     -2.585971
  H      -1.225935     -2.271697     -2.372548
  H      -2.091706     -2.342885     -0.133411
  H      -3.276893     -1.994780     -1.413191
  H      -3.744790     -0.786839      1.789415
  H      -4.615216     -1.548621      0.443629
  H      -4.210037      1.473297      0.696822
  H      -5.302859      0.639187     -0.450104
  H      -7.421235      2.138993      1.991299
  H      -5.879530      2.840915      1.413368
  H      -6.996672      2.071280      0.252043
37
Coordinates from ORCA-job neb_TEGDME_anion_cpcm_20_MEP_ALL E -770.225463883462
  C       6.407414      2.132665      1.581826
  O       5.899218      1.362277      0.494763
  C       4.610180      0.803166      0.787623
  C       4.651333     -0.258060      1.824156
  O       2.445608     -2.198165     -0.573415
  C       2.054734     -1.147576     -1.350656
  C       0.827337     -1.404551     -2.230974
  O      -0.341124     -1.552143     -1.410743
  C      -1.494806     -1.868681     -2.172497
  C      -2.699768     -1.912066     -1.268231
  O      -3.000247     -0.589795     -0.822608
  C      -4.102301     -0.564604      0.074468
  C      -4.312609      0.878440      0.489392
  O      -5.418137      0.909275      1.383759
  C      -5.686251      2.230366      1.844021
  H       6.547906      1.518177      2.482926
  H       5.729651      2.965442      1.825631
  H       7.373742      2.534924      1.266923
  H       4.254819      0.394046     -0.172688
  H       3.907678      1.604141      1.074720
  H       5.486663     -0.951681      1.848240
  H       3.787262     -0.451790      2.450420
  H       1.804008     -0.214739     -0.772273
  H       2.834186     -0.802503     -2.087784
  H       0.671086     -0.564026     -2.934525
  H       0.977918     -2.326366     -2.821915
  H      -1.654082     -1.118698     -2.967628
  H      -1.382731     -2.853431     -2.659490
  H      -2.499756     -2.567061     -0.403977
  H      -3.555421     -2.329235     -1.825032
  H      -3.897060     -1.186139      0.961999
  H      -5.011594     -0.954941     -0.413210
  H      -3.404416      1.265499      0.981004
  H      -4.513237      1.502329     -0.397839
  H      -6.540041      2.170254      2.523377
  H      -4.821682      2.645549      2.383495
  H      -5.935480      2.899703      1.006743
37
Coordinates from ORCA-job neb_TEGDME_anion_cpcm_20_MEP_ALL E -770.223079036467
  C       6.863869      0.654136      1.263538
  O       6.662026     -0.623983      0.659562
  C       5.587201     -0.637707     -0.280705
  C       4.235818     -0.807215      0.415132
  O       3.167338     -0.958536     -0.517282
  C       2.778154      0.261177     -1.157854
  C       1.432222      0.063097     -1.808238
  O       0.432415     -0.050773     -0.809105
  C      -0.862341     -0.326802     -1.364213
  C      -1.919411     -0.308383     -0.256293
  O      -2.156150      0.913848      0.302303
  C      -5.089694     -0.377654      2.365553
  C      -5.825433     -0.205976      1.096445
  O      -6.836340      0.790396      1.257979
  C      -7.508697      1.055253      0.031169
  H       6.001554      0.970566      1.865813
  H       7.064597      1.420476      0.500185
  H       7.735168      0.562039      1.916980
  H       5.757711     -1.496133     -0.941458
  H       5.607120      0.278202     -0.891456
  H       4.257039     -1.726603      1.011568
  H       4.031729      0.038341      1.090333
  H       2.720739      1.074337     -0.416149
  H       3.505008      0.550771     -1.932257
  H       1.227549      0.925337     -2.467130
  H       1.456371     -0.841785     -2.441478
  H      -1.104957      0.439663     -2.122549
  H      -0.838234     -1.313605     -1.865946
  H      -1.583917     -1.092789      0.477297
  H      -2.820561     -0.772873     -0.749649
  H      -5.052387      0.434418      3.083283
  H      -4.434248     -1.231948      2.491146
  H      -5.135838      0.101458      0.281544
  H      -6.278994     -1.160034      0.767808
  H      -8.259750      1.823372      0.231758
  H      -6.808353      1.423208     -0.734282
  H      -8.008323      0.152706     -0.353354
37
Coordinates from ORCA-job neb_TEGDME_anion_cpcm_20_MEP_ALL E -770.211902021973
  C       6.708369      1.169854      1.498071
  O       6.515715     -0.035987      0.752440
  C       5.328644     -0.099032     -0.041132
  C       4.115957     -0.738382      0.660373
  O       3.102090     -1.192883     -0.290120
  C       2.588593     -0.171788     -1.168378
  C       1.327688     -0.552508     -1.934673
  O       0.213551     -0.689171     -1.064872
  C      -1.037971     -0.936689     -1.739872
  C      -2.147115     -0.918963     -0.680670
  O      -2.362742      0.306870     -0.113458
  C      -4.637672     -0.683716      1.850576
  C      -5.388855      0.138882      0.881744
  O      -6.420939      0.856263      1.584647
  C      -7.109862      1.741769      0.710111
  H       6.079054      1.197283      2.397630
  H       6.506047      2.062044      0.887779
  H       7.760585      1.198680      1.805598
  H       5.576303     -0.739982     -0.898798
  H       5.077736      0.906558     -0.410268
  H       4.445659     -1.646817      1.178976
  H       3.668526     -0.061491      1.404942
  H       2.367178      0.739776     -0.590486
  H       3.341099      0.074977     -1.933998
  H       1.166959      0.293941     -2.626476
  H       1.445341     -1.455696     -2.557904
  H      -1.234529     -0.150528     -2.492275
  H      -0.997377     -1.909498     -2.264150
  H      -1.844584     -1.717870      0.050560
  H      -3.048637     -1.355008     -1.193663
  H      -4.266619     -0.219041      2.758583
  H      -4.394420     -1.717701      1.642606
  H      -4.715793      0.861033      0.382030
  H      -5.841065     -0.480217      0.088384
  H      -7.880357      2.248475      1.296948
  H      -6.423674      2.488360      0.283610
  H      -7.582880      1.188201     -0.114414
37
Coordinates from ORCA-job neb_TEGDME_anion_cpcm_20_MEP_ALL E -770.213406992064
  C       6.687962      1.640364      1.531024
  O       6.504271      0.653991      0.517843
  C       5.108040      0.309547      0.356820
  C       4.583472     -0.499502      1.482798
  O       2.712849     -1.747386     -0.591037
  C       2.313996     -0.667191     -1.332158
  C       1.025304     -0.888666     -2.131615
  O      -0.085789     -0.980279     -1.209608
  C      -1.320181     -1.304140     -1.840249
  C      -2.443495     -1.562817     -0.836385
  O      -2.914667     -0.417176     -0.107356
  C      -4.066901     -0.656119      0.758088
  C      -4.902018      0.608669      0.585852
  O      -5.973059      0.750206      1.517136
  C      -6.604420      2.017667      1.276566
  H       6.332563      1.292332      2.512297
  H       6.151112      2.566081      1.272228
  H       7.758568      1.847973      1.589701
  H       5.066578     -0.255187     -0.585129
  H       4.519121      1.230705      0.219787
  H       5.063464     -1.443570      1.721090
  H       3.694684     -0.211837      2.031316
  H       2.121893      0.262776     -0.730198
  H       3.068741     -0.335336     -2.099212
  H       0.854680     -0.058388     -2.841281
  H       1.114256     -1.823583     -2.713915
  H      -1.571555     -0.543871     -2.601825
  H      -1.223174     -2.269729     -2.372513
  H      -2.083702     -2.330362     -0.137251
  H      -3.274883     -1.983710     -1.419397
  H      -3.760678     -0.783916      1.808189
  H      -4.624763     -1.556011      0.462053
  H      -4.214197      1.459028      0.703364
  H      -5.309933      0.626187     -0.437004
  H      -7.426768      2.147947      1.984104
  H      -5.881490      2.837896      1.405567
  H      -6.999882      2.067406      0.250307
37
Coordinates from ORCA-job neb_TEGDME_anion_cpcm_20_MEP_ALL E -770.225463883462
  C       6.407632      2.130574      1.583748
  O       5.899318      1.361442      0.495855
  C       4.610277      0.802060      0.788180
  C       4.651459     -0.260337      1.823507
  O       2.445462     -2.197622     -0.576085
  C       2.054578     -1.146140     -1.352105
  C       0.827104     -1.402062     -2.232618
  O      -0.341303     -1.550528     -1.412468
  C      -1.495057     -1.866150     -2.174490
  C      -2.699953     -1.910501     -1.270185
  O      -3.000337     -0.588725     -0.823045
  C      -4.102322     -0.564498      0.074140
  C      -4.312532      0.878083      0.490711
  O      -5.417990      0.907957      1.385194
  C      -5.686008      2.228536      1.846969
  H       6.548164      1.515064      2.484140
  H       5.729926      2.963105      1.828545
  H       7.373956      2.533145      1.269227
  H       4.254824      0.394044     -0.172564
  H       3.907834      1.602741      1.076235
  H       5.486758     -0.954021      1.846742
  H       3.787426     -0.454734      2.449614
  H       1.803940     -0.213948     -0.772650
  H       2.833991     -0.800270     -2.088901
  H       0.670839     -0.560737     -2.935205
  H       0.977597     -2.323213     -2.824611
  H      -1.654358     -1.115263     -2.968759
  H      -1.383064     -2.850351     -2.662604
  H      -2.499906     -2.566481     -0.406689
  H      -3.555667     -2.327001     -1.827391
  H      -3.897042     -1.187045      0.960951
  H      -5.011669     -0.954240     -0.413909
  H      -3.404283      1.264543      0.982690
  H      -4.513197      1.502983     -0.395797
  H      -6.539749      2.167694      2.526320
  H      -4.821379      2.643068      2.386845
  H      -5.935269      2.898829      1.010469
