37
Coordinates from ORCA-job neb_TEGDME_anion_cpcm_20_MEP E -770.223079036467
  C       6.863869      0.654136      1.263538
  O       6.662026     -0.623983      0.659562
  C       5.587201     -0.637707     -0.280705
  C       4.235818     -0.807215      0.415132
  O       3.167338     -0.958536     -0.517282
  C       2.778154      0.261177     -1.157854
  C       1.432222      0.063097     -1.808238
  O       0.432415     -0.050773     -0.809105
  C      -0.862341     -0.326802     -1.364213
  C      -1.919411     -0.308383     -0.256293
  O      -2.156150      0.913848      0.302303
  C      -5.089694     -0.377654      2.365553
  C      -5.825433     -0.205976      1.096445
  O      -6.836340      0.790396      1.257979
  C      -7.508697      1.055253      0.031169
  H       6.001554      0.970566      1.865813
  H       7.064597      1.420476      0.500185
  H       7.735168      0.562039      1.916980
  H       5.757711     -1.496133     -0.941458
  H       5.607120      0.278202     -0.891456
  H       4.257039     -1.726603      1.011568
  H       4.031729      0.038341      1.090333
  H       2.720739      1.074337     -0.416149
  H       3.505008      0.550771     -1.932257
  H       1.227549      0.925337     -2.467130
  H       1.456371     -0.841785     -2.441478
  H      -1.104957      0.439663     -2.122549
  H      -0.838234     -1.313605     -1.865946
  H      -1.583917     -1.092789      0.477297
  H      -2.820561     -0.772873     -0.749649
  H      -5.052387      0.434418      3.083283
  H      -4.434248     -1.231948      2.491146
  H      -5.135838      0.101458      0.281544
  H      -6.278994     -1.160034      0.767808
  H      -8.259750      1.823372      0.231758
  H      -6.808353      1.423208     -0.734282
  H      -8.008323      0.152706     -0.353354
37
Coordinates from ORCA-job neb_TEGDME_anion_cpcm_20_MEP E -770.211902021973
  C       6.708369      1.169854      1.498071
  O       6.515715     -0.035987      0.752440
  C       5.328644     -0.099032     -0.041132
  C       4.115957     -0.738382      0.660373
  O       3.102090     -1.192883     -0.290120
  C       2.588593     -0.171788     -1.168378
  C       1.327688     -0.552508     -1.934673
  O       0.213551     -0.689171     -1.064872
  C      -1.037971     -0.936689     -1.739872
  C      -2.147115     -0.918963     -0.680670
  O      -2.362742      0.306870     -0.113458
  C      -4.637672     -0.683716      1.850576
  C      -5.388855      0.138882      0.881744
  O      -6.420939      0.856263      1.584647
  C      -7.109862      1.741769      0.710111
  H       6.079054      1.197283      2.397630
  H       6.506047      2.062044      0.887779
  H       7.760585      1.198680      1.805598
  H       5.576303     -0.739982     -0.898798
  H       5.077736      0.906558     -0.410268
  H       4.445659     -1.646817      1.178976
  H       3.668526     -0.061491      1.404942
  H       2.367178      0.739776     -0.590486
  H       3.341099      0.074977     -1.933998
  H       1.166959      0.293941     -2.626476
  H       1.445341     -1.455696     -2.557904
  H      -1.234529     -0.150528     -2.492275
  H      -0.997377     -1.909498     -2.264150
  H      -1.844584     -1.717870      0.050560
  H      -3.048637     -1.355008     -1.193663
  H      -4.266619     -0.219041      2.758583
  H      -4.394420     -1.717701      1.642606
  H      -4.715793      0.861033      0.382030
  H      -5.841065     -0.480217      0.088384
  H      -7.880357      2.248475      1.296948
  H      -6.423674      2.488360      0.283610
  H      -7.582880      1.188201     -0.114414
37
Coordinates from ORCA-job neb_TEGDME_anion_cpcm_20_MEP E -770.213406992064
  C       6.687962      1.640364      1.531024
  O       6.504271      0.653991      0.517843
  C       5.108040      0.309547      0.356820
  C       4.583472     -0.499502      1.482798
  O       2.712849     -1.747386     -0.591037
  C       2.313996     -0.667191     -1.332158
  C       1.025304     -0.888666     -2.131615
  O      -0.085789     -0.980279     -1.209608
  C      -1.320181     -1.304140     -1.840249
  C      -2.443495     -1.562817     -0.836385
  O      -2.914667     -0.417176     -0.107356
  C      -4.066901     -0.656119      0.758088
  C      -4.902018      0.608669      0.585852
  O      -5.973059      0.750206      1.517136
  C      -6.604420      2.017667      1.276566
  H       6.332563      1.292332      2.512297
  H       6.151112      2.566081      1.272228
  H       7.758568      1.847973      1.589701
  H       5.066578     -0.255187     -0.585129
  H       4.519121      1.230705      0.219787
  H       5.063464     -1.443570      1.721090
  H       3.694684     -0.211837      2.031316
  H       2.121893      0.262776     -0.730198
  H       3.068741     -0.335336     -2.099212
  H       0.854680     -0.058388     -2.841281
  H       1.114256     -1.823583     -2.713915
  H      -1.571555     -0.543871     -2.601825
  H      -1.223174     -2.269729     -2.372513
  H      -2.083702     -2.330362     -0.137251
  H      -3.274883     -1.983710     -1.419397
  H      -3.760678     -0.783916      1.808189
  H      -4.624763     -1.556011      0.462053
  H      -4.214197      1.459028      0.703364
  H      -5.309933      0.626187     -0.437004
  H      -7.426768      2.147947      1.984104
  H      -5.881490      2.837896      1.405567
  H      -6.999882      2.067406      0.250307
37
Coordinates from ORCA-job neb_TEGDME_anion_cpcm_20_MEP E -770.225463883462
  C       6.407632      2.130574      1.583748
  O       5.899318      1.361442      0.495855
  C       4.610277      0.802060      0.788180
  C       4.651459     -0.260337      1.823507
  O       2.445462     -2.197622     -0.576085
  C       2.054578     -1.146140     -1.352105
  C       0.827104     -1.402062     -2.232618
  O      -0.341303     -1.550528     -1.412468
  C      -1.495057     -1.866150     -2.174490
  C      -2.699953     -1.910501     -1.270185
  O      -3.000337     -0.588725     -0.823045
  C      -4.102322     -0.564498      0.074140
  C      -4.312532      0.878083      0.490711
  O      -5.417990      0.907957      1.385194
  C      -5.686008      2.228536      1.846969
  H       6.548164      1.515064      2.484140
  H       5.729926      2.963105      1.828545
  H       7.373956      2.533145      1.269227
  H       4.254824      0.394044     -0.172564
  H       3.907834      1.602741      1.076235
  H       5.486758     -0.954021      1.846742
  H       3.787426     -0.454734      2.449614
  H       1.803940     -0.213948     -0.772650
  H       2.833991     -0.800270     -2.088901
  H       0.670839     -0.560737     -2.935205
  H       0.977597     -2.323213     -2.824611
  H      -1.654358     -1.115263     -2.968759
  H      -1.383064     -2.850351     -2.662604
  H      -2.499906     -2.566481     -0.406689
  H      -3.555667     -2.327001     -1.827391
  H      -3.897042     -1.187045      0.960951
  H      -5.011669     -0.954240     -0.413909
  H      -3.404283      1.264543      0.982690
  H      -4.513197      1.502983     -0.395797
  H      -6.539749      2.167694      2.526320
  H      -4.821379      2.643068      2.386845
  H      -5.935269      2.898829      1.010469
