17
 energy: -29.400151186414 gnorm: 0.000775030526 xtb: 6.7.1pre (5071a88)
C            2.23272179394572       -1.15589791128410        0.12062570181357
O            0.88363774729519       -0.90987746327977        0.36800062578445
P            0.00071426892190        0.01774459696037       -0.62783756715439
O            0.68506020484531        0.50030875819995       -1.80494445738635
O           -1.29406408791266       -0.85974016435017       -0.85808544160100
C           -2.12655050791441       -1.40252782169427        0.13490846731763
O           -0.51163112118506        1.14569353237509        0.41466773927075
C           -0.19068087619482        2.49211421988198        0.23555166363099
H            2.84429080114231       -0.67550839632565        0.89931672311676
H            2.53338559100481       -0.80066251121780       -0.86834331621953
H            2.40508744090172       -2.23576622857580        0.23229013077776
H           -2.12081242550456       -2.49584031121969        0.02758572303565
H           -3.15479763967799       -1.07790262131904       -0.07567054964726
H           -1.82664157516403       -1.11102935991503        1.14160710858998
H            0.50697463305143        2.81487054797262        1.02247073261720
H           -1.10761009771358        3.07789783328052        0.38920779392846
H            0.24091584015843        2.67612331051067       -0.75135108787491
