17
Coordinates from ORCA-job TMP_cation_cpcm_20_moread E -761.705480061293
  C           2.09221364397852     -1.29063740802182      0.15824611144356
  O           1.35014923906384     -0.04589231995289      0.12330675140340
  P           0.01613263224958      0.20050035042223     -0.73215041136891
  O           0.61668459216660      0.62645832970240     -2.06703668628894
  O          -0.84355105691181     -1.08524636394937     -0.86638034058608
  C          -1.87552560075808     -1.49283067463727      0.11020984047520
  O          -0.82115652027003      1.24964261246545      0.05303456505820
  C          -0.32734827642820      2.60717396633074      0.36001874495133
  H           3.14371448882543     -1.02871047118568      0.03098835190044
  H           1.73058560807972     -1.99205955563459     -0.59585290043215
  H           1.93291639183982     -1.69587566889459      1.16777456419631
  H          -2.17080114456880     -2.49145303925048     -0.20411085140076
  H          -2.70913110709788     -0.79264176743268      0.04552517406342
  H          -1.44053956718756     -1.50471381696214      1.11137754515593
  H           0.43134780848572      2.53054877089928      1.14050237872413
  H          -1.20303216857028      3.14759742774875      0.71242463728627
  H           0.07734102710344      3.05813963835248     -0.54787748458144
