13
 energy: -23.973929446408 gnorm: 0.000694977855 xtb: 6.7.1pre (5071a88)
C            1.41215538854075       -0.38846944134379       -0.09777733928674
C            0.04079220701125       -0.44874118288096        0.58198133215503
C           -0.64868625825113        0.94765227493831        0.59450173686549
O           -1.73413255212502        0.83566906300616       -0.26762262344229
C           -1.53067936828629       -0.37917053866184       -1.08126828702243
O           -1.07937881001262       -0.26458440501922       -2.25840415173411
O           -0.85005399507510       -1.25695535537471       -0.12486409826960
H            2.06794247924724        0.32201355178244        0.40712313772477
H            1.25754573255211       -0.08450148276025       -1.13097112048909
H            1.87317081395418       -1.37505274397377       -0.09050631407460
H            0.14291807853697       -0.84924745683028        1.60565889321647
H            0.05551135106117        1.72907700464751        0.25890424717982
H           -1.00710505715345        1.21231072247045        1.60324457717723
