13
 energy: -23.973933455845 gnorm: 0.000495506497 xtb: 6.7.1pre (5071a88)
C            1.41526394948533       -0.38890913842776       -0.09455752279621
C            0.04140013737089       -0.44874257301283        0.58022748283406
C           -0.64836133761974        0.94792139199431        0.59131935378521
O           -1.73840701226338        0.83268117812582       -0.26277145472018
C           -1.53552302912653       -0.37955078060016       -1.08006764442207
O           -1.09292087959183       -0.26174031434745       -2.25987472738108
O           -0.84677761403520       -1.25707463736050       -0.12896703242820
H            2.07048056298642        0.31895849065483        0.41461708966928
H            1.26583384914792       -0.08233437185839       -1.12753252319621
H            1.87400550378272       -1.37654640774284       -0.08761774393162
H            0.14081199533335       -0.84902256922108        1.60433106382991
H            0.05456635641494        1.72813260653281        0.24948485683709
H           -1.00037247188471        1.21622713526326        1.60140879192023
