18
Coordinates from ORCA-job DEC_anion_cpcm_200_default E -422.215309695330
  C          -3.11580719059927      0.41084723304987      0.39664916884098
  C          -2.41570540015014     -0.82328133074644     -0.15911384456512
  O          -1.05444151183826     -0.92643492628859      0.25374795964472
  C          -0.16791624942857      0.01486906318914     -0.41601017886710
  O          -0.25425567269058      0.13779689359443     -1.68043328742215
  O           1.10201373043272     -0.38691890703151      0.16162183498037
  C           2.19185041193161      0.40573755169962     -0.30274404123195
  C           3.42910306528003      0.03308436778318      0.49036277026685
  H          -2.65639688845350      1.32605040251095      0.00984220937814
  H          -3.05810124086040      0.43045989239902      1.49050258065867
  H          -4.17324841805807      0.40531919594115      0.10737907406421
  H          -2.47754850753592     -0.83215647270410     -1.25653309952531
  H          -2.90554930803598     -1.73107207642653      0.21399869350247
  H           2.36018542085553      0.23875431859368     -1.37716193796342
  H           1.95613395706017      1.47595905863736     -0.17149733752933
  H           4.28611480385755      0.62440065962490      0.15008861925093
  H           3.67137095725301     -1.02707938185751      0.35878258402888
  H           3.28219805098006      0.22366446803139      1.55880181248819
