18
 energy: -28.145397966891 gnorm: 0.000802729209 xtb: 6.7.1pre (5071a88)
C           -3.24846323109276        0.06923879437587        0.08753433309790
C           -1.90512335119590       -0.60559900561064       -0.21490332213808
O           -0.93489237131928       -0.30897486546583        0.72985699476218
C           -0.16615718819921        0.94213102532250        0.46621428634060
O           -0.41582359265575        1.58303755354430       -0.60242844679510
O            1.17893192403646        0.64670732813507        0.82817168094504
C            1.90513567481721       -0.03789342456989       -0.17627049484489
C            3.38088477533617       -0.10583865943742        0.19874852498929
H           -3.10307011070635        1.14488874093300        0.05035706339210
H           -3.59062656729383       -0.20645122317962        1.08390601339222
H           -3.99823672319180       -0.22462960336770       -0.64732120488535
H           -1.56937509134307       -0.27472380121510       -1.21061455148083
H           -2.03296737701712       -1.70187697710300       -0.22275177090498
H            1.50141454064846       -1.05786805055203       -0.29732602489998
H            1.77768953407072        0.49585804347979       -1.13133242586651
H            3.94969805634214       -0.61532053506206       -0.57952022463747
H            3.49805562081668       -0.64311125313312        1.13761004489452
H            3.77292548794657        0.90042592290516        0.32835310463870
