12
 energy: -21.149725046891 gnorm: 0.000655547117 xtb: 6.7.1pre (5071a88)
C           -2.32782603264177       -0.11099287415354        0.16005771489247
O           -1.04022058553469       -0.47225021613160        0.51505490216790
C           -0.00846941213881        0.05377617192767       -0.17636716434928
O           -0.08182873042877        0.80557678888335       -1.09033073666529
O            1.12147402881009       -0.43473633304857        0.37371384499733
C            2.33935097200029       -0.02974971982430       -0.14379128246695
H           -2.96754904192882       -0.99023115219738        0.33665418408707
H           -2.38050084458193        0.29358221727092       -0.85872952143397
H           -2.72358515932754        0.65225521338059        0.86059534793040
H            2.80054344791606        0.73887338562632        0.50891050305336
H            2.24505555168132        0.38334396286422       -1.15589236535594
H            3.02355581617456       -0.88944745459769       -0.06383188685708
