10
 energy: -20.117657931509 gnorm: 0.000369428426 xtb: 6.7.1pre (5071a88)
C           -0.20789401042899       -0.94332149899769       -0.10965257103419
C           -0.87205116661148        0.42414038729182       -0.06890704406086
O            0.17074975647744        1.31094203118301        0.05313209245241
C            1.36590826090843        0.65732078616729        0.20623111590140
O            2.39094795672524        1.14687481067519        0.48025161393297
O            1.13649601358076       -0.67741677182176       -0.00665119069444
H           -0.38286247032703       -1.53061901195004       -1.03793322102147
H           -0.53835712195777       -1.63363424301501        0.69546473838442
H           -1.46271577670594        0.69384747808403       -0.97206094741326
H           -1.60022144166067        0.55186603238316        0.76012542355305
