10
Coordinates from ORCA-job EC_cation_cpcm_7_moread E -342.057177589143
  C          -0.22127672458796     -0.93500203429503     -0.10987729330469
  C          -0.87443600707360      0.40860199879516     -0.06801409405441
  O           0.17886172984850      1.32753850807561      0.02496898575113
  C           1.36993654458763      0.65916288993938      0.20462415679109
  O           2.39483398229522      1.14633028896520      0.53259898657141
  O           1.15422269071288     -0.67848632337075     -0.04408083124255
  H          -0.41646101365852     -1.52315177362589     -1.03670026336389
  H          -0.52057922472712     -1.63127690291186      0.70470669582899
  H          -1.47226573774492      0.66268505556663     -0.97472892722388
  H          -1.59283623965212      0.56359829286154      0.76650259424682
