12
DMC_cation_moread_cpcm_10
C           -2.31887753191734       -0.11420611939425        0.12303701820082
O           -1.04928037365940       -0.72519664611338        0.31603016820038
C           -0.00023176118006        0.00505442162523       -0.06335388548869
O           -0.05059955703026        1.10320387645267       -0.53954166485500
O            1.11407349852025       -0.68746926954445        0.17420995414439
C            2.32563891213121       -0.03320990602767       -0.18143969101915
H           -3.05085888476050       -0.83387222792711        0.47938865131483
H           -2.47998063378434        0.10642655241884       -0.93394979795626
H           -2.38582439791880        0.81547883021088        0.69141924631525
H            2.43386168273846        0.89954555494367        0.37543492514890
H            2.33966930418006        0.19044858282958       -1.24991253214048
H            3.12240975268071       -0.72620365947402        0.07472114813501
