18
 energy: -28.146392572511 gnorm: 0.000607088574 xtb: 6.7.1pre (5071a88)
C           -2.47209251762866        0.36037172019139        0.65601926492542
C           -2.25983347370928       -0.64017191677934       -0.48012050784034
O           -1.18483105408471       -1.52813712487465       -0.22820686300234
C            0.08360801028459       -1.08010354285650       -0.67610131543878
O            0.22306463729492       -0.61271692574490       -1.84960522907873
O            0.65504606813030       -0.28076425254497        0.46530233586766
C            1.60528998043775        0.64960884421922        0.08467418548956
C            3.04019678964080        0.15403214719079        0.31126596798399
H           -1.53546844511327        0.87909034920937        0.84045597889667
H           -2.75902761253020       -0.16212807578565        1.56718266257735
H           -3.24729906134402        1.08353411572533        0.39594244907917
H           -2.04875675968271       -0.10446835266103       -1.41747302706896
H           -3.16339615855693       -1.25373627866375       -0.62011083259151
H            1.46740459408290        0.87671422188643       -0.98545610949510
H            1.44399194922948        1.57301445379168        0.67069810355650
H            3.75793446998354        0.92165243137854        0.02051332734011
H            3.20485217067184       -0.73830701639336       -0.28708275635284
H            3.18931642289202       -0.09748478728892        1.36038594515167
