18
Coordinates from ORCA-job DEC_anion_cpcm_5_moread E -422.192531766523
  C          -3.19787828475322      0.34323200130135      0.38312065197323
  C          -2.38451859897965     -0.82162364239937     -0.16586505643383
  O          -1.05103805060471     -0.83655573964597      0.33256649479004
  C          -0.09270785423453     -0.20312211742520     -0.56752404985324
  O          -0.39674782041004      0.89357038674766     -1.12827690242121
  O           1.10201327442389     -0.25764856112273      0.26483114346179
  C           2.23345656440667      0.30722598808730     -0.38164806510776
  C           3.45594334908098      0.04714861461821      0.47867722845983
  H          -2.75810021446229      1.29250166444382      0.06588756209188
  H          -3.21668193464531      0.31620252237877      1.47849396622786
  H          -4.23309709427609      0.29179117477334      0.02114754515044
  H          -2.37303915165280     -0.79056864816813     -1.26556398566456
  H          -2.84692767157561     -1.77184047181063      0.13884969340046
  H           2.36149874538537     -0.14691291980079     -1.38038220635873
  H           2.09368713237143      1.38821439485539     -0.53561125595294
  H           4.34897183413316      0.47441818502144      0.00853110269865
  H           3.61714898092866     -1.02793524298611      0.61267881967727
  H           3.33801680486409      0.50190242113165      1.46837089386083
