12
Coordinates from ORCA-job GBL_optfreq E -306.439133875649
  O           2.34722708683569      1.15639448075721      0.31279530929176
  C           1.24193039025512      0.71891033002979      0.15355578342877
  C           0.67623489677272     -0.61914865602092      0.60368816793838
  C          -0.59230714539200     -0.77261952570063     -0.23197544631260
  C          -0.98235093920548      0.68819805352148     -0.47612226494642
  O           0.26576041545442      1.42117203978932     -0.49652891077973
  H           1.42125599423994     -1.40580767972563      0.47193481500522
  H           0.45891045672048     -0.54079926842262      1.67683299670218
  H          -0.36349866881752     -1.26447190583883     -1.18323489052689
  H          -1.38731250028504     -1.33502890010405      0.26403802813693
  H          -1.48343838880212      0.86320918577245     -1.43106482496947
  H          -1.60241158777621      1.08999184594242      0.33608122703187
