12
Coordinates from ORCA-job GBL_optfreq E -306.437999355409
  O       2.323329      1.163302      0.326722
  C       1.221549      0.733000      0.160605
  C       0.687006     -0.625633      0.596014
  C      -0.594054     -0.769098     -0.216967
  C      -0.967634      0.693716     -0.485379
  O       0.250837      1.422848     -0.456374
  H       1.423980     -1.404889      0.417846
  H       0.490121     -0.578095      1.669113
  H      -0.391848     -1.284640     -1.156404
  H      -1.384628     -1.297880      0.309672
  H      -1.431972      0.854975     -1.459457
  H      -1.626688      1.092394      0.294609
12
Coordinates from ORCA-job GBL_optfreq E -306.438868623600
  O       2.340938      1.166061      0.332752
  C       1.236363      0.729768      0.160277
  C       0.687085     -0.623981      0.596623
  C      -0.597583     -0.771128     -0.220539
  C      -0.976748      0.693598     -0.485220
  O       0.258010      1.427091     -0.464759
  H       1.428477     -1.405910      0.427365
  H       0.489356     -0.570202      1.673998
  H      -0.392447     -1.285263     -1.164669
  H      -1.391987     -1.309091      0.301717
  H      -1.449162      0.855422     -1.457747
  H      -1.632303      1.093636      0.300203
12
Coordinates from ORCA-job GBL_optfreq E -306.439059823008
  O       2.346707      1.163267      0.327331
  C       1.239316      0.727642      0.165528
  C       0.683599     -0.622563      0.598652
  C      -0.597265     -0.771800     -0.223379
  C      -0.981426      0.692056     -0.483448
  O       0.262310      1.428359     -0.476742
  H       1.429141     -1.403757      0.437452
  H       0.483376     -0.565779      1.676532
  H      -0.386225     -1.281396     -1.169557
  H      -1.392462     -1.318054      0.291178
  H      -1.460999      0.855962     -1.451946
  H      -1.626072      1.096062      0.308398
12
Coordinates from ORCA-job GBL_optfreq E -306.439094107969
  O       2.345419      1.162736      0.327583
  C       1.243810      0.718941      0.154577
  C       0.679744     -0.621304      0.599599
  C      -0.595082     -0.772437     -0.227672
  C      -0.983573      0.689956     -0.479462
  O       0.264672      1.427448     -0.486822
  H       1.425554     -1.405269      0.453636
  H       0.473822     -0.551946      1.675799
  H      -0.377499     -1.275437     -1.175751
  H      -1.389724     -1.326747      0.278765
  H      -1.472055      0.859275     -1.442028
  H      -1.615088      1.094785      0.321777
12
Coordinates from ORCA-job GBL_optfreq E -306.439123248340
  O       2.345287      1.160384      0.322231
  C       1.241304      0.720686      0.158545
  C       0.678767     -0.620757      0.600845
  C      -0.594369     -0.771963     -0.228090
  C      -0.982988      0.689262     -0.479209
  O       0.264674      1.425446     -0.489499
  H       1.425005     -1.404126      0.455655
  H       0.471230     -0.552465      1.676461
  H      -0.374669     -1.272746     -1.176634
  H      -1.389095     -1.327438      0.276319
  H      -1.473383      0.859197     -1.440657
  H      -1.611762      1.094521      0.324033
12
Coordinates from ORCA-job GBL_optfreq E -306.439128971071
  O       2.345356      1.159202      0.319246
  C       1.241003      0.720418      0.157487
  C       0.677901     -0.620227      0.601761
  C      -0.593670     -0.771972     -0.229191
  C      -0.982568      0.688768     -0.478366
  O       0.264845      1.423722     -0.491862
  H       1.423786     -1.404447      0.460208
  H       0.467646     -0.549510      1.676639
  H      -0.371364     -1.270087     -1.178525
  H      -1.388461     -1.329366      0.272802
  H      -1.476075      0.860224     -1.437923
  H      -1.608401      1.093275      0.327724
12
Coordinates from ORCA-job GBL_optfreq E -306.439133094419
  O       2.346194      1.157380      0.314727
  C       1.241354      0.719461      0.154830
  C       0.676519     -0.619381      0.603212
  C      -0.592627     -0.772283     -0.231206
  C      -0.982242      0.688161     -0.476803
  O       0.265434      1.421413     -0.495762
  H       1.421808     -1.405278      0.468519
  H       0.461436     -0.543659      1.676868
  H      -0.365722     -1.265891     -1.181914
  H      -1.387543     -1.333264      0.266497
  H      -1.481296      0.862262     -1.432975
  H      -1.603316      1.091078      0.334007
12
Coordinates from ORCA-job GBL_optfreq E -306.439133731440
  O       2.346837      1.156736      0.313346
  C       1.241731      0.719076      0.153855
  C       0.676229     -0.619173      0.603606
  C      -0.592373     -0.772503     -0.231815
  C      -0.982274      0.688131     -0.476301
  O       0.265692      1.421048     -0.496613
  H       1.421316     -1.405648      0.471150
  H       0.459512     -0.541586      1.676883
  H      -0.364007     -1.264754     -1.182946
  H      -1.387348     -1.334607      0.264569
  H      -1.482996      0.862982     -1.431461
  H      -1.602318      1.090299      0.335729
12
Coordinates from ORCA-job GBL_optfreq E -306.439133875649
  O       2.347227      1.156394      0.312795
  C       1.241930      0.718910      0.153556
  C       0.676235     -0.619149      0.603688
  C      -0.592307     -0.772620     -0.231975
  C      -0.982351      0.688198     -0.476122
  O       0.265760      1.421172     -0.496529
  H       1.421256     -1.405808      0.471935
  H       0.458910     -0.540799      1.676833
  H      -0.363499     -1.264472     -1.183235
  H      -1.387313     -1.335029      0.264038
  H      -1.483438      0.863209     -1.431065
  H      -1.602412      1.089992      0.336081
