12
GBL_G2_anion
O      2.3472270000     1.1563940000     0.3127950000
C      1.2419300000     0.7189100000     0.1535560000
C      0.6762350000    -0.6191490000     0.6036880000
C     -0.5923070000    -0.7726200000    -0.2319750000
C     -0.9823510000     0.6881980000    -0.4761220000
O      0.2657600000     1.4211720000    -0.4965290000
H      1.4212560000    -1.4058080000     0.4719350000
H      0.4589100000    -0.5407990000     1.6768330000
H     -0.3634990000    -1.2644720000    -1.1832350000
H     -1.3873130000    -1.3350290000     0.2640380000
H     -1.4834380000     0.8632090000    -1.4310650000
H     -1.6024120000     1.0899920000     0.3360810000
