13
Coordinates from ORCA-job GBL_m1_dication_opt E -313.253508805819
  O       1.846171      1.672603     -0.043355
  C       0.832152      0.972527     -0.073020
  C       0.658840     -0.404327      0.497363
  C      -0.620787     -0.897429     -0.186373
  C      -1.351607      0.409023     -0.493083
  O      -0.272476      1.409790     -0.641248
  H       1.548469     -1.014771      0.327640
  H       0.540432     -0.295158      1.584917
  H      -0.377751     -1.425931     -1.112757
  H      -1.218339     -1.561104      0.440911
  H      -1.912192      0.417356     -1.427950
  H      -1.986027      0.757193      0.327703
  Li      2.790368      3.117533     -0.399008
13
Coordinates from ORCA-job GBL_m1_dication_opt E -313.259820307005
  O       1.831016      1.685304     -0.035260
  C       0.839753      0.959826     -0.090672
  C       0.687021     -0.421675      0.487219
  C      -0.638154     -0.887550     -0.154480
  C      -1.341247      0.405524     -0.507650
  O      -0.277065      1.391893     -0.671244
  H       1.576287     -1.031988      0.291429
  H       0.592375     -0.337788      1.585691
  H      -0.401575     -1.449243     -1.084564
  H      -1.245815     -1.524818      0.493129
  H      -1.915612      0.425970     -1.458440
  H      -2.010296      0.783094      0.297986
  Li      2.780564      3.158756     -0.351405
13
Coordinates from ORCA-job GBL_m1_dication_opt E -313.265521856643
  O       1.811067      1.701817     -0.033653
  C       0.850570      0.952713     -0.095735
  C       0.711645     -0.435018      0.473178
  C      -0.656835     -0.873508     -0.113114
  C      -1.317592      0.398428     -0.518887
  O      -0.291088      1.372800     -0.693527
  H       1.599323     -1.043356      0.252917
  H       0.635932     -0.396839      1.579908
  H      -0.422007     -1.464979     -1.046312
  H      -1.275460     -1.494766      0.541580
  H      -1.911750      0.441438     -1.475773
  H      -2.049743      0.792491      0.248069
  Li      2.793191      3.206086     -0.316909
13
Coordinates from ORCA-job GBL_m1_dication_opt E -313.268292165997
  O       1.802265      1.715438     -0.033718
  C       0.861948      0.955532     -0.090796
  C       0.719339     -0.435974      0.460716
  C      -0.664782     -0.868263     -0.087839
  C      -1.302668      0.394292     -0.525543
  O      -0.304130      1.365210     -0.697989
  H       1.601980     -1.045917      0.223869
  H       0.660823     -0.425565      1.569568
  H      -0.440167     -1.479210     -1.016800
  H      -1.284807     -1.486637      0.569100
  H      -1.913784      0.444616     -1.478212
  H      -2.084497      0.787720      0.204475
  Li      2.825732      3.236063     -0.295092
13
Coordinates from ORCA-job GBL_m1_dication_opt E -313.271110514765
  O       1.793624      1.737900     -0.030234
  C       0.877990      0.966109     -0.074236
  C       0.722755     -0.431342      0.441288
  C      -0.668627     -0.864134     -0.056843
  C      -1.286137      0.389943     -0.539251
  O      -0.326704      1.365276     -0.689905
  H       1.591257     -1.047309      0.169413
  H       0.707766     -0.451845      1.550386
  H      -0.482248     -1.510263     -0.968757
  H      -1.285539     -1.475824      0.610670
  H      -1.918996      0.432706     -1.481766
  H      -2.138783      0.772121      0.128375
  Li      2.890897      3.273967     -0.257400
13
Coordinates from ORCA-job GBL_m1_dication_opt E -313.272800393680
  O       1.788835      1.754749     -0.022671
  C       0.885070      0.974930     -0.058988
  C       0.721427     -0.426448      0.427998
  C      -0.665488     -0.863652     -0.043281
  C      -1.280590      0.387446     -0.554525
  O      -0.344162      1.376053     -0.674411
  H       1.573637     -1.047373      0.117991
  H       0.757717     -0.455882      1.534267
  H      -0.530356     -1.543437     -0.929812
  H      -1.277754     -1.458088      0.645432
  H      -1.919670      0.406770     -1.490605
  H      -2.173236      0.757620      0.069978
  Li      2.941824      3.294618     -0.219635
13
Coordinates from ORCA-job GBL_m1_dication_opt E -313.274043505685
  O       1.781524      1.767676     -0.013452
  C       0.884316      0.980057     -0.047470
  C       0.719126     -0.424114      0.418370
  C      -0.658854     -0.865839     -0.042075
  C      -1.280288      0.385220     -0.571525
  O      -0.360446      1.391657     -0.654840
  H       1.554296     -1.046877      0.066165
  H       0.812438     -0.448674      1.519099
  H      -0.584254     -1.581913     -0.894170
  H      -1.267558     -1.427404      0.680159
  H      -1.909950      0.374061     -1.507986
  H      -2.191526      0.747524      0.027771
  Li      2.978430      3.305931     -0.178308
13
Coordinates from ORCA-job GBL_m1_dication_opt E -313.274549439881
  O       1.774040      1.772888     -0.009354
  C       0.879116      0.981618     -0.044479
  C       0.720291     -0.425810      0.413199
  C      -0.656197     -0.866933     -0.045535
  C      -1.281997      0.383356     -0.580227
  O      -0.370844      1.401319     -0.638149
  H       1.547592     -1.045883      0.035298
  H       0.843350     -0.448463      1.510520
  H      -0.615274     -1.608872     -0.874169
  H      -1.264327     -1.396809      0.704571
  H      -1.889580      0.358377     -1.528872
  H      -2.195593      0.743987      0.014524
  Li      2.986677      3.308528     -0.155585
13
Coordinates from ORCA-job GBL_m1_dication_opt E -313.274848592178
  O       1.765820      1.778596     -0.007304
  C       0.872813      0.984952     -0.042802
  C       0.723820     -0.428295      0.406030
  C      -0.656650     -0.866620     -0.047207
  C      -1.284431      0.380220     -0.585728
  O      -0.381935      1.408911     -0.619240
  H       1.545637     -1.043292      0.005562
  H       0.867631     -0.457747      1.500614
  H      -0.640973     -1.635281     -0.852192
  H      -1.263177     -1.362807      0.730963
  H      -1.860910      0.349424     -1.554316
  H      -2.201855      0.739136      0.004395
  Li      2.991462      3.310109     -0.137035
13
Coordinates from ORCA-job GBL_m1_dication_opt E -313.274990870262
  O       1.758948      1.785346     -0.006296
  C       0.868129      0.989824     -0.040837
  C       0.727696     -0.429510      0.396983
  C      -0.658882     -0.865137     -0.044656
  C      -1.286866      0.376927     -0.588292
  O      -0.392120      1.413986     -0.603475
  H       1.544985     -1.039398     -0.021274
  H       0.885284     -0.471805      1.489159
  H      -0.659605     -1.655769     -0.828045
  H      -1.261500     -1.335971      0.754866
  H      -1.835689      0.344310     -1.574574
  H      -2.213497      0.732657     -0.010465
  Li      3.000369      3.311844     -0.121354
13
Coordinates from ORCA-job GBL_m1_dication_opt E -313.275093746174
  O       1.751677      1.793494     -0.005143
  C       0.863510      0.995612     -0.038716
  C       0.731890     -0.429717      0.385526
  C      -0.662066     -0.862952     -0.038785
  C      -1.290230      0.373694     -0.589048
  O      -0.402298      1.418119     -0.589709
  H       1.543973     -1.033716     -0.051089
  H       0.902940     -0.488612      1.474759
  H      -0.676258     -1.674580     -0.798877
  H      -1.258477     -1.311061      0.780247
  H      -1.811699      0.338264     -1.591882
  H      -2.229862      0.725590     -0.032618
  Li      3.014153      3.313172     -0.102925
13
Coordinates from ORCA-job GBL_m1_dication_opt E -313.275171670172
  O       1.743913      1.801854     -0.003695
  C       0.858967      1.000779     -0.037503
  C       0.735807     -0.429098      0.373409
  C      -0.665375     -0.860527     -0.030519
  C      -1.294157      0.371137     -0.587729
  O      -0.411174      1.420749     -0.580248
  H       1.541924     -1.026820     -0.082103
  H       0.921445     -0.504431      1.459045
  H      -0.690513     -1.690126     -0.768565
  H      -1.254879     -1.289214      0.804935
  H      -1.791587      0.329259     -1.604359
  H      -2.247638      0.720199     -0.059583
  Li      3.030520      3.313543     -0.081345
13
Coordinates from ORCA-job GBL_m1_dication_opt E -313.275229869737
  O       1.736153      1.809415     -0.002038
  C       0.854757      1.004456     -0.037891
  C       0.739057     -0.428112      0.362692
  C      -0.668248     -0.858402     -0.021263
  C      -1.298039      0.369486     -0.584627
  O      -0.417593      1.421599     -0.576408
  H       1.538662     -1.019792     -0.111496
  H       0.940729     -0.516405      1.444258
  H      -0.702179     -1.701184     -0.741895
  H      -1.252074     -1.271282      0.826578
  H      -1.776882      0.316413     -1.611681
  H      -2.263474      0.718187     -0.086573
  Li      3.046384      3.312926     -0.057916
13
Coordinates from ORCA-job GBL_m1_dication_opt E -313.275268527041
  O       1.730187      1.814514     -0.000746
  C       0.851809      1.006029     -0.039880
  C       0.741069     -0.427417      0.356300
  C      -0.670021     -0.857219     -0.013763
  C      -1.300623      0.368887     -0.581071
  O      -0.420282      1.420696     -0.578370
  H       1.535107     -1.014892     -0.132364
  H       0.956745     -0.522002      1.434409
  H      -0.709591     -1.706093     -0.725932
  H      -1.251355     -1.260200      0.840547
  H      -1.769694      0.302675     -1.613830
  H      -2.273077      0.720329     -0.105147
  Li      3.056978      3.311998     -0.038413
13
Coordinates from ORCA-job GBL_m1_dication_opt E -313.275288258523
  O       1.725587      1.818055      0.000241
  C       0.849752      1.006637     -0.042699
  C       0.742418     -0.427213      0.352872
  C      -0.671169     -0.856691     -0.007918
  C      -1.302077      0.368602     -0.578184
  O      -0.421049      1.419005     -0.582984
  H       1.531527     -1.011751     -0.147464
  H       0.970361     -0.524386      1.427976
  H      -0.714802     -1.707978     -0.716833
  H      -1.252267     -1.252439      0.849890
  H      -1.765878      0.289528     -1.614265
  H      -2.278335      0.724671     -0.116490
  Li      3.063184      3.311266     -0.022403
13
Coordinates from ORCA-job GBL_m1_dication_opt E -313.275292742076
  O       1.724753      1.818556      0.000503
  C       0.849492      1.006562     -0.043818
  C       0.742545     -0.427387      0.353271
  C      -0.671294     -0.856837     -0.006835
  C      -1.301946      0.368461     -0.578018
  O      -0.420486      1.418065     -0.585799
  H       1.530369     -1.011656     -0.149697
  H       0.973656     -0.523924      1.427647
  H      -0.715507     -1.707280     -0.717093
  H      -1.253347     -1.251317      0.850876
  H      -1.766279      0.285769     -1.614074
  H      -2.277765      0.727081     -0.116218
  Li      3.063063      3.311212     -0.019006
13
Coordinates from ORCA-job GBL_m1_dication_opt E -313.275294083046
  O       1.724270      1.818974      0.000724
  C       0.849332      1.006768     -0.044207
  C       0.742597     -0.427447      0.353481
  C      -0.671416     -0.856839     -0.006265
  C      -1.301834      0.368094     -0.578570
  O      -0.420493      1.417627     -0.587165
  H       1.529613     -1.011557     -0.151130
  H       0.975441     -0.524157      1.427388
  H      -0.716000     -1.707210     -0.716773
  H      -1.253792     -1.250187      0.851761
  H      -1.766257      0.284244     -1.614600
  H      -2.277219      0.727884     -0.115680
  Li      3.063011      3.311112     -0.017223
