13
Coordinates from ORCA-job GBL_m1_reduced_opt E -313.937387011707
  O       1.846171      1.672603     -0.043355
  C       0.832152      0.972527     -0.073020
  C       0.658840     -0.404327      0.497363
  C      -0.620787     -0.897429     -0.186373
  C      -1.351607      0.409023     -0.493083
  O      -0.272476      1.409790     -0.641248
  H       1.548469     -1.014771      0.327640
  H       0.540432     -0.295158      1.584917
  H      -0.377751     -1.425931     -1.112757
  H      -1.218339     -1.561104      0.440911
  H      -1.912192      0.417356     -1.427950
  H      -1.986027      0.757193      0.327703
  Li      2.790368      3.117533     -0.399008
13
Coordinates from ORCA-job GBL_m1_reduced_opt E -313.938364893542
  O       1.846222      1.672001     -0.039846
  C       0.823695      0.989657     -0.046089
  C       0.655691     -0.399520      0.506204
  C      -0.616814     -0.895160     -0.188604
  C      -1.352092      0.409786     -0.493516
  O      -0.289151      1.415763     -0.638151
  H       1.550549     -1.002012      0.327111
  H       0.533422     -0.312991      1.594102
  H      -0.364423     -1.414329     -1.118198
  H      -1.216357     -1.567898      0.429011
  H      -1.912698      0.413885     -1.429222
  H      -1.993223      0.747104      0.328023
  Li      2.812433      3.101019     -0.429083
13
Coordinates from ORCA-job GBL_m1_reduced_opt E -313.938864698559
  O       1.847950      1.671325     -0.038229
  C       0.818649      1.002522     -0.023014
  C       0.649624     -0.394462      0.519276
  C      -0.611676     -0.892302     -0.192989
  C      -1.350312      0.413190     -0.491751
  O      -0.305126      1.420042     -0.637835
  H       1.550336     -0.987655      0.333629
  H       0.516861     -0.333841      1.607443
  H      -0.345906     -1.397567     -1.126829
  H      -1.214478     -1.576594      0.408984
  H      -1.916421      0.411299     -1.424933
  H      -1.997584      0.733371      0.333668
  Li      2.835336      3.087977     -0.465681
13
Coordinates from ORCA-job GBL_m1_reduced_opt E -313.938955670554
  O       1.848986      1.671580     -0.037564
  C       0.819046      1.002897     -0.017147
  C       0.646389     -0.393487      0.525309
  C      -0.610026     -0.891422     -0.195897
  C      -1.348743      0.415555     -0.490526
  O      -0.306461      1.419210     -0.640347
  H       1.549375     -0.983755      0.340389
  H       0.506947     -0.340697      1.612926
  H      -0.338064     -1.390019     -1.131611
  H      -1.214777     -1.580504      0.398382
  H      -1.921171      0.411092     -1.420172
  H      -1.995492      0.728808      0.338573
  Li      2.841243      3.088046     -0.480575
13
Coordinates from ORCA-job GBL_m1_reduced_opt E -313.939016548102
  O       1.849117      1.672039     -0.036045
  C       0.820417      0.999935     -0.014268
  C       0.643192     -0.393546      0.530498
  C      -0.608934     -0.891078     -0.199282
  C      -1.346905      0.417890     -0.489309
  O      -0.303818      1.416588     -0.644544
  H       1.548018     -0.982383      0.349315
  H       0.496328     -0.344683      1.617258
  H      -0.331034     -1.383059     -1.136790
  H      -1.215482     -1.584593      0.387743
  H      -1.927677      0.411815     -1.413908
  H      -1.990043      0.726485      0.344742
  Li      2.844074      3.091895     -0.493670
13
Coordinates from ORCA-job GBL_m1_reduced_opt E -313.939049338045
  O       1.848119      1.672404     -0.033806
  C       0.821333      0.996835     -0.014431
  C       0.641565     -0.394177      0.532413
  C      -0.608712     -0.891397     -0.201383
  C      -1.345951      0.418689     -0.488638
  O      -0.300537      1.414250     -0.647383
  H       1.547011     -0.983397      0.355510
  H       0.490237     -0.344578      1.618582
  H      -0.327757     -1.379603     -1.139972
  H      -1.215812     -1.587339      0.382094
  H      -1.932023      0.412906     -1.409822
  H      -1.985123      0.726544      0.348829
  Li      2.844903      3.096168     -0.500253
13
Coordinates from ORCA-job GBL_m1_reduced_opt E -313.939087349862
  O       1.845947      1.672882     -0.029389
  C       0.821861      0.993701     -0.015681
  C       0.640269     -0.395177      0.533051
  C      -0.608805     -0.892244     -0.203414
  C      -1.345512      0.418489     -0.487924
  O      -0.297176      1.411914     -0.649167
  H       1.545857     -0.985730      0.361920
  H       0.484748     -0.342232      1.618601
  H      -0.325347     -1.376719     -1.143218
  H      -1.215699     -1.590613      0.377280
  H      -1.935932      0.414525     -1.406152
  H      -1.980056      0.727018      0.352786
  Li      2.847098      3.101492     -0.506955
13
Coordinates from ORCA-job GBL_m1_reduced_opt E -313.939133766799
  O       1.842575      1.673551     -0.021762
  C       0.821541      0.991854     -0.016701
  C       0.639270     -0.396369      0.532629
  C      -0.608968     -0.893515     -0.205315
  C      -1.345956      0.417078     -0.487014
  O      -0.295450      1.410627     -0.647948
  H       1.544685     -0.988537      0.367711
  H       0.480156     -0.338374      1.617559
  H      -0.323563     -1.374216     -1.146536
  H      -1.214857     -1.594521      0.373154
  H      -1.938227      0.416556     -1.403828
  H      -1.976993      0.726468      0.355888
  Li      2.853038      3.106702     -0.516097
13
Coordinates from ORCA-job GBL_m1_reduced_opt E -313.939182758799
  O       1.838332      1.674541     -0.010479
  C       0.820010      0.992608     -0.015502
  C       0.638566     -0.397573      0.531716
  C      -0.608828     -0.894849     -0.206925
  C      -1.347473      0.414677     -0.485865
  O      -0.297038      1.411763     -0.641386
  H       1.543883     -0.990440      0.371242
  H       0.477194     -0.334752      1.616144
  H      -0.322219     -1.372172     -1.149574
  H      -1.213249     -1.598528      0.369744
  H      -1.937117      0.418809     -1.404194
  H      -1.978805      0.723349      0.356858
  Li      2.863995      3.109872     -0.530040
13
Coordinates from ORCA-job GBL_m1_reduced_opt E -313.939210620293
  O       1.835787      1.675473     -0.001022
  C       0.818312      0.995390     -0.011691
  C       0.638497     -0.398410      0.531261
  C      -0.608350     -0.895319     -0.207393
  C      -1.348975      0.413108     -0.485167
  O      -0.300948      1.415134     -0.631954
  H       1.544109     -0.990085      0.369911
  H       0.477683     -0.334677      1.615668
  H      -0.322090     -1.371988     -1.150482
  H      -1.212183     -1.599882      0.368821
  H      -1.932138      0.420329     -1.407633
  H      -1.985481      0.719056      0.354451
  Li      2.873029      3.109177     -0.543030
13
Coordinates from ORCA-job GBL_m1_reduced_opt E -313.939224734522
  O       1.835548      1.676038      0.003944
  C       0.817629      0.997596     -0.007715
  C       0.638974     -0.399083      0.531285
  C      -0.608024     -0.894993     -0.206827
  C      -1.349463      0.413129     -0.485266
  O      -0.303786      1.418403     -0.624534
  H       1.544954     -0.988882      0.365623
  H       0.480591     -0.337564      1.616061
  H      -0.323325     -1.373656     -1.149304
  H      -1.212457     -1.598344      0.370323
  H      -1.926153      0.421046     -1.411910
  H      -1.992225      0.716461      0.350388
  Li      2.874990      3.107154     -0.550327
13
Coordinates from ORCA-job GBL_m1_reduced_opt E -313.939237479324
  O       1.835867      1.676843      0.009409
  C       0.817484      0.999218     -0.002652
  C       0.639674     -0.400099      0.531697
  C      -0.607793     -0.894277     -0.205972
  C      -1.349217      0.414150     -0.485877
  O      -0.305543      1.421810     -0.616921
  H       1.546104     -0.987492      0.359870
  H       0.484646     -0.342749      1.617021
  H      -0.325212     -1.376226     -1.147291
  H      -1.213636     -1.595316      0.372633
  H      -1.918821      0.421958     -1.417044
  H      -1.999160      0.714716      0.345067
  Li      2.872859      3.104768     -0.558200
13
Coordinates from ORCA-job GBL_m1_reduced_opt E -313.939251516992
  O       1.835795      1.678384      0.018049
  C       0.817600      1.000248      0.004028
  C       0.640418     -0.401555      0.532513
  C      -0.607627     -0.893330     -0.205290
  C      -1.348268      0.415938     -0.486948
  O      -0.305905      1.425238     -0.608689
  H       1.547365     -0.986239      0.353757
  H       0.489008     -0.349992      1.618473
  H      -0.327090     -1.378840     -1.145239
  H      -1.215398     -1.591678      0.374657
  H      -1.910480      0.423589     -1.422718
  H      -2.005668      0.713647      0.338996
  Li      2.867503      3.101896     -0.569848
13
Coordinates from ORCA-job GBL_m1_reduced_opt E -313.939270845975
  O       1.835039      1.681347      0.031966
  C       0.817738      1.000984      0.013500
  C       0.641093     -0.403310      0.534089
  C      -0.607334     -0.891992     -0.205138
  C      -1.346355      0.418695     -0.488618
  O      -0.304515      1.428620     -0.600290
  H       1.548713     -0.984938      0.347787
  H       0.493204     -0.360256      1.620747
  H      -0.328143     -1.380696     -1.143678
  H      -1.217527     -1.587740      0.375469
  H      -1.901438      0.426267     -1.428717
  H      -2.010940      0.713484      0.332490
  Li      2.857719      3.096839     -0.587867
13
Coordinates from ORCA-job GBL_m1_reduced_opt E -313.939293162266
  O       1.832706      1.686201      0.051650
  C       0.817236      1.001982      0.025081
  C       0.641370     -0.404647      0.536412
  C      -0.606555     -0.890439     -0.206243
  C      -1.343874      0.421689     -0.490425
  O      -0.301714      1.431500     -0.593181
  H       1.549844     -0.983529      0.344439
  H       0.495309     -0.371586      1.623608
  H      -0.326556     -1.379758     -1.144127
  H      -1.218793     -1.585462      0.373098
  H      -1.894050      0.430158     -1.433384
  H      -2.013304      0.713743      0.327699
  Li      2.845634      3.087453     -0.612886
13
Coordinates from ORCA-job GBL_m1_reduced_opt E -313.939311859924
  O       1.829862      1.690676      0.067664
  C       0.816032      1.003224      0.033212
  C       0.640760     -0.404451      0.538801
  C      -0.605216     -0.889377     -0.208726
  C      -1.342125      0.423197     -0.491077
  O      -0.299013      1.432334     -0.591737
  H       1.550004     -0.982577      0.347248
  H       0.492571     -0.377646      1.625975
  H      -0.321387     -1.374721     -1.147579
  H      -1.217801     -1.587239      0.366733
  H      -1.893372      0.433707     -1.433285
  H      -2.010482      0.713862      0.328546
  Li      2.837421      3.076316     -0.634033
13
Coordinates from ORCA-job GBL_m1_reduced_opt E -313.939324754163
  O       1.827958      1.692961      0.075663
  C       0.814630      1.004513      0.036462
  C       0.639269     -0.403081      0.541075
  C      -0.603427     -0.888986     -0.212053
  C      -1.341546      0.422926     -0.490110
  O      -0.297607      1.431558     -0.594647
  H       1.549119     -0.982247      0.355460
  H       0.485295     -0.377166      1.627649
  H      -0.313783     -1.366713     -1.153199
  H      -1.214953     -1.592528      0.357468
  H      -1.898406      0.436374     -1.428841
  H      -2.004387      0.713037      0.334385
  Li      2.835091      3.066658     -0.647572
13
Coordinates from ORCA-job GBL_m1_reduced_opt E -313.939329518817
  O       1.827857      1.692759      0.076177
  C       0.813859      1.005455      0.036735
  C       0.637960     -0.401989      0.542688
  C      -0.601900     -0.888959     -0.214433
  C      -1.341811      0.422025     -0.488495
  O      -0.298100      1.431207     -0.596190
  H       1.548273     -0.982023      0.362581
  H       0.478720     -0.374002      1.628557
  H      -0.308151     -1.360618     -1.157489
  H      -1.212494     -1.597087      0.350354
  H      -1.902609      0.437857     -1.424810
  H      -2.000885      0.711179      0.339474
  Li      2.836533      3.061501     -0.653410
13
Coordinates from ORCA-job GBL_m1_reduced_opt E -313.939331123758
  O       1.828609      1.691802      0.074373
  C       0.813749      1.005883      0.036582
  C       0.637314     -0.401597      0.543641
  C      -0.600937     -0.888920     -0.215576
  C      -1.342112      0.421518     -0.487310
  O      -0.299045      1.431617     -0.595438
  H       1.547988     -0.981759      0.366312
  H       0.474996     -0.371734      1.629030
  H      -0.305408     -1.357597     -1.159602
  H      -1.211279     -1.599319      0.346652
  H      -1.903953      0.438662     -1.422996
  H      -2.000350      0.709439      0.341777
  Li      2.837681      3.059311     -0.655705
13
Coordinates from ORCA-job GBL_m1_reduced_opt E -313.939331751239
  O       1.829184      1.691290      0.073706
  C       0.813763      1.006152      0.037354
  C       0.636993     -0.401543      0.544464
  C      -0.600173     -0.888735     -0.216338
  C      -1.342173      0.421491     -0.486563
  O      -0.299765      1.432444     -0.593412
  H       1.548086     -0.981332      0.368385
  H       0.472641     -0.371002      1.629529
  H      -0.303679     -1.355737     -1.160902
  H      -1.210633     -1.600412      0.344182
  H      -1.903721      0.439463     -1.422436
  H      -2.000949      0.707950      0.342597
  Li      2.837678      3.057277     -0.658826
