13
Coordinates from ORCA-job GBL_m1_cation_opt E -313.798047758340
  O       1.790173      1.732309     -0.061391
  C       0.796155      1.004489     -0.090267
  C       0.689236     -0.387558      0.459392
  C      -0.624379     -0.887802     -0.146237
  C      -1.344008      0.415801     -0.517228
  O      -0.313222      1.411526     -0.620571
  H       1.559809     -0.987955      0.201675
  H       0.645614     -0.321214      1.549851
  H      -0.431382     -1.484911     -1.036890
  H      -1.208552     -1.485668      0.547526
  H      -1.863733      0.376982     -1.474784
  H      -2.043711      0.746997      0.255841
  Li      2.825252      3.024310     -0.265179
13
Coordinates from ORCA-job GBL_m1_cation_opt E -313.799252308292
  O       1.802368      1.733979     -0.061335
  C       0.805784      1.005195     -0.092406
  C       0.686683     -0.384764      0.461372
  C      -0.627443     -0.892532     -0.151616
  C      -1.358616      0.408790     -0.515017
  O      -0.311596      1.415735     -0.630038
  H       1.566212     -0.983023      0.213946
  H       0.640466     -0.307774      1.555766
  H      -0.428853     -1.485205     -1.048265
  H      -1.210964     -1.503070      0.538475
  H      -1.884590      0.374066     -1.470337
  H      -2.048666      0.745768      0.265276
  Li      2.846468      3.030140     -0.264084
13
Coordinates from ORCA-job GBL_m1_cation_opt E -313.799951717429
  O       1.807235      1.729929     -0.063975
  C       0.809940      1.002183     -0.093930
  C       0.678291     -0.383045      0.466278
  C      -0.626560     -0.896828     -0.160423
  C      -1.370265      0.399639     -0.508566
  O      -0.309847      1.419215     -0.644421
  H       1.567810     -0.977179      0.237879
  H       0.622086     -0.292065      1.561243
  H      -0.416002     -1.476322     -1.064396
  H      -1.207473     -1.525633      0.518213
  H      -1.905342      0.375291     -1.458588
  H      -2.038850      0.748145      0.284201
  Li      2.866229      3.033975     -0.271777
13
Coordinates from ORCA-job GBL_m1_cation_opt E -313.800245197757
  O       1.806872      1.724482     -0.068196
  C       0.809136      0.999051     -0.095366
  C       0.670144     -0.381638      0.471930
  C      -0.623397     -0.898449     -0.168701
  C      -1.374728      0.392931     -0.501823
  O      -0.308774      1.418300     -0.655137
  H       1.565484     -0.973781      0.262624
  H       0.599934     -0.280163      1.565134
  H      -0.401379     -1.462411     -1.079505
  H      -1.202484     -1.542751      0.496691
  H      -1.919924      0.377630     -1.445719
  H      -2.023881      0.748452      0.303256
  Li      2.880249      3.035650     -0.283451
13
Coordinates from ORCA-job GBL_m1_cation_opt E -313.800444003846
  O       1.805359      1.718922     -0.073802
  C       0.806367      0.996772     -0.097190
  C       0.662689     -0.379965      0.478614
  C      -0.619244     -0.899156     -0.177177
  C      -1.375934      0.388050     -0.495075
  O      -0.308373      1.414532     -0.663210
  H       1.561650     -0.972276      0.289887
  H       0.574084     -0.269411      1.569061
  H      -0.385241     -1.445167     -1.095476
  H      -1.197336     -1.558766      0.473079
  H      -1.933723      0.380564     -1.431291
  H      -2.007585      0.745770      0.322731
  Li      2.894538      3.037436     -0.298413
13
Coordinates from ORCA-job GBL_m1_cation_opt E -313.800572257286
  O       1.804383      1.715084     -0.078793
  C       0.803635      0.995929     -0.098705
  C       0.658609     -0.378802      0.484027
  C      -0.616026     -0.899579     -0.183053
  C      -1.374775      0.386620     -0.490733
  O      -0.308921      1.410263     -0.665712
  H       1.558525     -0.973157      0.310812
  H       0.553349     -0.262532      1.572011
  H      -0.373110     -1.431369     -1.107245
  H      -1.194276     -1.569831      0.455371
  H      -1.943272      0.383375     -1.420391
  H      -1.997261      0.740862      0.335900
  Li      2.906393      3.040441     -0.311749
13
Coordinates from ORCA-job GBL_m1_cation_opt E -313.800631362478
  O       1.804708      1.713536     -0.081282
  C       0.802643      0.996053     -0.099047
  C       0.658371     -0.378697      0.486533
  C      -0.614917     -0.900061     -0.185027
  C      -1.372933      0.388266     -0.489675
  O      -0.310000      1.407882     -0.663229
  H       1.557560     -0.975391      0.319556
  H       0.543856     -0.260628      1.573392
  H      -0.368329     -1.425769     -1.111922
  H      -1.194111     -1.573982      0.448419
  H      -1.946656      0.385172     -1.416257
  H      -1.995857      0.736422      0.339705
  Li      2.912919      3.044502     -0.319426
13
Coordinates from ORCA-job GBL_m1_cation_opt E -313.800646613223
  O       1.805666      1.713384     -0.081102
  C       0.803397      0.996058     -0.098356
  C       0.659664     -0.379387      0.486401
  C      -0.615428     -0.900379     -0.184370
  C      -1.371947      0.390313     -0.490451
  O      -0.310624      1.407972     -0.659879
  H       1.558037     -0.977061      0.318284
  H       0.544297     -0.261883      1.573416
  H      -0.369435     -1.426997     -1.111090
  H      -1.195393     -1.572980      0.449837
  H      -1.945322      0.385524     -1.417395
  H      -1.999204      0.734868      0.337405
  Li      2.913546      3.047873     -0.320963
13
Coordinates from ORCA-job GBL_m1_cation_opt E -313.800652409632
  O       1.806501      1.713259     -0.080012
  C       0.804537      0.995638     -0.097449
  C       0.660585     -0.380280      0.485702
  C      -0.616196     -0.900509     -0.183438
  C      -1.371463      0.391656     -0.491271
  O      -0.310586      1.408546     -0.657922
  H       1.558461     -0.978173      0.315161
  H       0.546818     -0.263600      1.573085
  H      -0.371694     -1.429426     -1.109299
  H      -1.196622     -1.571017      0.452637
  H      -1.943241      0.385308     -1.419290
  H      -2.002002      0.735006      0.334649
  Li      2.912156      3.050896     -0.320813
13
Coordinates from ORCA-job GBL_m1_cation_opt E -313.800656216633
  O       1.807430      1.712818     -0.078292
  C       0.805985      0.994817     -0.096160
  C       0.661449     -0.381642      0.484725
  C      -0.617208     -0.900445     -0.182171
  C      -1.370850      0.392953     -0.492269
  O      -0.310164      1.409450     -0.655626
  H       1.558725     -0.979608      0.310775
  H       0.550719     -0.266240      1.572608
  H      -0.374954     -1.432642     -1.106701
  H      -1.198174     -1.568013      0.456534
  H      -1.939743      0.385122     -1.422137
  H      -2.004999      0.735821      0.331057
  Li      2.909038      3.054913     -0.320605
13
Coordinates from ORCA-job GBL_m1_cation_opt E -313.800658519260
  O       1.808061      1.712183     -0.076899
  C       0.806862      0.994075     -0.095296
  C       0.661673     -0.382667      0.484257
  C      -0.617827     -0.900303     -0.181501
  C      -1.370426      0.393474     -0.492790
  O      -0.309420      1.409804     -0.654742
  H       1.558583     -0.980680      0.308410
  H       0.553069     -0.268140      1.572411
  H      -0.376971     -1.434418     -1.105222
  H      -1.199164     -1.566156      0.458649
  H      -1.937447      0.385210     -1.423812
  H      -2.005939      0.736896      0.329186
  Li      2.906200      3.058027     -0.320912
13
Coordinates from ORCA-job GBL_m1_cation_opt E -313.800662828252
  O       1.809647      1.710391     -0.073706
  C       0.808608      0.992405     -0.093634
  C       0.661916     -0.384896      0.483608
  C      -0.619055     -0.899971     -0.180274
  C      -1.369383      0.394384     -0.493803
  O      -0.307238      1.410117     -0.653524
  H       1.557964     -0.983256      0.304356
  H       0.557470     -0.272281      1.572254
  H      -0.380857     -1.437600     -1.102495
  H      -1.201325     -1.562605      0.462338
  H      -1.932918      0.385898     -1.426936
  H      -2.006726      0.739587      0.325872
  Li      2.899150      3.065131     -0.322317
13
Coordinates from ORCA-job GBL_m1_cation_opt E -313.800668303893
  O       1.812311      1.707510     -0.069245
  C       0.810942      0.990195     -0.091547
  C       0.662204     -0.387832      0.483183
  C      -0.620583     -0.899574     -0.178838
  C      -1.367784      0.395657     -0.495110
  O      -0.303752      1.410169     -0.652285
  H       1.556963     -0.987025      0.300055
  H       0.562485     -0.277785      1.572398
  H      -0.385417     -1.441159     -1.099372
  H      -1.204342     -1.558437      0.466272
  H      -1.927437      0.387477     -1.430559
  H      -2.006876      0.743290      0.322030
  Li      2.888541      3.074818     -0.325243
13
Coordinates from ORCA-job GBL_m1_cation_opt E -313.800679130620
  O       1.818985      1.700551     -0.059732
  C       0.816064      0.985552     -0.087125
  C       0.662787     -0.393820      0.483111
  C      -0.623462     -0.898810     -0.176310
  C      -1.364052      0.398639     -0.497662
  O      -0.295655      1.409996     -0.649871
  H       1.554711     -0.995237      0.293103
  H       0.571083     -0.288953      1.573292
  H      -0.393545     -1.447206     -1.093935
  H      -1.210736     -1.550813      0.472563
  H      -1.916911      0.391899     -1.437127
  H      -2.006046      0.750909      0.314995
  Li      2.864030      3.094601     -0.333564
13
Coordinates from ORCA-job GBL_m1_cation_opt E -313.800692488309
  O       1.827213      1.692177     -0.050060
  C       0.821527      0.980889     -0.082240
  C       0.663151     -0.399531      0.484364
  C      -0.625726     -0.898034     -0.174708
  C      -1.359814      0.402032     -0.499752
  O      -0.286563      1.409722     -0.647414
  H       1.552282     -1.003631      0.289427
  H       0.576518     -0.299461      1.575224
  H      -0.399211     -1.450824     -1.090454
  H      -1.217014     -1.544989      0.475583
  H      -1.907601      0.397964     -1.442165
  H      -2.003619      0.758134      0.309674
  Li      2.836112      3.112857     -0.345740
13
Coordinates from ORCA-job GBL_m1_cation_opt E -313.800713289999
  O       1.837745      1.681643     -0.040652
  C       0.827402      0.976280     -0.076821
  C       0.662960     -0.404480      0.487968
  C      -0.626698     -0.897283     -0.175074
  C      -1.354932      0.405971     -0.500691
  O      -0.276241      1.409379     -0.644964
  H       1.549706     -1.011927      0.292300
  H       0.575477     -0.307838      1.578999
  H      -0.399804     -1.449641     -1.091095
  H      -1.222676     -1.543017      0.472182
  H      -1.901136      0.406755     -1.443997
  H      -1.998366      0.764144      0.308158
  Li      2.803815      3.127317     -0.364574
13
Coordinates from ORCA-job GBL_m1_cation_opt E -313.800735350967
  O       1.841816      1.677566     -0.041262
  C       0.828361      0.975847     -0.076188
  C       0.661717     -0.403444      0.492130
  C      -0.624462     -0.897533     -0.178880
  C      -1.353881      0.406874     -0.498341
  O      -0.274151      1.409056     -0.645147
  H       1.549241     -1.012283      0.304907
  H       0.562945     -0.303486      1.582113
  H      -0.390609     -1.440822     -1.098889
  H      -1.221594     -1.550383      0.460165
  H      -1.906821      0.411541     -1.437699
  H      -1.993061      0.761761      0.315602
  Li      2.797753      3.122611     -0.376774
13
Coordinates from ORCA-job GBL_m1_cation_opt E -313.800747582621
  O       1.843946      1.675300     -0.043347
  C       0.829423      0.975084     -0.075702
  C       0.660508     -0.402684      0.495161
  C      -0.622353     -0.897796     -0.182592
  C      -1.353223      0.407684     -0.495726
  O      -0.273924      1.409182     -0.644317
  H       1.549145     -1.012281      0.316432
  H       0.550967     -0.298194      1.583925
  H      -0.382703     -1.432902     -1.106111
  H      -1.219790     -1.556886      0.449738
  H      -1.911767      0.414323     -1.431808
  H      -1.989572      0.758591      0.322376
  Li      2.796596      3.117883     -0.386290
13
Coordinates from ORCA-job GBL_m1_cation_opt E -313.800753461123
  O       1.846119      1.672883     -0.043561
  C       0.831381      0.973392     -0.074035
  C       0.659521     -0.403515      0.497135
  C      -0.621195     -0.897689     -0.185188
  C      -1.352004      0.408830     -0.493945
  O      -0.272706      1.409513     -0.642564
  H       1.548722     -1.013830      0.324264
  H       0.543139     -0.295893      1.585020
  H      -0.378492     -1.427793     -1.110833
  H      -1.219132     -1.560190      0.443049
  H      -1.912876      0.416731     -1.428667
  H      -1.987013      0.757421      0.326267
  Li      2.791791      3.117444     -0.395204
13
Coordinates from ORCA-job GBL_m1_cation_opt E -313.800755073550
  O       1.845877      1.672945     -0.044016
  C       0.831757      0.972910     -0.073588
  C       0.659036     -0.403823      0.497306
  C      -0.620805     -0.897575     -0.186105
  C      -1.351883      0.408852     -0.493215
  O      -0.272925      1.409685     -0.641881
  H       1.548649     -1.014117      0.326834
  H       0.540792     -0.294788      1.584886
  H      -0.377587     -1.426243     -1.112384
  H      -1.218370     -1.561151      0.441299
  H      -1.913007      0.416863     -1.427779
  H      -1.986356      0.756910      0.327614
  Li      2.792075      3.116835     -0.397234
13
Coordinates from ORCA-job GBL_m1_cation_opt E -313.800755528156
  O       1.846171      1.672603     -0.043355
  C       0.832152      0.972527     -0.073020
  C       0.658840     -0.404327      0.497363
  C      -0.620787     -0.897429     -0.186373
  C      -1.351607      0.409023     -0.493083
  O      -0.272476      1.409790     -0.641248
  H       1.548469     -1.014771      0.327640
  H       0.540432     -0.295158      1.584917
  H      -0.377751     -1.425931     -1.112757
  H      -1.218339     -1.561104      0.440911
  H      -1.912192      0.417356     -1.427950
  H      -1.986027      0.757193      0.327703
  Li      2.790368      3.117533     -0.399008
