13
Coordinates from ORCA-job GBL_m1_cation_opt E -313.800755528156
  O           1.84617109973937      1.67260317775860     -0.04335487736841
  C           0.83215244073306      0.97252669879870     -0.07302044526174
  C           0.65884037892107     -0.40432670468165      0.49736290378513
  C          -0.62078714317785     -0.89742941016271     -0.18637337927923
  C          -1.35160718023706      0.40902323511696     -0.49308271585653
  O          -0.27247641426486      1.40979033893924     -0.64124823849608
  H           1.54846886545041     -1.01477143105841      0.32763960739452
  H           0.54043165156303     -0.29515799551397      1.58491738340957
  H          -0.37775052195036     -1.42593149658424     -1.11275725462433
  H          -1.21833905926506     -1.56110408235923      0.44091057193892
  H          -1.91219174791624      0.41735609148343     -1.42795007063533
  H          -1.98602714241669      0.75719273613411      0.32770263636500
  Li          2.79036763882117      3.11753335722915     -0.39900797737149
