13
Coordinates from ORCA-job GBL_m1_reduced_opt E -313.939331751239
  O           1.82918416624321      1.69129039876426      0.07370575370617
  C           0.81376272221557      1.00615207888584      0.03735417811797
  C           0.63699344313265     -0.40154316459654      0.54446354690127
  C          -0.60017262719708     -0.88873549673250     -0.21633781328372
  C          -1.34217295113523      0.42149092749064     -0.48656297253708
  O          -0.29976530218781      1.43244356779564     -0.59341176490562
  H           1.54808644872829     -0.98133201494849      0.36838477563313
  H           0.47264123076134     -0.37100152330334      1.62952942091069
  H          -0.30367935649597     -1.35573743089668     -1.16090213935301
  H          -1.21063259971982     -1.60041195365153      0.34418237702630
  H          -1.90372050824286      0.43946259441940     -1.42243619431476
  H          -2.00094933934515      0.70794974812781      0.34259728826817
  Li          2.83767767324285      3.05727726864548     -0.65882645616952
