13
Coordinates from ORCA-job GBL_m1_dication_opt E -313.275294083046
  O           1.72427042912485      1.81897406450347      0.00072430427906
  C           0.84933207116965      1.00676831231173     -0.04420746292697
  C           0.74259722286923     -0.42744698623695      0.35348074597189
  C          -0.67141633328741     -0.85683930848345     -0.00626544546849
  C          -1.30183430734286      0.36809396557951     -0.57857017059272
  O          -0.42049278154803      1.41762708779507     -0.58716464389418
  H           1.52961322534198     -1.01155687242048     -0.15112963873833
  H           0.97544088287901     -0.52415745179334      1.42738757202052
  H          -0.71599980235981     -1.70720972313487     -0.71677332164247
  H          -1.25379192823810     -1.25018724407362      0.85176087862847
  H          -1.76625687750522      0.28424371257967     -1.61459985954336
  H          -2.27721931507301      0.72788373281074     -0.11568036925101
  Li          3.06301051396970      3.31111171056250     -0.01722258884241
