17
 energy: -29.400147114150 gnorm: 0.000736102244 xtb: 6.7.1pre (5071a88)
C            2.27108293215699       -1.16455092254977        0.01172596092872
O            1.42162316014302       -0.54005882362561       -0.91565410714829
P            0.00928158502208        0.10449634520318       -0.61840441348833
O           -0.70417532852379        0.67109575791233       -1.73956346920125
O           -0.75610414237798       -1.06910046311475        0.19296168289962
C           -2.07568586450865       -1.41061853723852       -0.10625080341714
O            0.33547596797000        1.12743872770514        0.59704694459011
C           -0.11495671796667        2.44607734420313        0.57303459114694
H            3.21262378370538       -0.60134159862391        0.05141364621478
H            2.52383462777687       -2.15789194690413       -0.38253745482951
H            1.82660852935195       -1.24205977773063        1.00331832289425
H           -2.13721156972926       -2.50725942369399       -0.13964972099399
H           -2.40503991152714       -0.96095142903893       -1.04644028257294
H           -2.73652966856081       -1.09735932088274        0.71557109530656
H            0.72992766834699        3.09633953181780        0.83945515554699
H           -0.86531397630464        2.59420865219531        1.36429750157442
H           -0.53544108497458        2.71153589436586       -0.40032465945096
