17
Coordinates from ORCA-job DME_m1_cation_opt E -316.158133467376
  C       2.616107      0.458334     -0.868697
  O       1.204759      0.281670     -0.849911
  C       0.732218     -0.156519      0.417433
  C      -0.673541     -0.712518      0.246482
  O      -1.422398      0.186447     -0.561815
  C      -2.824725     -0.021060     -0.446536
  H       2.886547      0.805551     -1.862432
  H       2.923365      1.199085     -0.126303
  H       3.120786     -0.490513     -0.666973
  H       0.724873      0.690064      1.115675
  H       1.385833     -0.942913      0.811692
  H      -0.638301     -1.695970     -0.239170
  H      -1.143165     -0.813987      1.231386
  H      -3.092389     -1.037245     -0.747093
  H      -3.151483      0.152497      0.582723
  H      -3.313298      0.693412     -1.103877
  Li     -0.245046      0.877849     -1.730801
17
Coordinates from ORCA-job DME_m1_cation_opt E -316.159641269112
  C       2.632379      0.463639     -0.880022
  O       1.208304      0.275514     -0.850935
  C       0.731450     -0.162397      0.432805
  C      -0.669112     -0.722850      0.258178
  O      -1.425348      0.190299     -0.555646
  C      -2.843426     -0.015691     -0.453227
  H       2.898234      0.815446     -1.878313
  H       2.939144      1.207904     -0.135379
  H       3.143505     -0.485001     -0.682601
  H       0.726894      0.688186      1.130719
  H       1.384202     -0.948780      0.833265
  H      -0.637194     -1.708024     -0.230727
  H      -1.136580     -0.830382      1.245311
  H      -3.109550     -1.035053     -0.757566
  H      -3.177792      0.159345      0.575286
  H      -3.329408      0.701773     -1.116668
  Li     -0.245562      0.880258     -1.732701
17
Coordinates from ORCA-job DME_m1_cation_opt E -316.160180456082
  C       2.640204      0.464072     -0.885623
  O       1.209379      0.263657     -0.853415
  C       0.729673     -0.165449      0.443450
  C      -0.664903     -0.729054      0.265953
  O      -1.425590      0.198774     -0.544926
  C      -2.852231     -0.013426     -0.455555
  H       2.899012      0.819582     -1.885095
  H       2.938731      1.210423     -0.139542
  H       3.154575     -0.483138     -0.691123
  H       0.730678      0.692217      1.131923
  H       1.382961     -0.948474      0.850029
  H      -0.640863     -1.709533     -0.231767
  H      -1.132105     -0.844002      1.252591
  H      -3.108052     -1.033788     -0.765599
  H      -3.191838      0.160437      0.571102
  H      -3.332713      0.705096     -1.122803
  Li     -0.246779      0.886789     -1.737822
17
Coordinates from ORCA-job DME_m1_cation_opt E -316.160484757219
  C       2.642010      0.461692     -0.887538
  O       1.209034      0.248210     -0.856978
  C       0.728452     -0.167959      0.449009
  C      -0.662297     -0.730388      0.271883
  O      -1.424342      0.210443     -0.531079
  C      -2.854081     -0.013386     -0.455539
  H       2.894458      0.819633     -1.887465
  H       2.929264      1.210770     -0.140550
  H       3.159976     -0.483087     -0.693584
  H       0.735688      0.698042      1.125666
  H       1.382824     -0.947425      0.860644
  H      -0.647296     -1.704645     -0.236581
  H      -1.130128     -0.851488      1.257537
  H      -3.095538     -1.034176     -0.773631
  H      -3.199843      0.155515      0.569345
  H      -3.329638      0.706094     -1.124824
  Li     -0.248405      0.896341     -1.744536
17
Coordinates from ORCA-job DME_m1_cation_opt E -316.160763829137
  C       2.639697      0.457904     -0.887885
  O       1.207977      0.226769     -0.861872
  C       0.728695     -0.172313      0.451313
  C      -0.661615     -0.727551      0.279147
  O      -1.422126      0.226659     -0.511596
  C      -2.851368     -0.014532     -0.454983
  H       2.886770      0.815548     -1.888715
  H       2.912222      1.212785     -0.142106
  H       3.164798     -0.481630     -0.690306
  H       0.743929      0.702971      1.114893
  H       1.383565     -0.948944      0.867327
  H      -0.657731     -1.694975     -0.241241
  H      -1.129501     -0.853428      1.264157
  H      -3.074188     -1.034630     -0.786537
  H      -3.207393      0.142442      0.567798
  H      -3.322983      0.707344     -1.123664
  Li     -0.250606      0.909764     -1.753951
17
Coordinates from ORCA-job DME_m1_cation_opt E -316.160979426583
  C       2.634466      0.455375     -0.887688
  O       1.207109      0.206094     -0.865873
  C       0.731181     -0.178633      0.450190
  C      -0.663659     -0.721978      0.286845
  O      -1.419977      0.241296     -0.492393
  C      -2.845791     -0.015517     -0.455343
  H       2.879891      0.806837     -1.890760
  H       2.894017      1.220091     -0.147676
  H       3.170083     -0.475877     -0.680149
  H       0.753911      0.702552      1.105781
  H       1.384471     -0.955361      0.868216
  H      -0.669297     -1.685474     -0.240828
  H      -1.129385     -0.848863      1.272645
  H      -3.053795     -1.032694     -0.804334
  H      -3.214098      0.123005      0.565618
  H      -3.316332      0.711586     -1.118569
  Li     -0.252655      0.921744     -1.763901
17
Coordinates from ORCA-job DME_m1_cation_opt E -316.161117026986
  C       2.629229      0.455637     -0.888317
  O       1.207115      0.192781     -0.866821
  C       0.734914     -0.185181      0.448040
  C      -0.666990     -0.717194      0.293450
  O      -1.418730      0.248700     -0.479325
  C      -2.840771     -0.015207     -0.457417
  H       2.876433      0.794500     -1.895308
  H       2.881732      1.233200     -0.159009
  H       3.175842     -0.465942     -0.665626
  H       0.762463      0.696609      1.103484
  H       1.384383     -0.965099      0.865925
  H      -0.677655     -1.681157     -0.234307
  H      -1.128164     -0.841680      1.281611
  H      -3.043707     -1.027138     -0.824982
  H      -3.219521      0.102232      0.562606
  H      -3.312419      0.720517     -1.110302
  Li     -0.254013      0.928607     -1.771921
17
Coordinates from ORCA-job DME_m1_cation_opt E -316.161169998946
  C       2.626898      0.457916     -0.889821
  O       1.207674      0.189947     -0.864945
  C       0.737440     -0.188889      0.447529
  C      -0.668975     -0.716244      0.296757
  O      -1.418468      0.247759     -0.475774
  C      -2.839121     -0.013832     -0.460082
  H       2.876376      0.783369     -1.900923
  H       2.878878      1.246306     -0.171425
  H       3.180063     -0.456747     -0.653537
  H       0.766306      0.689937      1.107657
  H       1.383013     -0.972612      0.864506
  H      -0.679914     -1.683158     -0.226512
  H      -1.125715     -0.837766      1.287404
  H      -3.045933     -1.020478     -0.841028
  H      -3.222371      0.088542      0.560235
  H      -3.311635      0.730844     -1.102504
  Li     -0.254378      0.929291     -1.775756
17
Coordinates from ORCA-job DME_m1_cation_opt E -316.161182767463
  C       2.626598      0.459826     -0.890903
  O       1.207844      0.191221     -0.863233
  C       0.738085     -0.189928      0.448311
  C      -0.669215     -0.717377      0.297535
  O      -1.418330      0.245054     -0.476587
  C      -2.839343     -0.012709     -0.461662
  H       2.876907      0.776633     -1.904701
  H       2.879442      1.254310     -0.179224
  H       3.181713     -0.451763     -0.646748
  H       0.767200      0.686519      1.111777
  H       1.381682     -0.975777      0.864642
  H      -0.679549     -1.686248     -0.222363
  H      -1.123783     -0.837526      1.289472
  H      -3.050483     -1.016104     -0.849361
  H      -3.222779      0.082589      0.559425
  H      -3.311614      0.737801     -1.097699
  Li     -0.254236      0.927662     -1.776902
17
Coordinates from ORCA-job DME_m1_cation_opt E -316.161186727864
  C       2.626448      0.461010     -0.891377
  O       1.207625      0.191844     -0.862466
  C       0.738131     -0.190447      0.449079
  C      -0.669012     -0.718372      0.297818
  O      -1.417951      0.243706     -0.477259
  C      -2.839486     -0.012035     -0.462414
  H       2.876921      0.771882     -1.907018
  H       2.878938      1.259645     -0.184144
  H       3.182204     -0.448751     -0.641804
  H       0.767940      0.684916      1.113862
  H       1.380945     -0.977328      0.864874
  H      -0.679618     -1.688025     -0.220541
  H      -1.122793     -0.837968      1.290272
  H      -3.052721     -1.013256     -0.854705
  H      -3.222218      0.078753      0.559373
  H      -3.311203      0.742477     -1.094197
  Li     -0.254009      0.926134     -1.777573
17
Coordinates from ORCA-job DME_m1_cation_opt E -316.161188954924
  C       2.626047      0.461927     -0.891534
  O       1.207223      0.191458     -0.862256
  C       0.738146     -0.191195      0.449595
  C      -0.668846     -0.718977      0.298203
  O      -1.417372      0.243360     -0.477297
  C      -2.839285     -0.011531     -0.462841
  H       2.876602      0.767401     -1.908784
  H       2.877079      1.264521     -0.188299
  H       3.182383     -0.446012     -0.636773
  H       0.769088      0.683754      1.114741
  H       1.380674     -0.978707      0.864751
  H      -0.680373     -1.688905     -0.219500
  H      -1.122455     -0.838146      1.290841
  H      -3.053337     -1.010775     -0.859666
  H      -3.221275      0.074836      0.559580
  H      -3.310452      0.746549     -1.090745
  Li     -0.253709      0.924625     -1.778235
17
Coordinates from ORCA-job DME_m1_cation_opt E -316.161190485843
  C       2.625405      0.462680     -0.891525
  O       1.206775      0.190180     -0.862449
  C       0.738285     -0.192271      0.449811
  C      -0.668850     -0.719177      0.298784
  O      -1.416703      0.243772     -0.476733
  C      -2.838800     -0.011094     -0.463096
  H       2.876148      0.763204     -1.910171
  H       2.874218      1.269125     -0.191984
  H       3.182562     -0.443279     -0.631725
  H       0.770536      0.682705      1.114766
  H       1.380807     -0.980159      0.864266
  H      -0.681605     -1.689101     -0.218828
  H      -1.122646     -0.837900      1.291398
  H      -3.052825     -1.008494     -0.864448
  H      -3.220283      0.070777      0.559840
  H      -3.309575      0.750170     -1.087379
  Li     -0.253310      0.923046     -1.778749
17
Coordinates from ORCA-job DME_m1_cation_opt E -316.161191343008
  C       2.624788      0.463134     -0.891499
  O       1.206488      0.188579     -0.862842
  C       0.738528     -0.193319      0.449763
  C      -0.669023     -0.719048      0.299391
  O      -1.416214      0.244579     -0.475846
  C      -2.838293     -0.010757     -0.463218
  H       2.875792      0.760513     -1.910980
  H       2.871576      1.272250     -0.194373
  H       3.182886     -0.441228     -0.628266
  H       0.771696      0.681954      1.114288
  H       1.381159     -0.981315      0.863765
  H      -0.682714     -1.688816     -0.218515
  H      -1.123104     -0.837451      1.291884
  H      -3.051816     -1.006946     -0.867776
  H      -3.219753      0.067841      0.559955
  H      -3.308958      0.752468     -1.085140
  Li     -0.252897      0.921747     -1.778811
17
Coordinates from ORCA-job DME_m1_cation_opt E -316.161191782199
  C       2.624401      0.463314     -0.891566
  O       1.206416      0.187257     -0.863175
  C       0.738757     -0.194020      0.449660
  C      -0.669228     -0.718850      0.299847
  O      -1.416007      0.245319     -0.475008
  C      -2.837981     -0.010516     -0.463291
  H       2.875585      0.759509     -1.911344
  H       2.869971      1.273664     -0.195448
  H       3.183342     -0.440094     -0.626860
  H       0.772268      0.681578      1.113791
  H       1.381433     -0.981970      0.863595
  H      -0.683327     -1.688439     -0.218452
  H      -1.123442     -0.837162      1.292253
  H      -3.050990     -1.006196     -0.869371
  H      -3.219812      0.066465      0.559863
  H      -3.308697      0.753428     -1.084279
  Li     -0.252550      0.920896     -1.778435
