17
Coordinates from ORCA-job DME_m1_reduced_opt E -316.287868315399
  C       2.624401      0.463314     -0.891566
  O       1.206416      0.187257     -0.863175
  C       0.738757     -0.194020      0.449660
  C      -0.669228     -0.718850      0.299847
  O      -1.416007      0.245319     -0.475008
  C      -2.837981     -0.010516     -0.463291
  H       2.875585      0.759509     -1.911344
  H       2.869971      1.273664     -0.195448
  H       3.183342     -0.440094     -0.626860
  H       0.772268      0.681578      1.113791
  H       1.381433     -0.981970      0.863595
  H      -0.683327     -1.688439     -0.218452
  H      -1.123442     -0.837162      1.292253
  H      -3.050990     -1.006196     -0.869371
  H      -3.219812      0.066465      0.559863
  H      -3.308697      0.753428     -1.084279
  Li     -0.252550      0.920896     -1.778435
17
Coordinates from ORCA-job DME_m1_reduced_opt E -316.288479708859
  C       2.611213      0.462594     -0.889683
  O       1.202316      0.182421     -0.862057
  C       0.739449     -0.197845      0.448453
  C      -0.669667     -0.716683      0.302644
  O      -1.411074      0.246683     -0.471067
  C      -2.824654     -0.010058     -0.464084
  H       2.852201      0.762357     -1.910893
  H       2.853387      1.276706     -0.194690
  H       3.174232     -0.441765     -0.624235
  H       0.775060      0.676409      1.115149
  H       1.382749     -0.990229      0.859137
  H      -0.685371     -1.688061     -0.213367
  H      -1.124671     -0.830034      1.297844
  H      -3.035373     -1.006119     -0.873917
  H      -3.210027      0.067105      0.561009
  H      -3.286018      0.754464     -1.091347
  Li     -0.253616      0.926238     -1.787118
17
Coordinates from ORCA-job DME_m1_reduced_opt E -316.289208230441
  C       2.590213      0.463778     -0.890167
  O       1.194329      0.170355     -0.855086
  C       0.742672     -0.209448      0.451875
  C      -0.670739     -0.715967      0.314502
  O      -1.400344      0.246361     -0.459030
  C      -2.804420     -0.007110     -0.468813
  H       2.811088      0.769058     -1.915053
  H       2.829852      1.286314     -0.201422
  H       3.166700     -0.435288     -0.624286
  H       0.784497      0.661245      1.124409
  H       1.385741     -1.008769      0.854989
  H      -0.691266     -1.691403     -0.195570
  H      -1.126171     -0.819418      1.312861
  H      -3.015330     -1.001306     -0.887752
  H      -3.203272      0.067500      0.554258
  H      -3.247413      0.759806     -1.107516
  Li     -0.255997      0.938475     -1.806418
17
Coordinates from ORCA-job DME_m1_reduced_opt E -316.289724789873
  C       2.576843      0.466855     -0.894610
  O       1.187291      0.157511     -0.846391
  C       0.746796     -0.222031      0.459914
  C      -0.671713     -0.718186      0.329758
  O      -1.390437      0.245296     -0.445062
  C      -2.792646     -0.003007     -0.475954
  H       2.782361      0.774409     -1.922470
  H       2.815623      1.296802     -0.213334
  H       3.168796     -0.422890     -0.628983
  H       0.796050      0.645776      1.136543
  H       1.388659     -1.025916      0.857140
  H      -0.698261     -1.696672     -0.175265
  H      -1.126493     -0.814678      1.329626
  H      -3.004409     -0.993853     -0.904248
  H      -3.208203      0.066380      0.541436
  H      -3.221720      0.766772     -1.121400
  Li     -0.258397      0.951615     -1.824921
17
Coordinates from ORCA-job DME_m1_reduced_opt E -316.290211474394
  C       2.565887      0.471275     -0.903108
  O       1.179151      0.139409     -0.836102
  C       0.752414     -0.237531      0.473302
  C      -0.672850     -0.722422      0.351120
  O      -1.379137      0.246263     -0.425127
  C      -2.784199      0.002307     -0.486647
  H       2.758498      0.777612     -1.933902
  H       2.801716      1.308858     -0.230531
  H       3.177207     -0.404022     -0.638105
  H       0.812739      0.628766      1.151192
  H       1.391672     -1.044586      0.866126
  H      -0.708957     -1.702646     -0.150205
  H      -1.125459     -0.814357      1.351553
  H      -2.992623     -0.983620     -0.927286
  H      -3.222314      0.061514      0.520637
  H      -3.202125      0.776583     -1.134122
  Li     -0.261480      0.970779     -1.847013
17
Coordinates from ORCA-job DME_m1_reduced_opt E -316.290356279289
  C       2.564966      0.472556     -0.907026
  O       1.177107      0.128729     -0.835214
  C       0.754704     -0.242978      0.478639
  C      -0.673546     -0.723416      0.359852
  O      -1.376310      0.251215     -0.414593
  C      -2.784195      0.003674     -0.490818
  H       2.758352      0.774974     -1.938501
  H       2.794644      1.312356     -0.236332
  H       3.183619     -0.395605     -0.640960
  H       0.821291      0.625421      1.152713
  H       1.391781     -1.049794      0.872738
  H      -0.716004     -1.702173     -0.143191
  H      -1.123727     -0.816904      1.360176
  H      -2.984731     -0.980258     -0.937630
  H      -3.231605      0.055005      0.511394
  H      -3.203343      0.780836     -1.133520
  Li     -0.262864      0.980544     -1.855947
17
Coordinates from ORCA-job DME_m1_reduced_opt E -316.290405815932
  C       2.566807      0.471964     -0.907528
  O       1.178061      0.121411     -0.838660
  C       0.755130     -0.243818      0.478605
  C      -0.673962     -0.722166      0.361593
  O      -1.377296      0.257518     -0.408616
  C      -2.785973      0.003114     -0.490937
  H       2.764974      0.769720     -1.939215
  H       2.788953      1.313122     -0.236853
  H       3.187692     -0.392972     -0.638185
  H       0.824822      0.627980      1.147496
  H       1.390548     -1.049683      0.876070
  H      -0.720461     -1.698477     -0.145298
  H      -1.121900     -0.818862      1.362155
  H      -2.978106     -0.979880     -0.942179
  H      -3.236148      0.047745      0.509841
  H      -3.209600      0.782680     -1.127403
  Li     -0.263402      0.984787     -1.859107
17
Coordinates from ORCA-job DME_m1_reduced_opt E -316.290435270556
  C       2.569013      0.470476     -0.906716
  O       1.180392      0.114293     -0.843332
  C       0.754863     -0.243340      0.476433
  C      -0.674215     -0.719991      0.360918
  O      -1.379739      0.264336     -0.403151
  C      -2.787756      0.002074     -0.489372
  H       2.772374      0.762112     -1.939031
  H       2.782819      1.314567     -0.237476
  H       3.191096     -0.391700     -0.631319
  H       0.826149      0.632411      1.139729
  H       1.388717     -1.048139      0.878337
  H      -0.723649     -1.693472     -0.150853
  H      -1.119766     -0.820600      1.362110
  H      -2.971754     -0.979355     -0.946672
  H      -3.238867      0.038563      0.511337
  H      -3.215883      0.784790     -1.118758
  Li     -0.263656      0.987155     -1.860405
17
Coordinates from ORCA-job DME_m1_reduced_opt E -316.290456625252
  C       2.571131      0.468525     -0.905564
  O       1.183631      0.107260     -0.847633
  C       0.754305     -0.242426      0.473583
  C      -0.674323     -0.717763      0.359246
  O      -1.382942      0.270592     -0.397440
  C      -2.789348      0.001253     -0.486993
  H       2.778856      0.752107     -1.939244
  H       2.777010      1.318051     -0.240835
  H       3.194371     -0.390133     -0.620954
  H       0.825735      0.637221      1.131685
  H       1.386639     -1.046062      0.880612
  H      -0.725387     -1.688369     -0.157804
  H      -1.117349     -0.822883      1.361289
  H      -2.966809     -0.977195     -0.953017
  H      -3.240773      0.027316      0.514180
  H      -3.220853      0.788265     -1.108664
  Li     -0.263754      0.988425     -1.860667
17
Coordinates from ORCA-job DME_m1_reduced_opt E -316.290470371063
  C       2.572807      0.466757     -0.904860
  O       1.186821      0.101976     -0.849964
  C       0.753789     -0.241533      0.471480
  C      -0.674296     -0.716461      0.357549
  O      -1.385901      0.274493     -0.392557
  C      -2.790641      0.001158     -0.484741
  H       2.783073      0.741700     -1.940411
  H       2.773484      1.323248     -0.247339
  H       3.197211     -0.387801     -0.609744
  H       0.823965      0.640865      1.126201
  H       1.384919     -1.044051      0.883138
  H      -0.725289     -1.684866     -0.163805
  H      -1.115180     -0.825924      1.360311
  H      -2.965076     -0.973243     -0.960547
  H      -3.242131      0.016311      0.516887
  H      -3.223667      0.792832     -1.099491
  Li     -0.263747      0.988724     -1.860326
17
Coordinates from ORCA-job DME_m1_reduced_opt E -316.290476449745
  C       2.573770      0.465732     -0.904882
  O       1.188789      0.099569     -0.850115
  C       0.753549     -0.240960      0.470854
  C      -0.674220     -0.716361      0.356546
  O      -1.387591      0.275600     -0.389761
  C      -2.791481      0.001707     -0.483419
  H       2.784924      0.733994     -1.942043
  H       2.772778      1.328075     -0.254305
  H       3.199049     -0.385340     -0.601498
  H       0.822047      0.642505      1.124494
  H       1.383994     -1.042662      0.885412
  H      -0.724087     -1.683695     -0.167085
  H      -1.113841     -0.828928      1.359622
  H      -2.966193     -0.969089     -0.966780
  H      -3.242945      0.008654      0.518355
  H      -3.224687      0.796913     -1.093539
  Li     -0.263715      0.988468     -1.860075
17
Coordinates from ORCA-job DME_m1_reduced_opt E -316.290477843927
  C       2.573990      0.465543     -0.905168
  O       1.189165      0.099482     -0.849480
  C       0.753558     -0.240786      0.471126
  C      -0.674184     -0.716751      0.356313
  O      -1.387837      0.275245     -0.389264
  C      -2.791747      0.002234     -0.483138
  H       2.785302      0.731221     -1.942970
  H       2.773385      1.330215     -0.257710
  H       3.199565     -0.384072     -0.598605
  H       0.821205      0.642566      1.125064
  H       1.383820     -1.042205      0.886466
  H      -0.723216     -1.683963     -0.167673
  H      -1.113504     -0.830450      1.359368
  H      -2.967660     -0.967048     -0.969240
  H      -3.243112      0.006137      0.518609
  H      -3.224892      0.798701     -1.091667
  Li     -0.263700      0.988114     -1.860252
