17
Coordinates from ORCA-job DME_m1_cation_opt E -316.161191782199
  C           2.62440090962417      0.46331377363302     -0.89156595563272
  O           1.20641643359859      0.18725722260570     -0.86317546386363
  C           0.73875655277427     -0.19401973347725      0.44966031630591
  C          -0.66922765807599     -0.71885034769582      0.29984700929820
  O          -1.41600730960813      0.24531912848046     -0.47500812955211
  C          -2.83798137010047     -0.01051578053685     -0.46329098275961
  H           2.87558520294603      0.75950931432719     -1.91134377284930
  H           2.86997106364479      1.27366379276575     -0.19544837207321
  H           3.18334171850448     -0.44009412326311     -0.62686021908962
  H           0.77226776471781      0.68157825954774      1.11379100171481
  H           1.38143316752140     -0.98197020101087      0.86359491480038
  H          -0.68332662093228     -1.68843881826898     -0.21845233300621
  H          -1.12344182113709     -0.83716227555308      1.29225319085287
  H          -3.05098961796788     -1.00619559320273     -0.86937056636761
  H          -3.21981211630250      0.06646542357601      0.55986265066665
  H          -3.30869669899004      0.75342826226640     -1.08427883666465
  Li         -0.25254999301716      0.92089599220641     -1.77843454238015
