17
Coordinates from ORCA-job DME_m1_dication_opt E -315.645824323264
  C       2.624401      0.463314     -0.891566
  O       1.206416      0.187257     -0.863175
  C       0.738757     -0.194020      0.449660
  C      -0.669228     -0.718850      0.299847
  O      -1.416007      0.245319     -0.475008
  C      -2.837981     -0.010516     -0.463291
  H       2.875585      0.759509     -1.911344
  H       2.869971      1.273664     -0.195448
  H       3.183342     -0.440094     -0.626860
  H       0.772268      0.681578      1.113791
  H       1.381433     -0.981970      0.863595
  H      -0.683327     -1.688439     -0.218452
  H      -1.123442     -0.837162      1.292253
  H      -3.050990     -1.006196     -0.869371
  H      -3.219812      0.066465      0.559863
  H      -3.308697      0.753428     -1.084279
  Li     -0.252550      0.920896     -1.778435
17
Coordinates from ORCA-job DME_m1_dication_opt E -315.650155614628
  C       2.642516      0.479110     -0.905962
  O       1.218940      0.223819     -0.837182
  C       0.745161     -0.208080      0.459606
  C      -0.671802     -0.725269      0.316584
  O      -1.427346      0.203864     -0.495121
  C      -2.860002     -0.004592     -0.478166
  H       2.874033      0.771573     -1.931589
  H       2.910944      1.286400     -0.204590
  H       3.193451     -0.436038     -0.639915
  H       0.781374      0.658345      1.144720
  H       1.399503     -0.996668      0.860539
  H      -0.685325     -1.709862     -0.185313
  H      -1.140604     -0.828568      1.306638
  H      -3.094078     -1.006911     -0.873764
  H      -3.232004      0.076240      0.554652
  H      -3.311559      0.765641     -1.105822
  Li     -0.253063      0.925179     -1.783536
17
Coordinates from ORCA-job DME_m1_dication_opt E -315.653063410096
  C       2.651868      0.486515     -0.913716
  O       1.224329      0.259099     -0.810707
  C       0.748172     -0.216473      0.463035
  C      -0.672776     -0.726523      0.325743
  O      -1.432306      0.163854     -0.515575
  C      -2.871489     -0.000975     -0.485574
  H       2.862042      0.780189     -1.942634
  H       2.940741      1.285024     -0.206360
  H       3.189039     -0.436910     -0.645239
  H       0.784159      0.641201      1.165738
  H       1.412091     -1.001668      0.855148
  H      -0.682653     -1.722841     -0.161783
  H      -1.152927     -0.821808      1.311214
  H      -3.123198     -1.008011     -0.866178
  H      -3.228594      0.081915      0.552940
  H      -3.302908      0.771446     -1.122916
  Li     -0.255451      0.940148     -1.801358
17
Coordinates from ORCA-job DME_m1_dication_opt E -315.655074498046
  C       2.654395      0.488433     -0.915226
  O       1.221635      0.296259     -0.785663
  C       0.748126     -0.217457      0.464018
  C      -0.672428     -0.726990      0.327358
  O      -1.430002      0.125897     -0.540075
  C      -2.874227     -0.000909     -0.487709
  H       2.846965      0.786532     -1.945491
  H       2.967735      1.275098     -0.204858
  H       3.173468     -0.444466     -0.649394
  H       0.776077      0.626913      1.187041
  H       1.419936     -0.999308      0.848627
  H      -0.669352     -1.734659     -0.142195
  H      -1.161942     -0.816945      1.308373
  H      -3.147890     -1.008784     -0.851621
  H      -3.212951      0.089645      0.554898
  H      -3.289884      0.771790     -1.133765
  Li     -0.259520      0.963135     -1.832539
17
Coordinates from ORCA-job DME_m1_dication_opt E -315.656831099675
  C       2.649555      0.487674     -0.912173
  O       1.209401      0.352345     -0.751412
  C       0.745937     -0.210273      0.467115
  C      -0.670824     -0.731224      0.322802
  O      -1.418972      0.073169     -0.579796
  C      -2.868345     -0.004143     -0.487882
  H       2.824682      0.796854     -1.941764
  H       3.004490      1.253306     -0.200049
  H       3.137158     -0.463838     -0.662277
  H       0.751626      0.608776      1.222662
  H       1.429438     -0.987565      0.839220
  H      -0.636637     -1.754669     -0.115671
  H      -1.174447     -0.813559      1.296830
  H      -3.180127     -1.009023     -0.825476
  H      -3.177162      0.111020      0.559381
  H      -3.269243      0.766850     -1.144433
  Li     -0.266391      0.998481     -1.885296
17
Coordinates from ORCA-job DME_m1_dication_opt E -315.657508085072
  C       2.640965      0.485277     -0.908135
  O       1.196689      0.391514     -0.728420
  C       0.744371     -0.200049      0.473468
  C      -0.669398     -0.738191      0.317696
  O      -1.407321      0.038809     -0.607240
  C      -2.858954     -0.008660     -0.487855
  H       2.809996      0.809025     -1.934442
  H       3.029553      1.230250     -0.193604
  H       3.102059     -0.484383     -0.684323
  H       0.726691      0.598903      1.250873
  H       1.437976     -0.972661      0.835326
  H      -0.604715     -1.770344     -0.097929
  H      -1.184823     -0.816539      1.285386
  H      -3.198666     -1.010209     -0.802924
  H      -3.146864      0.138621      0.560184
  H      -3.255565      0.757235     -1.153298
  Li     -0.271855      1.025586     -1.922984
17
Coordinates from ORCA-job DME_m1_dication_opt E -315.657782956915
  C       2.634419      0.483291     -0.905512
  O       1.188768      0.409024     -0.716994
  C       0.744185     -0.192584      0.481054
  C      -0.668687     -0.745560      0.315382
  O      -1.399604      0.023623     -0.618303
  C      -2.852206     -0.011667     -0.487878
  H       2.803451      0.824675     -1.926532
  H       3.042668      1.209747     -0.184170
  H       3.079460     -0.500016     -0.712165
  H       0.708327      0.597370      1.266264
  H       1.444962     -0.960378      0.837829
  H      -0.582421     -1.779283     -0.091432
  H      -1.192147     -0.825032      1.278206
  H      -3.204863     -1.013548     -0.783194
  H      -3.131111      0.168858      0.557147
  H      -3.249949      0.744825     -1.164035
  Li     -0.275113      1.040839     -1.943887
17
Coordinates from ORCA-job DME_m1_dication_opt E -315.657966200732
  C       2.629366      0.481144     -0.903828
  O       1.183805      0.413354     -0.711831
  C       0.744362     -0.187018      0.489027
  C      -0.668026     -0.753037      0.314543
  O      -1.394236      0.019205     -0.619310
  C      -2.847207     -0.013111     -0.487243
  H       2.800420      0.846762     -1.916465
  H       3.049122      1.185703     -0.168406
  H       3.064225     -0.513606     -0.747472
  H       0.692369      0.602666      1.272346
  H       1.450843     -0.948954      0.845615
  H      -0.565182     -1.783668     -0.094475
  H      -1.197490     -0.838423      1.273207
  H      -3.203010     -1.019874     -0.758120
  H      -3.123936      0.205089      0.551488
  H      -3.247967      0.727519     -1.179549
  Li     -0.277320      1.050431     -1.957746
17
Coordinates from ORCA-job DME_m1_dication_opt E -315.658102320850
  C       2.625438      0.478402     -0.902785
  O       1.180844      0.409768     -0.710549
  C       0.743811     -0.182481      0.495940
  C      -0.666767     -0.759731      0.313623
  O      -1.390560      0.021115     -0.614681
  C      -2.843315     -0.013121     -0.485530
  H       2.798609      0.875138     -1.903414
  H       3.051770      1.154527     -0.145420
  H       3.053443     -0.525826     -0.788071
  H       0.676954      0.613719      1.270362
  H       1.454702     -0.937297      0.857599
  H      -0.551124     -1.783923     -0.106356
  H      -1.200446     -0.855316      1.268689
  H      -3.195676     -1.028847     -0.723250
  H      -3.121350      0.245893      0.544198
  H      -3.247224      0.704558     -1.199970
  Li     -0.278970      1.057605     -1.968604
17
Coordinates from ORCA-job DME_m1_dication_opt E -315.658202637744
  C       2.623001      0.475490     -0.902051
  O       1.179509      0.404162     -0.711264
  C       0.742013     -0.178312      0.500436
  C      -0.664701     -0.764755      0.311496
  O      -1.388617      0.025027     -0.609412
  C      -2.840760     -0.012427     -0.483084
  H       2.797679      0.906228     -1.888071
  H       3.053964      1.117406     -0.118548
  H       3.045399     -0.535963     -0.828100
  H       0.662588      0.627214      1.263277
  H       1.455840     -0.925632      0.870979
  H      -0.539882     -1.781249     -0.123220
  H      -1.200713     -0.872407      1.263752
  H      -3.187296     -1.038409     -0.680194
  H      -3.120440      0.285862      0.536433
  H      -3.247149      0.677803     -1.222420
  Li     -0.280296      1.064145     -1.978230
17
Coordinates from ORCA-job DME_m1_dication_opt E -315.658275954036
  C       2.622601      0.473230     -0.901121
  O       1.179763      0.401117     -0.712639
  C       0.739239     -0.174187      0.501977
  C      -0.662190     -0.767779      0.307799
  O      -1.388701      0.027693     -0.607214
  C      -2.840023     -0.012074     -0.480525
  H       2.798754      0.936115     -1.871817
  H       3.058274      1.078775     -0.092190
  H       3.039107     -0.543573     -0.862549
  H       0.650948      0.639394      1.254947
  H       1.454483     -0.915072      0.882287
  H      -0.531833     -1.777583     -0.139999
  H      -1.198827     -0.886157      1.258283
  H      -3.181866     -1.046735     -0.634171
  H      -3.119508      0.320582      0.529238
  H      -3.248706      0.649987     -1.243464
  Li     -0.281376      1.070449     -1.987062
17
Coordinates from ORCA-job DME_m1_dication_opt E -315.658325551368
  C       2.624303      0.472218     -0.899641
  O       1.181454      0.402838     -0.713814
  C       0.736413     -0.170385      0.500778
  C      -0.660109     -0.768673      0.303106
  O      -1.390782      0.027512     -0.609588
  C      -2.841131     -0.012855     -0.478420
  H       2.802786      0.959841     -1.857374
  H       3.065012      1.046675     -0.071341
  H       3.034337     -0.548535     -0.886712
  H       0.644230      0.646966      1.249095
  H       1.451733     -0.907629      0.888116
  H      -0.527865     -1.774932     -0.151544
  H      -1.196191     -0.893211      1.253068
  H      -3.181251     -1.052755     -0.594629
  H      -3.117808      0.345671      0.523901
  H      -3.252831      0.625808     -1.259054
  Li     -0.282159      1.075628     -1.994167
17
Coordinates from ORCA-job DME_m1_dication_opt E -315.658359477340
  C       2.627148      0.471930     -0.897379
  O       1.183931      0.408393     -0.714521
  C       0.734101     -0.166558      0.498113
  C      -0.658766     -0.768270      0.297938
  O      -1.394059      0.025060     -0.615236
  C      -2.843212     -0.014871     -0.476602
  H       2.809554      0.978290     -1.844387
  H       3.073122      1.021379     -0.055239
  H       3.029609     -0.552328     -0.904235
  H       0.641140      0.650667      1.246377
  H       1.448969     -0.902625      0.888880
  H      -0.526269     -1.773822     -0.157759
  H      -1.194007     -0.894868      1.248146
  H      -3.183804     -1.057438     -0.562684
  H      -3.115149      0.364510      0.519819
  H      -3.259393      0.605041     -1.269661
  Li     -0.282776      1.079692     -1.999789
17
Coordinates from ORCA-job DME_m1_dication_opt E -315.658381735382
  C       2.630081      0.471704     -0.894613
  O       1.186450      0.415135     -0.714894
  C       0.732554     -0.162816      0.495305
  C      -0.658205     -0.767409      0.293038
  O      -1.397476      0.022000     -0.621500
  C      -2.845313     -0.017558     -0.474785
  H       2.817685      0.992559     -1.832688
  H       3.080598      1.002055     -0.042821
  H       3.024601     -0.555670     -0.918563
  H       0.639571      0.652311      1.245707
  H       1.447028     -0.899123      0.886716
  H      -0.525232     -1.773663     -0.160592
  H      -1.192892     -0.893967      1.243655
  H      -3.186804     -1.061370     -0.538074
  H      -3.112214      0.380156      0.516205
  H      -3.267001      0.587401     -1.276445
  Li     -0.283291      1.082440     -2.003872
17
Coordinates from ORCA-job DME_m1_dication_opt E -315.658394117366
  C       2.632316      0.471280     -0.892236
  O       1.188372      0.419963     -0.715211
  C       0.731900     -0.160038      0.493292
  C      -0.658289     -0.766580      0.289557
  O      -1.400036      0.020106     -0.625612
  C      -2.846887     -0.019848     -0.473130
  H       2.824642      1.001677     -1.824109
  H       3.085275      0.990092     -0.034791
  H       3.020745     -0.558168     -0.929115
  H       0.638413      0.653207      1.245571
  H       1.446148     -0.897018      0.884074
  H      -0.524100     -1.773596     -0.161882
  H      -1.192729     -0.892856      1.240440
  H      -3.188342     -1.064263     -0.522833
  H      -3.110371      0.391685      0.513321
  H      -3.273307      0.575151     -1.279881
  Li     -0.283610      1.083390     -2.005676
17
Coordinates from ORCA-job DME_m1_dication_opt E -315.658399329919
  C       2.633615      0.470680     -0.890792
  O       1.189442      0.421929     -0.715522
  C       0.731727     -0.158406      0.492297
  C      -0.658492     -0.766127      0.287632
  O      -1.401366      0.019725     -0.626973
  C      -2.847843     -0.021120     -0.471836
  H       2.828869      1.007340     -1.818590
  H       3.087227      0.982742     -0.029797
  H       3.018472     -0.559805     -0.936827
  H       0.636716      0.654436      1.244785
  H       1.445865     -0.895511      0.882998
  H      -0.522454     -1.773065     -0.163513
  H      -1.192788     -0.893221      1.238511
  H      -3.188171     -1.066084     -0.513759
  H      -3.109896      0.399953      0.511064
  H      -3.277021      0.567444     -1.281994
  Li     -0.283763      1.083274     -2.005905
17
Coordinates from ORCA-job DME_m1_dication_opt E -315.658401602573
  C       2.634285      0.470242     -0.890337
  O       1.189874      0.422166     -0.715697
  C       0.731762     -0.157812      0.491934
  C      -0.658657     -0.765889      0.286926
  O      -1.401809      0.020051     -0.626801
  C      -2.848426     -0.021490     -0.471156
  H       2.830444      1.009686     -1.816384
  H       3.087625      0.979642     -0.027755
  H       3.017786     -0.560551     -0.940548
  H       0.635204      0.655460      1.243836
  H       1.445771     -0.894710      0.883156
  H      -0.521085     -1.772373     -0.164989
  H      -1.192767     -0.894216      1.237739
  H      -3.187525     -1.066826     -0.510041
  H      -3.110230      0.403938      0.509935
  H      -3.278344      0.564259     -1.283026
  Li     -0.283769      1.082606     -2.005010
17
Coordinates from ORCA-job DME_m1_dication_opt E -315.658403172672
  C       2.634815      0.469838     -0.890234
  O       1.190083      0.422334     -0.715645
  C       0.731743     -0.157314      0.491752
  C      -0.658710     -0.765802      0.286374
  O      -1.401967      0.020282     -0.626506
  C      -2.848957     -0.021578     -0.470688
  H       2.831125      1.011563     -1.814920
  H       3.088023      0.976750     -0.026251
  H       3.017173     -0.561200     -0.943617
  H       0.633277      0.656577      1.242866
  H       1.445670     -0.893674      0.884016
  H      -0.519394     -1.771634     -0.166733
  H      -1.192627     -0.895761      1.237055
  H      -3.186963     -1.067225     -0.506728
  H      -3.110509      0.407243      0.508969
  H      -3.278883      0.561861     -1.284220
  Li     -0.283759      1.081922     -2.003710
17
Coordinates from ORCA-job DME_m1_dication_opt E -315.658404208746
  C       2.635293      0.469352     -0.890135
  O       1.190208      0.423302     -0.715268
  C       0.731479     -0.156287      0.491683
  C      -0.658507     -0.765995      0.285412
  O      -1.402076      0.019967     -0.626823
  C      -2.849462     -0.021701     -0.470241
  H       2.831779      1.014990     -1.812446
  H       3.089299      0.971110     -0.023704
  H       3.015520     -0.562218     -0.948578
  H       0.630462      0.658111      1.242004
  H       1.445521     -0.891632      0.885498
  H      -0.516877     -1.770958     -0.169101
  H      -1.192352     -0.898059      1.235810
  H      -3.186683     -1.067650     -0.500459
  H      -3.110203      0.412396      0.507341
  H      -3.279440      0.557717     -1.286584
  Li     -0.283822      1.081737     -2.002629
17
Coordinates from ORCA-job DME_m1_dication_opt E -315.658404914331
  C       2.635155      0.469359     -0.890532
  O       1.189949      0.423830     -0.714761
  C       0.731434     -0.156113      0.491972
  C      -0.658423     -0.766276      0.285393
  O      -1.401761      0.019495     -0.627049
  C      -2.849407     -0.021457     -0.470503
  H       2.830932      1.014341     -1.813353
  H       3.089687      0.971417     -0.024561
  H       3.015050     -0.562353     -0.948101
  H       0.629626      0.658149      1.242404
  H       1.445666     -0.891055      0.886187
  H      -0.516064     -1.771108     -0.169244
  H      -1.192423     -0.898740      1.235634
  H      -3.187041     -1.067231     -0.501077
  H      -3.109767      0.411959      0.507431
  H      -3.278698      0.558630     -1.286689
  Li     -0.283778      1.081337     -2.001370
