17
Coordinates from ORCA-job DME_m1_reduced_opt E -316.290477843927
  C           2.57399022726391      0.46554253344474     -0.90516767413101
  O           1.18916527867912      0.09948154300754     -0.84947972286148
  C           0.75355765509665     -0.24078551434243      0.47112638600412
  C          -0.67418441494158     -0.71675101951368      0.35631311675902
  O          -1.38783683382410      0.27524533321315     -0.38926354759833
  C          -2.79174737598075      0.00223383940438     -0.48313785496469
  H           2.78530244026002      0.73122063230895     -1.94296974270036
  H           2.77338481084740      1.33021546505268     -0.25770986115045
  H           3.19956480637025     -0.38407210551333     -0.59860519187358
  H           0.82120515566782      0.64256600134404      1.12506389364377
  H           1.38382027057174     -1.04220528922470      0.88646598656872
  H          -0.72321643154850     -1.68396320897289     -0.16767308453313
  H          -1.11350396061628     -0.83044985619628      1.35936801817124
  H          -2.96765967890007     -0.96704774128585     -0.96924049326907
  H          -3.24311153082006      0.00613674979562      0.51860851976390
  H          -3.22489183500364      0.79870129092403     -1.09166690680531
  Li         -0.26369958312192      0.98811434655403     -1.86025184102337
