17
Coordinates from ORCA-job DME_m1_dication_opt E -315.658404914331
  C           2.63515538945117      0.46935905726878     -0.89053235007469
  O           1.18994936108408      0.42382964623160     -0.71476116761030
  C           0.73143409245384     -0.15611292997454      0.49197181927727
  C          -0.65842288517248     -0.76627630865371      0.28539287277964
  O          -1.40176140020603      0.01949527621848     -0.62704872357778
  C          -2.84940738541256     -0.02145692405015     -0.47050288295961
  H           2.83093249085477      1.01434059805099     -1.81335328570054
  H           3.08968681313885      0.97141714184086     -0.02456051560464
  H           3.01504998841869     -0.56235263740603     -0.94810084054891
  H           0.62962649656176      0.65814910092711      1.24240446289450
  H           1.44566648677182     -0.89105470607971      0.88618724517997
  H          -0.51606415163799     -1.77110817267311     -0.16924414017496
  H          -1.19242281699750     -0.89874047156624      1.23563357322093
  H          -3.18704128231841     -1.06723110175396     -0.50107711154950
  H          -3.10976694030548      0.41195896700244      0.50743063122597
  H          -3.27869773207314      0.55862991952524     -1.28668928762510
  Li         -0.28377752461141      1.08133654509196     -2.00137029915224
