37
Coordinates from ORCA-job TEGDME_anion_cpcm_200_default E -770.230758695949
  C           6.88931992520607      0.63344179215845      1.13964377215139
  O           6.61354462954642     -0.56642236575555      0.41581991942059
  C           5.44576147056677     -0.47347028462677     -0.40058484539160
  C           4.17465497463736     -0.74063432889691      0.40719186939200
  O           3.01010845187872     -0.72166873298398     -0.41804721263353
  C           2.53622954318098      0.59638665913653     -0.71228686133833
  C           1.20108743371592      0.49340983705508     -1.40438987518310
  O           0.22396275261568      0.02238874989390     -0.48952215199154
  C          -1.06337131151852     -0.13452506890606     -1.10214913935895
  C          -2.08369119847793     -0.58613971629711     -0.05645778866552
  O          -2.36579047054168      0.33138698554797      0.91673134581719
  C          -5.85544951025508     -0.96802279152865      2.59499668255358
  C          -6.04487236001284     -0.63600172353809      1.16818206433932
  O          -6.02298317222063      0.78204916994436      0.99719220864013
  C          -6.00510091602879      1.14307893119017     -0.38033537005562
  H           6.10093621372956      0.87002695278590      1.86712477072953
  H           7.00772107376581      1.48536730491756      0.45400568541837
  H           7.82737634217586      0.47186971911957      1.67678440980374
  H           5.54209700806004     -1.24052484539483     -1.17806511641264
  H           5.40306212205027      0.51123637743278     -0.89071372361199
  H           4.23274866673560     -1.74558399201437      0.84118178026836
  H           4.06908130527435     -0.01645400647552      1.22951462855257
  H           2.43477329680357      1.17438403758124      0.22076433111439
  H           3.23313357983016      1.13136711003718     -1.37539138956925
  H           0.92615073516404      1.49180207374678     -1.78722626515101
  H           1.28137607159057     -0.18684912556174     -2.27071350176148
  H          -1.37678466355068      0.82916808583929     -1.54400049381993
  H          -0.99008551833371     -0.87920480166044     -1.91819553031714
  H          -1.68371586889395     -1.56018826268756      0.33850020713786
  H          -2.97475680207675     -0.89098131659352     -0.67325865760896
  H          -5.38778182871329     -0.25293645439183      3.26225053167360
  H          -6.06818270296959     -1.97159511555450      2.94462776936939
  H          -5.24014178425572     -1.08803813484486      0.54946374182609
  H          -6.99352154445253     -1.05545139812881      0.78375699296319
  H          -5.96888462932621      2.23410374058542     -0.43042411816738
  H          -5.11989649523720      0.72744453913651     -0.88601351973195
  H          -6.90811482966251      0.78578041973329     -0.89887061040011
