37
 energy: -53.032085507051 gnorm: 0.000627570970 xtb: 6.7.1pre (5071a88)
C            3.31290361874844        0.15205097264882        2.14317829455851
O            4.33089991368184        0.30517108598352        1.17710500728203
C            3.86162308737096        0.30632159174199       -0.15178375965925
C            3.37928703614411       -1.07630815351437       -0.62133334878965
O            3.23302241030448       -1.17634859699747       -2.02531217962182
C            2.26795751347826       -0.32665477338173       -2.60813750010748
C            0.85183514100021       -0.46120035416900       -2.03963692852543
O            0.75355944670491        0.25284247789797       -0.83840831737736
C           -0.57128037667080        0.30886560399445       -0.33058002575718
C           -0.58141007306810        0.95183964997586        1.08240680620138
O           -1.80301705620200        1.26164191797042        1.51026301052853
C           -4.07327069147565       -1.78355560007141        1.67524073053946
C           -3.84467511775767       -0.59734799641145        0.86271759574458
O           -4.98975309580092        0.25204328968291        0.83884437873938
C           -4.70136705649288        1.50283459609030        0.27467764040045
H            2.97310854555483       -0.88658296446109        2.21169962354454
H            2.45077390502645        0.78670430070687        1.91678934815179
H            3.74839151451365        0.44948358584944        3.09667141680949
H            4.71377925288397        0.62003407000327       -0.76330164536540
H            3.04005783033346        1.02671958636299       -0.25801777956959
H            4.13229415034379       -1.82820560253971       -0.36643953392544
H            2.43751137074748       -1.31898205135494       -0.11863143204595
H            2.57264188617515        0.72470097632234       -2.52571002102122
H            2.26191560529541       -0.61337993172896       -3.66371145505783
H            0.13861709748971       -0.05899907766532       -2.77972168180773
H            0.60991595115163       -1.52678745966413       -1.88534949322037
H           -1.20400001837148        0.90729521827364       -1.00270705455825
H           -0.99702058072003       -0.70246164943319       -0.27182982780550
H            0.07345842764185        1.85926952396428        1.01073829468720
H           -0.03808521283659        0.23640278552279        1.75886749165227
H           -4.56148116811979       -1.65504340226793        2.62527448043465
H           -3.33780965555726       -2.56943913432831        1.61542448437818
H           -2.96225690876483        0.04893118151690        1.24463234079998
H           -3.57223060209185       -0.86910117609289       -0.17599057495955
H           -5.55120207240290        2.15535745921455        0.48366015481344
H           -3.78435423869654        1.91790266845449        0.70721905381791
H           -4.57033978954107        1.42398540192156       -0.81772105388031
