14
 energy: -20.896426464581 gnorm: 0.000508707387 xtb: 6.7.1pre (5071a88)
C           -2.20612515133908        0.24871094847782       -0.29107315468191
C           -1.04224815565215       -0.67774927850456        0.09254226817222
O            0.17346397808174       -0.23084350137535       -0.38189493005920
C            1.04153710494882        0.42093383468297        0.68278150984978
O            0.72359283867390        0.21287273110080        1.91034673355762
C            2.47111683818736        0.27637613064689        0.18171821788196
H           -2.27479874164806        0.34091500833864       -1.37482897168623
H           -2.02841376206302        1.23476370785302        0.13041177541804
H           -3.14811787681137       -0.14285900548681        0.09448706010979
H           -1.23775835492540       -1.68854929389510       -0.31398478162178
H           -0.97843445259882       -0.74137956553320        1.19337798409860
H            3.11627115006257        0.95086873155115        0.74779943936124
H            2.51295738006832        0.54177146423377       -0.87537478601861
H            2.87695718501515       -0.74583190209013        0.29015774561858
