14
 energy: -20.267239691748 gnorm: 0.000718434829 xtb: 6.7.1pre (5071a88)
C           -1.91870116277032        0.26893247443178       -0.06931145070561
C           -1.11137866764514       -0.97729223875270        0.11048358609983
O            0.29446486206255       -0.79330616385164       -0.10114580190660
C            0.85589989479809        0.30283145375139        0.33321267260625
O            0.26130817121308        1.26913910816205        0.77062195609802
C            2.35370230565433        0.29597334614498        0.23496344463735
H           -1.90546540785429        0.66126428177082       -1.08736265440806
H           -1.38688157663037        1.06622345072484        0.54389513799655
H           -2.93003521536637        0.17606786091003        0.32077445566615
H           -1.38859546851127       -1.73930403253897       -0.63602799621748
H           -1.25236932518929       -1.42455471617313        1.10353120456166
H            2.77931288135616        1.05950727114412        0.88224374101277
H            2.61299960575695        0.52697545379997       -0.80101143606179
H            2.73573908312582       -0.69245753952339        0.48159925062155
