14
 energy: -20.787791093402 gnorm: 0.000761521186 xtb: 6.7.1pre (5071a88)
C           -2.00977115849325        0.29173888859889       -0.26606434687845
C           -1.10582449725969       -0.84304911637074        0.19472573797434
O            0.25573819508130       -0.60302577052709       -0.16542616519320
C            0.98473008873435        0.15410604333200        0.66234961622230
O            0.57163811723106        0.61793360319848        1.69158456887143
C            2.38360225548577        0.32681798957441        0.13001410354145
H           -1.92112562279146        0.43209432948152       -1.34068586719678
H           -1.72996296840720        1.21470021352521        0.23602598320613
H           -3.04184432538200        0.05732518567752       -0.02160851317410
H           -1.36918693392585       -1.78145178822984       -0.29719042712566
H           -1.16951692981757       -0.95880763764168        1.28155334223431
H            2.96733825743491        0.92329139374721        0.82372207542701
H            2.34099060648309        0.81747616892483       -0.83916687670937
H            2.84319489562654       -0.64914949329072       -0.00336712119942
