14

C  -2.00324198  0.28168392 -0.26265661
C  -1.10475277 -0.84945708  0.20100946
O   0.25118501 -0.60011039 -0.19768081
C   0.99105421  0.15300294  0.66149836
O   0.59727095  0.62758194  1.71712864
C   2.37797511  0.32648565  0.12218057
H  -1.91757782  0.42158535 -1.34525727
H  -1.71557115  1.22882112  0.20452436
H  -3.04796690  0.07342991 -0.01519115
H  -1.41243870 -1.78414835 -0.27918388
H  -1.18021055 -1.00406465  1.28350154
H   2.96709338  0.92502673  0.82294139
H   2.33998420  0.84950212 -0.83664969
H   2.85719699 -0.64933920  0.01030120
