15
 energy: -24.979305659925 gnorm: 0.000913847123 xtb: 6.7.1pre (5071a88)
C           -1.54953644470757        0.74829330243531        0.79550718063765
C           -1.52594616295742       -0.70379952724536        0.31722016770424
O           -0.37443761635142       -1.40379034115015        0.75108282572639
C            0.74916831079691       -1.31480806716329       -0.11658641041702
O            0.60140683223871       -1.46229639454545       -1.36993670127514
O            1.55491844941068       -0.14521399221257        0.36256079892863
C            2.16001992834414        0.59051073465792       -0.64225111583221
H           -0.63739317678165        1.23954952475744        0.46895659639379
H           -2.41321053599210        1.27620332962323        0.38684799142297
H           -1.58681335368726        0.78457256886725        1.88314851537478
H           -2.40126779698945       -1.24510875514334        0.70795291954824
H           -1.55209411348192       -0.73674507800406       -0.78240898522469
H            3.25835757536426        0.53445282194022       -0.56228692162934
H            1.85275960028447        0.18576640069311       -1.61773810081007
H            1.86406848450964        1.65241345249051       -0.58206876054762
