15
Coordinates from ORCA-job EMC_anion_cpcm_40_default E -382.907023591641
  C          -2.39595921312716      0.49747794394683      0.59954975090090
  C          -1.51447643152156     -0.74112751830198      0.66307250211554
  O          -0.14290120669340     -0.41845946498283      0.89735319033640
  C           0.67107812244645     -0.39711016961165     -0.30687530364279
  O           0.21541483986830      0.15066326758227     -1.35918992278030
  O           1.92390850196739      0.09156971585849      0.24873740328932
  C           2.92780891987266      0.24494313975374     -0.74369091659622
  H          -2.10974750787726      1.13031578253164     -0.24522110155849
  H          -3.44812157594958      0.20902749610037      0.48243389730025
  H          -2.30429252816067      1.08299807220811      1.52101941875190
  H          -1.83441873486622     -1.38098145809004      1.49732951346987
  H          -1.60787716635931     -1.32560786670922     -0.26306597349211
  H           3.10404374793426     -0.69845773011403     -1.28540900485164
  H           2.66745204211917      1.01895394271947     -1.47811480274553
  H           3.84808817034697      0.53579482710880     -0.22792865049708
