12
DMC conformer 0/2 rel=+0.00 kJ/mol from g1_reference; GFN2-xTB opt; T6 conformer ensemble
C  -2.31887753 -0.11420612  0.12303702
O  -1.04928037 -0.72519665  0.31603017
C  -0.00023176  0.00505442 -0.06335389
O  -0.05059956  1.10320388 -0.53954166
O   1.11407350 -0.68746927  0.17420995
C   2.32563891 -0.03320991 -0.18143969
H  -3.05085888 -0.83387223  0.47938865
H  -2.47998063  0.10642655 -0.93394980
H  -2.38582440  0.81547883  0.69141925
H   2.43386168  0.89954555  0.37543493
H   2.33966930  0.19044858 -1.24991253
H   3.12240975 -0.72620366  0.07472115
