25
Coordinates from ORCA-job GBL_m1_shell2_cation_opt E -620.292235116403
  O       1.717537      1.618897      0.094146
  C       0.731354      0.924593     -0.083199
  C       0.652678     -0.575627      0.000391
  C      -0.702496     -0.878729     -0.639286
  C      -1.446302      0.455384     -0.498343
  O      -0.427743      1.456334     -0.367108
  H       1.498710     -1.045630     -0.496381
  H       0.686439     -0.859454      1.055074
  H      -0.578499     -1.136438     -1.690741
  H      -1.232648     -1.688726     -0.146191
  H      -2.055973      0.713039     -1.364459
  H      -2.067271      0.495010      0.401706
  Li      2.464538      3.171091      0.006392
  O       3.454621      4.551575     -0.657375
  C       3.815417      5.074439      0.370613
  C       4.722809      6.252521      0.562991
  C       5.066252      6.177307      2.050792
  C       3.888938      5.382309      2.626351
  O       3.382940      4.601349      1.530742
  H       5.582657      6.202175     -0.101552
  H       4.162194      7.156172      0.310886
  H       6.001165      5.636006      2.196978
  H       5.158032      7.155514      2.514117
  H       4.171351      4.698876      3.426878
  H       3.081428      6.034554      2.974258
25
Coordinates from ORCA-job GBL_m1_shell2_cation_opt E -620.295003327045
  O       1.709841      1.620275      0.090430
  C       0.720495      0.918258     -0.088293
  C       0.639746     -0.581711      0.001931
  C      -0.713321     -0.900489     -0.649143
  C      -1.476497      0.424641     -0.507019
  O      -0.450529      1.446179     -0.381961
  H       1.499624     -1.047533     -0.483181
  H       0.671296     -0.856022      1.064170
  H      -0.580189     -1.154425     -1.704116
  H      -1.239315     -1.723180     -0.162929
  H      -2.090707      0.678665     -1.372636
  H      -2.092988      0.464682      0.397506
  Li      2.463127      3.179338      0.000411
  O       3.459035      4.564148     -0.670755
  C       3.827542      5.094372      0.362399
  C       4.738001      6.269462      0.565644
  C       5.086835      6.187882      2.059906
  C       3.904844      5.403366      2.646691
  O       3.391337      4.615459      1.534275
  H       5.595274      6.217312     -0.108040
  H       4.174450      7.176969      0.312806
  H       6.020147      5.636424      2.202794
  H       5.191913      7.167006      2.528985
  H       4.181721      4.714340      3.446281
  H       3.096447      6.057120      2.991521
25
Coordinates from ORCA-job GBL_m1_shell2_cation_opt E -620.296179848246
  O       1.690452      1.616592      0.091968
  C       0.703423      0.908350     -0.090036
  C       0.622584     -0.589419      0.009072
  C      -0.717285     -0.919063     -0.662616
  C      -1.498669      0.393754     -0.516887
  O      -0.471554      1.436921     -0.399238
  H       1.498058     -1.051295     -0.454589
  H       0.641146     -0.852132      1.076316
  H      -0.566475     -1.161835     -1.718797
  H      -1.239599     -1.755223     -0.192605
  H      -2.115328      0.648844     -1.380002
  H      -2.104900      0.437238      0.393620
  Li      2.453170      3.186839      0.000442
  O       3.459683      4.581945     -0.673181
  C       3.836738      5.116713      0.360645
  C       4.749363      6.286977      0.571286
  C       5.108982      6.193719      2.063077
  C       3.923099      5.425243      2.661404
  O       3.397930      4.629512      1.540012
  H       5.598989      6.235790     -0.114152
  H       4.183221      7.196434      0.324375
  H       6.036562      5.628562      2.195247
  H       5.233607      7.169918      2.536798
  H       4.191669      4.728486      3.456679
  H       3.113261      6.079672      2.998836
25
Coordinates from ORCA-job GBL_m1_shell2_cation_opt E -620.296794572048
  O       1.665619      1.610858      0.097713
  C       0.683513      0.897702     -0.089051
  C       0.604206     -0.598015      0.019680
  C      -0.717985     -0.935023     -0.677786
  C      -1.514733      0.364273     -0.529033
  O      -0.490627      1.424555     -0.417106
  H       1.494059     -1.058303     -0.417649
  H       0.601587     -0.849850      1.089932
  H      -0.546006     -1.162338     -1.734160
  H      -1.238554     -1.783618     -0.228286
  H      -2.133694      0.620743     -1.389541
  H      -2.111228      0.409214      0.387193
  Li      2.439023      3.193934      0.005549
  O       3.458222      4.602743     -0.666506
  C       3.843067      5.138416      0.364536
  C       4.757506      6.304456      0.577493
  C       5.131714      6.197299      2.062351
  C       3.943309      5.445806      2.670072
  O       3.405261      4.644198      1.547000
  H       5.597486      6.257911     -0.120282
  H       4.188459      7.215298      0.342076
  H       6.051685      5.616967      2.180559
  H       5.277747      7.168774      2.539942
  H       4.204267      4.742995      3.461991
  H       3.134225      6.103546      3.000990
25
Coordinates from ORCA-job GBL_m1_shell2_cation_opt E -620.297237832056
  O       1.636209      1.603572      0.105752
  C       0.660270      0.885982     -0.087333
  C       0.583711     -0.608707      0.032865
  C      -0.718180     -0.952088     -0.694315
  C      -1.528557      0.334148     -0.545151
  O      -0.510339      1.407105     -0.437025
  H       1.486683     -1.070436     -0.373859
  H       0.552468     -0.849692      1.104882
  H      -0.522067     -1.161889     -1.749903
  H      -1.238556     -1.812137     -0.267623
  H      -2.150155      0.590061     -1.403457
  H      -2.118085      0.377800      0.375398
  Li      2.421936      3.201309      0.013900
  O       3.455510      4.627302     -0.654152
  C       3.848118      5.161102      0.372508
  C       4.764606      6.324360      0.583597
  C       5.157286      6.201383      2.059703
  C       3.967259      5.466262      2.675949
  O       3.415831      4.661822      1.555775
  H       5.593435      6.286535     -0.127387
  H       4.191586      7.236548      0.365378
  H       6.068568      5.604845      2.161252
  H       5.326256      7.166805      2.541231
  H       4.222086      4.760078      3.466471
  H       3.162248      6.130471      3.003222
25
Coordinates from ORCA-job GBL_m1_shell2_cation_opt E -620.297551123625
  O       1.608718      1.595439      0.112945
  C       0.638116      0.874462     -0.086630
  C       0.564575     -0.620454      0.044811
  C      -0.720021     -0.969305     -0.708250
  C      -1.539615      0.308761     -0.562958
  O      -0.528159      1.387292     -0.455542
  H       1.476601     -1.086298     -0.334526
  H       0.504660     -0.852114      1.117352
  H      -0.502508     -1.165555     -1.762168
  H      -1.241706     -1.836945     -0.299785
  H      -2.163079      0.561272     -1.420698
  H      -2.128091      0.348870      0.358613
  Li      2.406433      3.207067      0.022538
  O       3.453131      4.650644     -0.640616
  C       3.852390      5.181138      0.382346
  C       4.770523      6.344225      0.588261
  C       5.181783      6.207642      2.056870
  C       3.991284      5.483355      2.680144
  O       3.429429      4.680173      1.565467
  H       5.589065      6.317366     -0.134280
  H       4.192484      7.257186      0.389304
  H       6.086002      5.598204      2.142658
  H       5.369624      7.167409      2.541824
  H       4.243622      4.777461      3.471602
  H       3.192866      6.155245      3.008398
25
Coordinates from ORCA-job GBL_m1_shell2_cation_opt E -620.297743670767
  O       1.588941      1.587023      0.117582
  C       0.621418      0.864152     -0.087302
  C       0.549787     -0.631532      0.052672
  C      -0.724580     -0.984601     -0.716796
  C      -1.547493      0.292373     -0.579826
  O      -0.541466      1.369616     -0.469442
  H       1.466014     -1.102379     -0.308769
  H       0.468759     -0.856445      1.125174
  H      -0.492719     -1.176037     -1.768646
  H      -1.249140     -1.854262     -0.317006
  H      -2.170059      0.539468     -1.439849
  H      -2.141852      0.328816      0.338561
  Li      2.396047      3.209249      0.029381
  O       3.451640      4.667605     -0.629480
  C       3.855998      5.195306      0.391811
  C       4.774383      6.360872      0.590820
  C       5.201144      6.216795      2.054929
  C       4.012126      5.494794      2.684073
  O       3.444257      4.695661      1.575443
  H       5.585175      6.344022     -0.140131
  H       4.190507      7.273404      0.408263
  H       6.102431      5.601323      2.128748
  H       5.399265      7.173160      2.542046
  H       4.267180      4.791854      3.477409
  H       3.220367      6.172307      3.018017
25
Coordinates from ORCA-job GBL_m1_shell2_cation_opt E -620.297821029530
  O       1.581695      1.580063      0.119331
  C       0.614511      0.857123     -0.088376
  C       0.542261     -0.638860      0.054872
  C      -0.730190     -0.993476     -0.719162
  C      -1.551270      0.287487     -0.590858
  O      -0.547082      1.360269     -0.475588
  H       1.458711     -1.112880     -0.301655
  H       0.453756     -0.860897      1.127521
  H      -0.493613     -1.188748     -1.769411
  H      -1.258158     -1.860500     -0.318234
  H      -2.169904      0.530270     -1.455136
  H      -2.154425      0.322842      0.322176
  Li      2.393043      3.206910      0.033124
  O       3.451039      4.673243     -0.623151
  C       3.858231      5.200552      0.398109
  C       4.775036      6.369658      0.591222
  C       5.210538      6.226249      2.054159
  C       4.025072      5.499430      2.687971
  O       3.455221      4.703217      1.583611
  H       5.582038      6.357716     -0.143861
  H       4.186081      7.280571      0.416076
  H       6.113632      5.612530      2.122588
  H       5.408743      7.182606      2.541291
  H       4.286626      4.799533      3.482077
  H       3.236537      6.177631      3.028982
25
Coordinates from ORCA-job GBL_m1_shell2_cation_opt E -620.297854794040
  O       1.581346      1.573656      0.119865
  C       0.613267      0.851820     -0.089258
  C       0.538461     -0.643901      0.053865
  C      -0.735574     -0.997640     -0.719279
  C      -1.552982      0.287977     -0.597145
  O      -0.547950      1.356634     -0.477371
  H       1.453725     -1.119354     -0.304123
  H       0.450266     -0.865496      1.126770
  H      -0.499270     -1.199198     -1.768461
  H      -1.266612     -1.860801     -0.313972
  H      -2.166745      0.528790     -1.465613
  H      -2.163419      0.324508      0.311124
  Li      2.394061      3.201675      0.035463
  O       3.451284      4.671871     -0.618493
  C       3.859818      5.200804      0.402574
  C       4.773910      6.373338      0.590891
  C       5.213939      6.234931      2.053783
  C       4.033051      5.501782      2.691897
  O       3.462544      4.705495      1.590538
  H       5.579208      6.362528     -0.146139
  H       4.180874      7.281986      0.416620
  H       6.120691      5.626311      2.120824
  H       5.407744      7.193129      2.539222
  H       4.301772      4.804086      3.485685
  H       3.244718      6.177611      3.038410
25
Coordinates from ORCA-job GBL_m1_shell2_cation_opt E -620.297889363040
  O       1.582687      1.563538      0.121159
  C       0.613051      0.844057     -0.090082
  C       0.533193     -0.650985      0.051724
  C      -0.743215     -1.001845     -0.719641
  C      -1.554801      0.289783     -0.605298
  O      -0.547077      1.353306     -0.479420
  H       1.446667     -1.127943     -0.309332
  H       0.447403     -0.872851      1.124862
  H      -0.508188     -1.212401     -1.767318
  H      -1.278807     -1.859364     -0.308224
  H      -2.160757      0.529486     -1.479709
  H      -2.174163      0.329807      0.296773
  Li      2.396508      3.192052      0.039626
  O       3.451192      4.666953     -0.609953
  C       3.861603      5.199512      0.409597
  C       4.770944      6.377092      0.590406
  C       5.217253      6.247617      2.052680
  C       4.044330      5.505734      2.698156
  O       3.472150      4.706627      1.601346
  H       5.573725      6.366479     -0.149485
  H       4.172206      7.281912      0.414756
  H       6.129754      5.647448      2.118513
  H       5.403800      7.209181      2.534441
  H       4.323934      4.810717      3.490651
  H       3.254735      6.176628      3.051450
25
Coordinates from ORCA-job GBL_m1_shell2_cation_opt E -620.297942966841
  O       1.585176      1.543815      0.124543
  C       0.612696      0.829413     -0.091276
  C       0.522705     -0.664404      0.047951
  C      -0.756797     -1.008514     -0.721683
  C      -1.557720      0.292510     -0.620116
  O      -0.544095      1.347615     -0.484160
  H       1.433217     -1.144300     -0.317373
  H       0.440636     -0.887320      1.121175
  H      -0.523528     -1.233383     -1.766640
  H      -1.300813     -1.856471     -0.301404
  H      -2.149617      0.532058     -1.504338
  H      -2.190562      0.340293      0.272048
  Li      2.400888      3.172657      0.048779
  O       3.450027      4.656248     -0.590913
  C       3.864248      5.196553      0.424058
  C       4.764368      6.383370      0.589789
  C       5.223097      6.270722      2.049706
  C       4.065956      5.514931      2.710080
  O       3.489525      4.707865      1.622486
  H       5.561788      6.372560     -0.156022
  H       4.155562      7.280854      0.410498
  H       6.145521      5.685688      2.112910
  H       5.397426      7.238462      2.523727
  H       4.365088      4.824837      3.499862
  H       3.273335      6.176483      3.073990
25
Coordinates from ORCA-job GBL_m1_shell2_cation_opt E -620.298034896040
  O       1.588646      1.507660      0.131524
  C       0.611123      0.803207     -0.093445
  C       0.502946     -0.688708      0.041626
  C      -0.779979     -1.019509     -0.727780
  C      -1.562359      0.295676     -0.646108
  O      -0.537816      1.336958     -0.494396
  H       1.408714     -1.174571     -0.328427
  H       0.424814     -0.913989      1.114513
  H      -0.548565     -1.265272     -1.768156
  H      -1.338650     -1.852160     -0.296132
  H      -2.131184      0.537019     -1.545043
  H      -2.214326      0.357852      0.230990
  Li      2.407931      3.136567      0.066800
  O       3.446472      4.635779     -0.552328
  C       3.868116      5.191071      0.452234
  C       4.751687      6.393753      0.589201
  C       5.233735      6.310772      2.043131
  C       4.105509      5.534729      2.731411
  O       3.520452      4.710573      1.661787
  H       5.538470      6.382183     -0.167970
  H       4.125969      7.278183      0.403403
  H       6.171803      5.750775      2.100227
  H       5.389306      7.288700      2.502575
  H       4.437372      4.854337      3.516637
  H       3.307940      6.180956      3.111405
25
Coordinates from ORCA-job GBL_m1_shell2_cation_opt E -620.298154118186
  O       1.590690      1.477458      0.138922
  C       0.608947      0.782120     -0.094718
  C       0.485784     -0.708551      0.037366
  C      -0.796990     -1.027343     -0.736291
  C      -1.565442      0.296657     -0.667058
  O      -0.531543      1.328015     -0.504364
  H       1.388665     -1.200114     -0.332580
  H       0.406744     -0.936100      1.109469
  H      -0.564441     -1.284171     -1.773506
  H      -1.367375     -1.850247     -0.301284
  H      -2.118037      0.542143     -1.574946
  H      -2.227962      0.370165      0.200919
  Li      2.412076      3.105415      0.083932
  O       3.440284      4.616663     -0.515124
  C       3.869388      5.185818      0.478288
  C       4.739664      6.400706      0.588866
  C       5.243196      6.341817      2.035790
  C       4.138997      5.554873      2.749294
  O       3.545157      4.713579      1.696610
  H       5.516089      6.387655     -0.178975
  H       4.101271      7.274757      0.398109
  H       6.191734      5.799384      2.085854
  H       5.387780      7.327449      2.482077
  H       4.495299      4.883653      3.531675
  H       3.338154      6.190737      3.139351
25
Coordinates from ORCA-job GBL_m1_shell2_cation_opt E -620.298333533915
  O       1.592814      1.455307      0.147029
  C       0.607279      0.768766     -0.094968
  C       0.473258     -0.721904      0.034977
  C      -0.805284     -1.029875     -0.748035
  C      -1.565879      0.296273     -0.681076
  O      -0.523649      1.322726     -0.513180
  H       1.375236     -1.219062     -0.329265
  H       0.387417     -0.952220      1.105575
  H      -0.567623     -1.284746     -1.784430
  H      -1.383788     -1.850669     -0.320052
  H      -2.111475      0.550912     -1.590379
  H      -2.227724      0.376663      0.186525
  Li      2.412210      3.079186      0.100338
  O       3.428238      4.595517     -0.477377
  C       3.865496      5.178336      0.502873
  C       4.727078      6.401301      0.587898
  C       5.250982      6.360875      2.026672
  C       4.163948      5.575776      2.763476
  O       3.560329      4.715725      1.727516
  H       5.493129      6.385119     -0.190199
  H       4.081647      7.268780      0.393279
  H       6.203917      5.825967      2.069442
  H       5.395411      7.352271      2.459777
  H       4.534050      4.913352      3.546714
  H       3.361115      6.208164      3.154547
25
Coordinates from ORCA-job GBL_m1_shell2_cation_opt E -620.298482046980
  O       1.593079      1.434402      0.154586
  C       0.604156      0.755698     -0.095880
  C       0.460709     -0.734978      0.033196
  C      -0.813222     -1.034159     -0.760030
  C      -1.566730      0.294628     -0.696319
  O      -0.517891      1.315718     -0.522995
  H       1.362011     -1.238284     -0.323762
  H       0.365137     -0.966327      1.102554
  H      -0.569032     -1.287124     -1.795382
  H      -1.399597     -1.852957     -0.339215
  H      -2.106241      0.556403     -1.607006
  H      -2.229641      0.379842      0.169971
  Li      2.410486      3.055251      0.115975
  O       3.415172      4.576502     -0.440026
  C       3.861279      5.172286      0.527903
  C       4.715232      6.402405      0.586917
  C       5.260580      6.379423      2.017560
  C       4.189719      5.596838      2.777507
  O       3.576443      4.720794      1.758927
  H       5.470075      6.383891     -0.201949
  H       4.062493      7.264035      0.391957
  H       6.217049      5.850324      2.051693
  H       5.406480      7.375953      2.438083
  H       4.573158      4.943985      3.562232
  H       3.387225      6.227988      3.171181
25
Coordinates from ORCA-job GBL_m1_shell2_cation_opt E -620.298700824786
  O       1.591838      1.404223      0.164844
  C       0.598475      0.735957     -0.097797
  C       0.441925     -0.754374      0.030624
  C      -0.825144     -1.042370     -0.777916
  C      -1.568713      0.291145     -0.719641
  O      -0.511675      1.303882     -0.537962
  H       1.342338     -1.266897     -0.314766
  H       0.330050     -0.985376      1.098411
  H      -0.570560     -1.293191     -1.811412
  H      -1.422771     -1.858062     -0.367185
  H      -2.099864      0.561124     -1.632672
  H      -2.235248      0.381581      0.143440
  Li      2.406909      3.022048      0.137842
  O       3.396367      4.550663     -0.385552
  C       3.855747      5.164918      0.565183
  C       4.698783      6.404450      0.585936
  C       5.276138      6.406967      2.004281
  C       4.228592      5.628311      2.798061
  O       3.601639      4.731346      1.805821
  H       5.436331      6.382768     -0.218987
  H       4.034684      7.257809      0.393459
  H       6.237188      5.885382      2.024708
  H       5.424644      7.410618      2.406559
  H       4.631781      4.990315      3.585026
  H       3.428674      6.259301      3.197373
25
Coordinates from ORCA-job GBL_m1_shell2_cation_opt E -620.299037655892
  O       1.587911      1.361170      0.179116
  C       0.589117      0.706722     -0.100890
  C       0.413916     -0.782453      0.027327
  C      -0.842136     -1.056079     -0.804651
  C      -1.572007      0.284858     -0.754660
  O      -0.504860      1.285313     -0.560482
  H       1.313249     -1.308600     -0.299305
  H       0.275349     -1.010232      1.092816
  H      -0.570868     -1.304008     -1.834884
  H      -1.455642     -1.867366     -0.408927
  H      -2.091676      0.564237     -1.671356
  H      -2.245757      0.380827      0.102494
  Li      2.400433      2.976282      0.168490
  O       3.369490      4.515441     -0.305260
  C       3.848571      5.155874      0.620711
  C       4.675146      6.407219      0.585837
  C       5.299961      6.446641      1.984337
  C       4.286719      5.674968      2.827264
  O       3.640320      4.750374      1.875090
  H       5.385710      6.380857     -0.242828
  H       3.993914      7.248848      0.401012
  H       6.266461      5.934353      1.983115
  H       5.452819      7.459992      2.359969
  H       4.718938      5.059518      3.616777
  H       3.493048      6.307784      3.236565
25
Coordinates from ORCA-job GBL_m1_shell2_cation_opt E -620.299422010565
  O       1.572772      1.237141      0.218355
  C       0.561746      0.619913     -0.108924
  C       0.328685     -0.862338      0.023428
  C      -0.890821     -1.098420     -0.877705
  C      -1.579227      0.265819     -0.857998
  O      -0.485704      1.229630     -0.627638
  H       1.223236     -1.429300     -0.243534
  H       0.109608     -1.070610      1.080900
  H      -0.568802     -1.345348     -1.894630
  H      -1.550141     -1.893358     -0.523006
  H      -2.062236      0.563783     -1.789048
  H      -2.279063      0.380285     -0.023244
  Li      2.383048      2.849659      0.249986
  O       3.301297      4.422370     -0.077227
  C       3.837165      5.140768      0.772653
  C       4.607286      6.421790      0.592034
  C       5.364223      6.557175      1.928820
  C       4.455871      5.802310      2.905783
  O       3.766966      4.821887      2.053957
  H       5.235768      6.386241     -0.301886
  H       3.876418      7.229535      0.441073
  H       6.342155      6.069296      1.857729
  H       5.525192      7.593235      2.235807
  H       4.971116      5.244960      3.690793
  H       3.681571      6.436117      3.351199
25
Coordinates from ORCA-job GBL_m1_shell2_cation_opt E -620.299694129101
  O       1.564999      1.256540      0.213384
  C       0.558405      0.629869     -0.107514
  C       0.334962     -0.852953      0.027781
  C      -0.882768     -1.098868     -0.872529
  C      -1.583138      0.259612     -0.847548
  O      -0.497399      1.232136     -0.622937
  H       1.233561     -1.414067     -0.237231
  H       0.116886     -1.058679      1.085761
  H      -0.559420     -1.340110     -1.890248
  H      -1.533980     -1.900795     -0.518964
  H      -2.074464      0.551307     -1.776230
  H      -2.280240      0.366595     -0.009587
  Li      2.381369      2.874754      0.238502
  O       3.312229      4.449603     -0.107335
  C       3.840824      5.149900      0.754686
  C       4.620870      6.425375      0.592291
  C       5.361744      6.544474      1.935755
  C       4.437976      5.785660      2.895125
  O       3.750571      4.812357      2.033114
  H       5.258786      6.393349     -0.294228
  H       3.895706      7.238259      0.442314
  H       6.336799      6.050442      1.872988
  H       5.524691      7.577048      2.252173
  H       4.944583      5.219715      3.678598
  H       3.664577      6.421019      3.339557
25
Coordinates from ORCA-job GBL_m1_shell2_cation_opt E -620.299842192240
  O       1.564867      1.229921      0.216077
  C       0.557704      0.609643     -0.107023
  C       0.316256     -0.868753      0.028458
  C      -0.900537     -1.104268     -0.870567
  C      -1.583018      0.262452     -0.864295
  O      -0.489567      1.225105     -0.630037
  H       1.211390     -1.433593     -0.239195
  H       0.107741     -1.073961      1.086925
  H      -0.581657     -1.366933     -1.883219
  H      -1.563070     -1.891160     -0.506093
  H      -2.050894      0.549939     -1.806005
  H      -2.291120      0.389996     -0.039653
  Li      2.392787      2.851946      0.244289
  O       3.327190      4.448718     -0.089434
  C       3.854071      5.153752      0.764978
  C       4.615981      6.436320      0.598975
  C       5.355694      6.572381      1.934859
  C       4.462860      5.791060      2.899074
  O       3.774474      4.810941      2.043243
  H       5.253496      6.403042     -0.285920
  H       3.879878      7.235457      0.437904
  H       6.342014      6.104822      1.868203
  H       5.490276      7.608219      2.250340
  H       4.996257      5.223466      3.661055
  H       3.685054      6.404026      3.364739
25
Coordinates from ORCA-job GBL_m1_shell2_cation_opt E -620.299943935462
  O       1.563976      1.225864      0.214825
  C       0.556132      0.606078     -0.107870
  C       0.312777     -0.871831      0.026556
  C      -0.900479     -1.105169     -0.878822
  C      -1.585115      0.261124     -0.863562
  O      -0.492105      1.222874     -0.630285
  H       1.208234     -1.439141     -0.234855
  H       0.094357     -1.074064      1.084012
  H      -0.576167     -1.358005     -1.892501
  H      -1.562521     -1.896712     -0.523366
  H      -2.059855      0.550772     -1.801309
  H      -2.290563      0.381512     -0.035270
  Li      2.393621      2.846938      0.244701
  O       3.326018      4.443264     -0.074303
  C       3.856583      5.149782      0.774901
  C       4.615611      6.431947      0.597685
  C       5.359312      6.577668      1.930748
  C       4.466806      5.799667      2.903754
  O       3.784412      4.812676      2.054333
  H       5.248392      6.395989     -0.290801
  H       3.876797      7.229755      0.439764
  H       6.346245      6.110473      1.865435
  H       5.493046      7.616133      2.238194
  H       5.004125      5.240223      3.669511
  H       3.688490      6.414723      3.366202
25
Coordinates from ORCA-job GBL_m1_shell2_cation_opt E -620.296988606562
  O       1.566108      1.243994      0.191824
  C       0.558100      0.610676     -0.113827
  C       0.318671     -0.864895      0.006675
  C      -0.869476     -1.089783     -0.946666
  C      -1.593010      0.262870     -0.828335
  O      -0.521258      1.227311     -0.613759
  H       1.219556     -1.446337     -0.203833
  H       0.008312     -1.036167      1.052422
  H      -0.501576     -1.235544     -1.969827
  H      -1.509893     -1.932993     -0.676374
  H      -2.154831      0.558149     -1.717194
  H      -2.267618      0.288783      0.037289
  Li      2.406489      2.842518      0.224925
  O       3.309720      4.401125      0.045467
  C       3.847733      5.098563      0.866816
  C       4.605420      6.353657      0.576053
  C       5.376238      6.580236      1.885826
  C       4.462005      5.851032      2.929092
  O       3.793788      4.810939      2.172112
  H       5.212866      6.267295     -0.332029
  H       3.858657      7.155061      0.435335
  H       6.363125      6.099755      1.843187
  H       5.513514      7.639066      2.119137
  H       5.019263      5.365172      3.738146
  H       3.706225      6.522060      3.355214
25
Coordinates from ORCA-job GBL_m1_shell2_cation_opt E -620.300123532252
  O       1.558371      1.204758      0.204233
  C       0.546111      0.588207     -0.112442
  C       0.294643     -0.888453      0.013519
  C      -0.892443     -1.105756     -0.932437
  C      -1.598617      0.247828     -0.848680
  O      -0.509029      1.211390     -0.624315
  H       1.192440     -1.468157     -0.208742
  H       0.018358     -1.077033      1.061597
  H      -0.534257     -1.284113     -1.951602
  H      -1.544936     -1.931570     -0.642697
  H      -2.121307      0.557154     -1.754414
  H      -2.275683      0.319773      0.009697
  Li      2.395800      2.818767      0.242160
  O       3.316708      4.406934      0.010242
  C       3.858748      5.131460      0.832040
  C       4.614188      6.404940      0.592762
  C       5.380771      6.597206      1.908952
  C       4.486922      5.858068      2.923926
  O       3.809427      4.836034      2.123180
  H       5.227119      6.343655     -0.308826
  H       3.869493      7.199934      0.439639
  H       6.363063      6.117410      1.850063
  H       5.525491      7.646259      2.173529
  H       5.032072      5.339264      3.713765
  H       3.714674      6.498585      3.362530
25
Coordinates from ORCA-job GBL_m1_shell2_cation_opt E -620.300399995192
  O       1.577172      1.174023      0.203702
  C       0.560487      0.569436     -0.117358
  C       0.291651     -0.904002      0.000122
  C      -0.928370     -1.107400     -0.903236
  C      -1.588899      0.271622     -0.874606
  O      -0.483020      1.211878     -0.630103
  H       1.178450     -1.482850     -0.267297
  H       0.070608     -1.109671      1.057266
  H      -0.610917     -1.356655     -1.920174
  H      -1.603048     -1.890724     -0.552314
  H      -2.058213      0.572514     -1.811963
  H      -2.297096      0.392676     -0.048461
  Li      2.414245      2.783799      0.249641
  O       3.327257      4.385240      0.029207
  C       3.867589      5.122676      0.842573
  C       4.600668      6.409199      0.598717
  C       5.362536      6.630004      1.911580
  C       4.509700      5.858380      2.932603
  O       3.833623      4.827053      2.135893
  H       5.219809      6.341077     -0.298913
  H       3.844066      7.185804      0.417709
  H       6.364642      6.195336      1.849256
  H       5.461805      7.684098      2.177405
  H       5.084876      5.339448      3.701209
  H       3.728506      6.469578      3.395219
25
Coordinates from ORCA-job GBL_m1_shell2_cation_opt E -620.300597433045
  O       1.570881      1.150200      0.203172
  C       0.552535      0.551570     -0.123981
  C       0.274200     -0.920460     -0.005582
  C      -0.938411     -1.117214     -0.920001
  C      -1.594434      0.263428     -0.890271
  O      -0.484503      1.198570     -0.642582
  H       1.159381     -1.506205     -0.262056
  H       0.040434     -1.122269      1.049449
  H      -0.612662     -1.361996     -1.935479
  H      -1.618104     -1.900329     -0.578942
  H      -2.061227      0.569161     -1.827184
  H      -2.302448      0.385809     -0.064147
  Li      2.413378      2.759996      0.258838
  O       3.322052      4.367952      0.084919
  C       3.868768      5.122131      0.880468
  C       4.589872      6.409812      0.604549
  C       5.374180      6.651160      1.900614
  C       4.544267      5.891671      2.945509
  O       3.856412      4.847158      2.177042
  H       5.194642      6.333476     -0.301700
  H       3.825717      7.178956      0.424549
  H       6.375630      6.217572      1.824805
  H       5.476248      7.708589      2.151045
  H       5.132373      5.386469      3.712646
  H       3.768948      6.507334      3.411999
25
Coordinates from ORCA-job GBL_m1_shell2_cation_opt E -620.296580170290
  O       1.542222      0.926779      0.199711
  C       0.504668      0.399643     -0.193663
  C       0.126219     -1.056564     -0.086185
  C      -1.022102     -1.168635     -1.093677
  C      -1.627076      0.230477     -1.023863
  O      -0.470416      1.102605     -0.744166
  H       0.980613     -1.712822     -0.255067
  H      -0.221020     -1.230810      0.942924
  H      -0.628073     -1.360743     -2.098256
  H      -1.747547     -1.946720     -0.852064
  H      -2.076596      0.603421     -1.943890
  H      -2.322729      0.355414     -0.187391
  Li      2.454754      2.523880      0.393860
  O       3.323559      4.113075      0.768220
  C       3.917247      5.061640      1.338521
  C       4.442185      6.334862      0.693982
  C       5.446118      6.830024      1.748906
  C       4.864679      6.234081      3.011657
  O       4.118668      4.997232      2.628333
  H       4.866054      6.153186     -0.297015
  H       3.583917      7.003816      0.539322
  H       6.440234      6.420390      1.549896
  H       5.539091      7.918623      1.806124
  H       5.574044      5.933792      3.782684
  H       4.119415      6.905896      3.448776
25
Coordinates from ORCA-job GBL_m1_shell2_cation_opt E -620.278730028164
  O       1.620474      1.093378      0.256841
  C       0.586118      0.537626     -0.077270
  C       0.263585     -0.923807     -0.041877
  C      -0.938526     -1.049452     -0.986486
  C      -1.534812      0.360272     -0.930194
  O      -0.413070      1.244345     -0.608579
  H       1.139342     -1.522985     -0.314678
  H       0.004692     -1.155633      1.001971
  H      -0.601905     -1.273297     -2.000570
  H      -1.658605     -1.813602     -0.679726
  H      -1.966590      0.690679     -1.877386
  H      -2.282314      0.468732     -0.136218
  Li      2.474465      2.653008      0.368141
  O       3.323158      4.205515      0.474594
  C       3.855901      4.992406      1.100710
  C       4.459123      6.233491      0.556928
  C       5.300371      6.682657      1.761066
  C       4.616259      6.014962      3.033017
  O       3.988294      4.848027      2.382037
  H       4.988119      6.041265     -0.379018
  H       3.639383      6.936912      0.353265
  H       6.326587      6.307606      1.654263
  H       5.332979      7.765316      1.856634
  H       5.360889      5.645670      3.746333
  H       3.844212      6.589448      3.563882
25
Coordinates from ORCA-job GBL_m1_shell2_cation_opt E -620.292507908381
  O       1.626198      0.939985      0.285105
  C       0.565277      0.432767     -0.077350
  C       0.201079     -1.026600     -0.105728
  C      -1.013754     -1.081191     -1.054732
  C      -1.563289      0.344569     -0.934735
  O      -0.405131      1.184004     -0.574495
  H       1.059587     -1.631290     -0.408957
  H      -0.061410     -1.308617      0.929295
  H      -0.689797     -1.268446     -2.085805
  H      -1.758419     -1.847876     -0.780279
  H      -1.985842      0.739393     -1.860982
  H      -2.299529      0.441805     -0.133784
  Li      2.470678      2.496274      0.434575
  O       3.299327      4.057605      0.572219
  C       3.880066      4.975575      1.162878
  C       4.486698      6.257572      0.568899
  C       5.351890      6.807417      1.756808
  C       4.696660      6.170069      3.067983
  O       4.068804      4.937667      2.494661
  H       5.010705      6.042830     -0.364524
  H       3.660789      6.948443      0.346465
  H       6.379798      6.452462      1.666192
  H       5.375405      7.917283      1.791893
  H       5.448822      5.837605      3.808146
  H       3.923516      6.753236      3.573931
25
Coordinates from ORCA-job GBL_m1_shell2_cation_opt E -620.297309612985
  O       1.600800      0.962581      0.278669
  C       0.551466      0.450459     -0.096353
  C       0.205878     -1.008568     -0.096158
  C      -0.996483     -1.082199     -1.048471
  C      -1.567102      0.333306     -0.951596
  O      -0.421185      1.179461     -0.600708
  H       1.070361     -1.613954     -0.382582
  H      -0.065289     -1.278255      0.941447
  H      -0.659981     -1.286673     -2.074508
  H      -1.728487     -1.842207     -0.767917
  H      -1.983432      0.718937     -1.879408
  H      -2.301416      0.443296     -0.148716
  Li      2.462395      2.536532      0.452910
  O       3.301599      4.076513      0.616526
  C       3.898482      5.008139      1.195549
  C       4.479334      6.257076      0.632043
  C       5.342117      6.777084      1.755881
  C       4.717857      6.153223      2.985175
  O       4.081091      4.953277      2.487328
  H       4.988358      6.048438     -0.293297
  H       3.653647      6.943685      0.438058
  H       6.362069      6.420304      1.642807
  H       5.352171      7.855615      1.815878
  H       5.438956      5.818538      3.702749
  H       3.944920      6.747932      3.472373
25
Coordinates from ORCA-job GBL_m1_shell2_cation_opt E -620.299749296497
  O       1.589906      0.959990      0.268603
  C       0.541558      0.445678     -0.111597
  C       0.191371     -1.016449     -0.086589
  C      -0.997622     -1.093387     -1.041566
  C      -1.583228      0.320784     -0.973044
  O      -0.434741      1.175321     -0.633575
  H       1.054942     -1.628149     -0.354194
  H      -0.083660     -1.274301      0.942815
  H      -0.650786     -1.310187     -2.052759
  H      -1.725448     -1.846244     -0.757090
  H      -1.996471      0.699880     -1.910733
  H      -2.318509      0.446388     -0.166632
  Li      2.474009      2.538765      0.450740
  O       3.320978      4.115609      0.612425
  C       3.900963      5.004211      1.212057
  C       4.472237      6.271860      0.632772
  C       5.358168      6.802893      1.760358
  C       4.736657      6.141048      2.992026
  O       4.079626      4.901887      2.516858
  H       4.981655      6.078760     -0.317491
  H       3.620782      6.942966      0.425477
  H       6.401885      6.466732      1.650782
  H       5.358699      7.890616      1.819160
  H       5.484798      5.813367      3.721875
  H       3.950357      6.724501      3.477000
25
Coordinates from ORCA-job GBL_m1_shell2_cation_opt E -620.300608144388
  O       1.588720      0.955964      0.256768
  C       0.543831      0.436816     -0.120043
  C       0.191832     -1.023710     -0.103006
  C      -1.010105     -1.103238     -1.048375
  C      -1.583342      0.311465     -0.961052
  O      -0.436896      1.165059     -0.623634
  H       1.051355     -1.632068     -0.384324
  H      -0.074606     -1.284293      0.928740
  H      -0.679747     -1.316297     -2.067443
  H      -1.741290     -1.861524     -0.760734
  H      -2.001671      0.691074     -1.891243
  H      -2.312358      0.427065     -0.156060
  Li      2.462551      2.535160      0.433059
  O       3.316832      4.109356      0.605325
  C       3.894499      5.002094      1.204420
  C       4.475301      6.268594      0.626102
  C       5.371654      6.799040      1.766427
  C       4.740153      6.169750      3.024014
  O       4.076669      4.945704      2.520001
  H       4.985060      6.064630     -0.324934
  H       3.633302      6.945551      0.417675
  H       6.396145      6.440482      1.641949
  H       5.396312      7.891446      1.822558
  H       5.464996      5.846393      3.770221
  H       3.978932      6.788028      3.501268
25
Coordinates from ORCA-job GBL_m1_shell2_cation_opt E -620.300996654251
  O       1.581247      0.944892      0.266753
  C       0.539928      0.426792     -0.120322
  C       0.177015     -1.031696     -0.082788
  C      -1.011906     -1.109992     -1.052660
  C      -1.584735      0.304920     -0.984328
  O      -0.433577      1.156547     -0.643440
  H       1.044157     -1.652196     -0.341293
  H      -0.107858     -1.280905      0.955262
  H      -0.661958     -1.330855     -2.069552
  H      -1.755058     -1.864034     -0.771656
  H      -1.987121      0.684306     -1.924820
  H      -2.321377      0.435492     -0.184405
  Li      2.461538      2.532810      0.447377
  O       3.312318      4.122413      0.610883
  C       3.901676      5.019950      1.207074
  C       4.465750      6.291269      0.640441
  C       5.371157      6.805392      1.763782
  C       4.766487      6.159705      3.013115
  O       4.098078      4.949517      2.514817
  H       4.968266      6.107301     -0.309871
  H       3.615457      6.960707      0.442680
  H       6.401230      6.459352      1.617457
  H       5.386441      7.889577      1.834655
  H       5.505108      5.827850      3.744326
  H       3.995864      6.763423      3.504191
25
Coordinates from ORCA-job GBL_m1_shell2_cation_opt E -620.300886581818
  O       1.590932      0.943048      0.249680
  C       0.544759      0.427300     -0.133752
  C       0.181971     -1.033188     -0.107466
  C      -1.018634     -1.109710     -1.047491
  C      -1.592470      0.308517     -0.960361
  O      -0.436884      1.159489     -0.635464
  H       1.032238     -1.649730     -0.386329
  H      -0.080527     -1.287054      0.921130
  H      -0.688575     -1.325604     -2.063350
  H      -1.747068     -1.864765     -0.758782
  H      -2.015191      0.692432     -1.888832
  H      -2.316427      0.429674     -0.147726
  Li      2.481046      2.528524      0.437858
  O       3.340653      4.111135      0.612053
  C       3.919851      5.008262      1.215098
  C       4.484818      6.278693      0.644290
  C       5.368769      6.807699      1.770456
  C       4.744423      6.169015      3.004051
  O       4.090640      4.945222      2.520066
  H       4.994115      6.085843     -0.293301
  H       3.643249      6.948864      0.429354
  H       6.395977      6.457992      1.651847
  H       5.382024      7.902180      1.826539
  H       5.461619      5.854117      3.760449
  H       3.966819      6.784586      3.457662
25
Coordinates from ORCA-job GBL_m1_shell2_cation_opt E -620.301149177626
  O       1.569402      0.959490      0.260408
  C       0.531245      0.435411     -0.127255
  C       0.181579     -1.024908     -0.094794
  C      -1.005592     -1.115643     -1.055109
  C      -1.596112      0.290234     -0.976314
  O      -0.451431      1.155569     -0.645873
  H       1.044814     -1.636272     -0.357421
  H      -0.093995     -1.273949      0.937137
  H      -0.658886     -1.326781     -2.070332
  H      -1.731021     -1.877422     -0.776235
  H      -2.014276      0.667611     -1.909286
  H      -2.322574      0.409514     -0.166567
  Li      2.454763      2.547230      0.448157
  O       3.309523      4.134492      0.617340
  C       3.898971      5.022023      1.219640
  C       4.472341      6.287275      0.644860
  C       5.385610      6.794794      1.763819
  C       4.762866      6.168309      3.012441
  O       4.085741      4.949122      2.530359
  H       4.970126      6.095711     -0.314814
  H       3.629775      6.961679      0.448686
  H       6.405840      6.429443      1.616872
  H       5.423098      7.880551      1.832119
  H       5.480672      5.847296      3.761860
  H       3.995649      6.791763      3.477982
25
Coordinates from ORCA-job GBL_m1_shell2_cation_opt E -620.301069256808
  O       1.589291      0.945446      0.258838
  C       0.547723      0.426054     -0.126742
  C       0.180908     -1.032804     -0.091524
  C      -1.015937     -1.108522     -1.051124
  C      -1.587252      0.309245     -0.973405
  O      -0.432391      1.160051     -0.638455
  H       1.042452     -1.656073     -0.358399
  H      -0.095806     -1.280697      0.947004
  H      -0.675696     -1.327924     -2.069524
  H      -1.757466     -1.863819     -0.766255
  H      -1.997367      0.690943     -1.910034
  H      -2.319054      0.435009     -0.168568
  Li      2.472816      2.529696      0.440704
  O       3.329947      4.113592      0.604159
  C       3.907475      5.010504      1.206088
  C       4.468832      6.286798      0.638123
  C       5.371300      6.806129      1.767091
  C       4.756587      6.161679      3.016263
  O       4.092997      4.947795      2.516089
  H       4.974005      6.098793     -0.309247
  H       3.618646      6.956378      0.429112
  H       6.399814      6.454880      1.627255
  H       5.387820      7.896810      1.835033
  H       5.487361      5.837640      3.765941
  H       3.981124      6.774938      3.489257
25
Coordinates from ORCA-job GBL_m1_shell2_cation_opt E -620.301254372898
  O       1.575377      0.956822      0.259523
  C       0.536479      0.432437     -0.126743
  C       0.185197     -1.029355     -0.101038
  C      -1.007897     -1.112050     -1.058053
  C      -1.598813      0.294103     -0.960080
  O      -0.451525      1.157650     -0.631361
  H       1.048390     -1.641585     -0.370754
  H      -0.087857     -1.284412      0.932520
  H      -0.665484     -1.311212     -2.077960
  H      -1.733753     -1.880213     -0.783976
  H      -2.025917      0.679872     -1.885762
  H      -2.319209      0.403428     -0.143692
  Li      2.458258      2.545263      0.451737
  O       3.320915      4.130321      0.598345
  C       3.905354      5.019772      1.205862
  C       4.484682      6.286110      0.639888
  C       5.384378      6.795032      1.769553
  C       4.747674      6.168489      3.010433
  O       4.077835      4.952713      2.517178
  H       4.992017      6.093686     -0.307200
  H       3.645584      6.963425      0.430675
  H       6.405735      6.427452      1.638178
  H       5.419551      7.883939      1.835358
  H       5.457621      5.846446      3.771726
  H       3.973535      6.794407      3.463320
25
Coordinates from ORCA-job GBL_m1_shell2_cation_opt E -620.301253347616
  O       1.573627      0.957802      0.255105
  C       0.535978      0.432573     -0.132098
  C       0.181407     -1.027559     -0.095645
  C      -1.008431     -1.116737     -1.053523
  C      -1.596723      0.292751     -0.974297
  O      -0.448825      1.155546     -0.647559
  H       1.041904     -1.645314     -0.356979
  H      -0.095350     -1.270301      0.938164
  H      -0.662826     -1.329241     -2.068886
  H      -1.736253     -1.878148     -0.772660
  H      -2.017810      0.670138     -1.907522
  H      -2.323769      0.411321     -0.162748
  Li      2.462024      2.544227      0.442716
  O       3.319775      4.129348      0.611940
  C       3.904106      5.020887      1.216410
  C       4.472557      6.291073      0.645635
  C       5.386182      6.796036      1.765889
  C       4.760189      6.166996      3.012175
  O       4.090182      4.951511      2.525311
  H       4.968382      6.103722     -0.310400
  H       3.627758      6.966180      0.450366
  H       6.405853      6.426461      1.619499
  H       5.424455      7.883482      1.835940
  H       5.477022      5.848437      3.770489
  H       3.986716      6.791352      3.470358
25
Coordinates from ORCA-job GBL_m1_shell2_cation_opt E -620.301283906763
  O       1.565298      0.971033      0.259661
  C       0.530565      0.438812     -0.125299
  C       0.193271     -1.025847     -0.108161
  C      -1.001361     -1.114285     -1.060843
  C      -1.608924      0.283641     -0.947428
  O      -0.468263      1.157510     -0.620090
  H       1.059619     -1.629689     -0.383258
  H      -0.074126     -1.286375      0.924517
  H      -0.659364     -1.299341     -2.083276
  H      -1.716373     -1.893018     -0.791670
  H      -2.048269      0.671995     -1.867492
  H      -2.325037      0.376836     -0.123634
  Li      2.445388      2.561399      0.460012
  O       3.317593      4.144773      0.580482
  C       3.902216      5.027517      1.196615
  C       4.498400      6.289212      0.637162
  C       5.397109      6.783685      1.774471
  C       4.734759      6.168687      3.008290
  O       4.061566      4.957087      2.509886
  H       5.008540      6.094085     -0.309862
  H       3.666870      6.975597      0.425560
  H       6.413304      6.397602      1.651102
  H       5.450465      7.871489      1.842701
  H       5.427394      5.845073      3.785097
  H       3.957489      6.805065      3.443134
25
Coordinates from ORCA-job GBL_m1_shell2_cation_opt E -620.301296639101
  O       1.559736      0.979665      0.258033
  C       0.527310      0.442313     -0.125606
  C       0.200023     -1.024727     -0.115989
  C      -0.999714     -1.114886     -1.062344
  C      -1.616025      0.277756     -0.934328
  O      -0.479675      1.157609     -0.609288
  H       1.069484     -1.621737     -0.399492
  H      -0.059859     -1.293097      0.917856
  H      -0.662879     -1.290271     -2.088436
  H      -1.707942     -1.901017     -0.794302
  H      -2.065046      0.668754     -1.847517
  H      -2.325537      0.359976     -0.104800
  Li      2.436478      2.571578      0.465465
  O       3.320023      4.152123      0.563324
  C       3.902692      5.032286      1.186048
  C       4.512834      6.290482      0.634032
  C       5.403625      6.777564      1.780271
  C       4.721253      6.169954      3.006401
  O       4.048207      4.961020      2.501016
  H       5.029337      6.091522     -0.307593
  H       3.689039      6.983584      0.414841
  H       6.416705      6.380971      1.669074
  H       5.466543      7.865049      1.848962
  H       5.400459      5.844114      3.794528
  H       3.941058      6.811956      3.427522
25
Coordinates from ORCA-job GBL_m1_shell2_cation_opt E -620.301304937345
  O       1.553691      0.989886      0.255643
  C       0.523624      0.446682     -0.125295
  C       0.206717     -1.022580     -0.122261
  C      -0.998901     -1.116748     -1.061263
  C      -1.622844      0.271840     -0.925268
  O      -0.491100      1.157340     -0.599823
  H       1.078442     -1.611546     -0.414846
  H      -0.043236     -1.298040      0.912271
  H      -0.667795     -1.287732     -2.090264
  H      -1.701192     -1.908015     -0.790731
  H      -2.077002      0.663620     -1.836057
  H      -2.330718      0.345823     -0.093328
  Li      2.429394      2.581658      0.467695
  O       3.323875      4.158361      0.549271
  C       3.903558      5.036578      1.177777
  C       4.524183      6.292783      0.632095
  C       5.410171      6.771708      1.785545
  C       4.710481      6.170388      3.004896
  O       4.038057      4.963589      2.493730
  H       5.044405      6.091479     -0.306630
  H       3.706250      6.991778      0.408501
  H       6.420146      6.364703      1.683506
  H       5.483002      7.858833      1.855547
  H       5.377283      5.843187      3.802916
  H       3.927636      6.816966      3.414052
25
Coordinates from ORCA-job GBL_m1_shell2_cation_opt E -620.301314098080
  O       1.546702      1.000747      0.249239
  C       0.519061      0.451473     -0.129464
  C       0.211255     -1.019524     -0.125635
  C      -0.999222     -1.121160     -1.057283
  C      -1.628463      0.265468     -0.922969
  O      -0.501444      1.156283     -0.600224
  H       1.084894     -1.603101     -0.423518
  H      -0.030449     -1.296748      0.910335
  H      -0.673603     -1.295432     -2.087263
  H      -1.696477     -1.913699     -0.779535
  H      -2.085007      0.652965     -1.834067
  H      -2.336233      0.337932     -0.090944
  Li      2.424975      2.589961      0.463499
  O       3.327640      4.163671      0.540628
  C       3.904628      5.040681      1.173282
  C       4.530608      6.296645      0.632389
  C       5.416011      6.767624      1.789764
  C       4.705550      6.170139      3.004883
  O       4.033762      4.965232      2.489661
  H       5.050842      6.095839     -0.306245
  H       3.716201      7.000258      0.410311
  H       6.422954      6.351804      1.692274
  H       5.497934      7.854155      1.861458
  H       5.364966      5.842197      3.809299
  H       3.921041      6.819129      3.407803
25
Coordinates from ORCA-job GBL_m1_shell2_cation_opt E -620.301325664276
  O       1.539227      1.011432      0.241534
  C       0.513499      0.456186     -0.133848
  C       0.212693     -1.016361     -0.124537
  C      -1.000284     -1.127235     -1.052787
  C      -1.633111      0.258729     -0.927456
  O      -0.510319      1.154467     -0.606360
  H       1.088393     -1.595881     -0.423306
  H      -0.024081     -1.292396      0.912626
  H      -0.677176     -1.308532     -2.082402
  H      -1.695028     -1.919352     -0.767563
  H      -2.087829      0.639873     -1.842351
  H      -2.344006      0.334051     -0.098350
  Li      2.425191      2.594797      0.454065
  O       3.331810      4.166127      0.540202
  C       3.906760      5.043641      1.173972
  C       4.530978      6.301759      0.635032
  C       5.420970      6.765598      1.791701
  C       4.707586      6.170418      3.005864
  O       4.036668      4.965573      2.489939
  H       5.046644      6.105112     -0.306879
  H       3.716393      7.007871      0.420920
  H       6.424863      6.342336      1.693390
  H       5.511354      7.851232      1.864654
  H       5.364454      5.843439      3.812944
  H       3.922479      6.819657      3.406677
25
Coordinates from ORCA-job GBL_m1_shell2_cation_opt E -620.301337053397
  O       1.529009      1.025475      0.232088
  C       0.505741      0.462927     -0.139738
  C       0.213990     -1.011360     -0.122111
  C      -0.999672     -1.134630     -1.047610
  C      -1.639219      0.249317     -0.932482
  O      -0.521896      1.152618     -0.615429
  H       1.092951     -1.586355     -0.420046
  H      -0.018980     -1.284787      0.916177
  H      -0.677286     -1.322439     -2.076108
  H      -1.689943     -1.927355     -0.755364
  H      -2.093560      0.622156     -1.850983
  H      -2.352695      0.327603     -0.105729
  Li      2.422629      2.602544      0.442265
  O       3.332325      4.172320      0.537215
  C       3.908234      5.047484      1.172992
  C       4.532833      6.306619      0.637777
  C       5.426466      6.763128      1.794760
  C       4.710481      6.169271      3.007528
  O       4.038172      4.966383      2.489022
  H       5.045306      6.115014     -0.307102
  H       3.718868      7.015712      0.431938
  H       6.427955      6.333262      1.696215
  H       5.524579      7.847941      1.868509
  H       5.365819      5.840414      3.814799
  H       3.926024      6.819278      3.409097
25
Coordinates from ORCA-job GBL_m1_shell2_cation_opt E -620.301348015680
  O       1.517648      1.040122      0.222588
  C       0.496903      0.470051     -0.145151
  C       0.212872     -1.005816     -0.116454
  C      -0.997966     -1.142429     -1.044194
  C      -1.645387      0.238644     -0.940270
  O      -0.533192      1.150612     -0.627830
  H       1.095970     -1.577444     -0.408780
  H      -0.021142     -1.274174      0.922883
  H      -0.672144     -1.334782     -2.070737
  H      -1.684618     -1.937227     -0.748536
  H      -2.099660      0.602576     -1.862254
  H      -2.360761      0.319906     -0.115790
  Li      2.421270      2.609457      0.428004
  O       3.331398      4.177752      0.538569
  C       3.909977      5.050523      1.174774
  C       4.532430      6.311338      0.641612
  C       5.431479      6.762006      1.796410
  C       4.717427      6.168113      3.009778
  O       4.042529      4.966410      2.490621
  H       5.040038      6.126057     -0.307285
  H       3.717357      7.021971      0.445778
  H       6.430612      6.327141      1.694683
  H       5.535602      7.846005      1.870587
  H       5.374673      5.837310      3.814644
  H       3.934815      6.818419      3.414028
25
Coordinates from ORCA-job GBL_m1_shell2_cation_opt E -620.301355280732
  O       1.508959      1.051659      0.216198
  C       0.490507      0.475757     -0.148965
  C       0.212971     -1.001336     -0.113495
  C      -0.995744     -1.147391     -1.042099
  C      -1.650683      0.230515     -0.942912
  O      -0.542205      1.149681     -0.635060
  H       1.099171     -1.570146     -0.402751
  H      -0.021142     -1.266455      0.926694
  H      -0.667317     -1.340431     -2.067637
  H      -1.678394     -1.945339     -0.745196
  H      -2.107424      0.588901     -1.865877
  H      -2.365670      0.311609     -0.118052
  Li      2.417844      2.616503      0.419228
  O       3.329318      4.183639      0.535117
  C       3.910718      5.053186      1.173120
  C       4.535596      6.313802      0.643370
  C       5.434983      6.760837      1.799146
  C       4.719922      6.166101      3.011315
  O       4.042047      4.966932      2.489249
  H       5.043018      6.131199     -0.306176
  H       3.721200      7.025888      0.450062
  H       6.433327      6.323904      1.697008
  H       5.541109      7.844446      1.874370
  H       5.376992      5.831368      3.814177
  H       3.939024      6.817712      3.416841
25
Coordinates from ORCA-job GBL_m1_shell2_cation_opt E -620.301363192534
  O       1.493718      1.071398      0.206244
  C       0.479812      0.485295     -0.154823
  C       0.213720     -0.993706     -0.109543
  C      -0.991757     -1.155143     -1.039536
  C      -1.659674      0.216658     -0.945855
  O      -0.557924      1.147817     -0.645698
  H       1.104919     -1.557385     -0.393973
  H      -0.020338     -1.253469      0.932284
  H      -0.659355     -1.347829     -2.063911
  H      -1.667230     -1.959091     -0.741237
  H      -2.122036      0.566221     -1.869273
  H      -2.372686      0.295361     -0.119245
  Li      2.410998      2.629437      0.406257
  O       3.326432      4.193884      0.528377
  C       3.911406      5.058195      1.170059
  C       4.542374      6.317748      0.645763
  C       5.441192      6.758716      1.803878
  C       4.722830      6.162313      3.013477
  O       4.039488      4.968030      2.486548
  H       5.050333      6.137231     -0.303865
  H       3.730272      7.032589      0.453741
  H       6.438069      6.318786      1.701408
  H       5.549916      7.841850      1.881912
  H       5.378848      5.820917      3.814454
  H       3.944799      6.816716      3.420235
25
Coordinates from ORCA-job GBL_m1_shell2_cation_opt E -620.301369333543
  O       1.485672      1.082560      0.199911
  C       0.474601      0.490423     -0.159219
  C       0.214809     -0.989736     -0.108556
  C      -0.990522     -1.159443     -1.037079
  C      -1.664602      0.209660     -0.946868
  O      -0.566173      1.146829     -0.652009
  H       1.108144     -1.551006     -0.391609
  H      -0.017371     -1.246186      0.934658
  H      -0.657700     -1.353637     -2.060949
  H      -1.662050     -1.965844     -0.735875
  H      -2.130450      0.554160     -1.870495
  H      -2.376112      0.287495     -0.118793
  Li      2.407442      2.636805      0.398871
  O       3.325890      4.199247      0.523520
  C       3.911866      5.061144      1.167744
  C       4.547393      6.319964      0.646803
  C       5.444093      6.758295      1.807422
  C       4.723530      6.159435      3.014901
  O       4.037086      4.968581      2.484275
  H       5.057345      6.138653     -0.301444
  H       3.736851      7.036128      0.451824
  H       6.441219      6.319166      1.704922
  H       5.551433      7.841309      1.888442
  H       5.378273      5.813283      3.814609
  H       3.947462      6.815256      3.422673
25
Coordinates from ORCA-job GBL_m1_shell2_cation_opt E -620.301376934097
  O       1.468654      1.105559      0.187654
  C       0.463591      0.500997     -0.167068
  C       0.218409     -0.981389     -0.108093
  C      -0.987979     -1.167797     -1.032180
  C      -1.674694      0.195145     -0.947077
  O      -0.584453      1.144198     -0.661261
  H       1.115923     -1.535891     -0.390389
  H      -0.008112     -1.233218      0.937529
  H      -0.655981     -1.364510     -2.055923
  H      -1.650704     -1.979050     -0.724514
  H      -2.147628      0.529975     -1.870750
  H      -2.383576      0.269616     -0.116265
  Li      2.398819      2.653098      0.385633
  O       3.325453      4.211127      0.511618
  C       3.912299      5.068003      1.161858
  C       4.559050      6.324224      0.647887
  C       5.450294      6.756437      1.814872
  C       4.722689      6.153626      3.016981
  O       4.030195      4.970282      2.478474
  H       5.074104      6.139571     -0.296755
  H       3.754069      7.044407      0.445963
  H       6.447573      6.318005      1.714424
  H       5.556496      7.839254      1.901957
  H       5.373667      5.798553      3.816427
  H       3.949970      6.812318      3.426679
25
Coordinates from ORCA-job GBL_m1_shell2_cation_opt E -620.301379876253
  O       1.462654      1.114377      0.182206
  C       0.459724      0.504960     -0.170659
  C       0.220686     -0.978475     -0.108946
  C      -0.987689     -1.171111     -1.029392
  C      -1.678543      0.190006     -0.946556
  O      -0.591627      1.143120     -0.664228
  H       1.119588     -1.530152     -0.392196
  H      -0.002249     -1.229478      0.937554
  H      -0.657894     -1.370029     -2.053319
  H      -1.646985     -1.983336     -0.717500
  H      -2.153994      0.521239     -1.870271
  H      -2.386720      0.263839     -0.114963
  Li      2.396029      2.659436      0.380385
  O       3.326547      4.215441      0.506303
  C       3.912892      5.070804      1.159124
  C       4.563886      6.326266      0.647927
  C       5.452677      6.755283      1.818153
  C       4.721185      6.151493      3.017564
  O       4.027188      4.970800      2.475658
  H       5.081669      6.140398     -0.294962
  H       3.761093      7.048570      0.443116
  H       6.450120      6.316902      1.719323
  H       5.559338      7.837768      1.908006
  H       5.369177      5.793588      3.818016
  H       3.949376      6.810830      3.427333
25
Coordinates from ORCA-job GBL_m1_shell2_cation_opt E -620.301381801185
  O       1.455894      1.123700      0.176654
  C       0.455073      0.509297     -0.173637
  C       0.222972     -0.975112     -0.109595
  C      -0.986991     -1.174561     -1.026905
  C      -1.682826      0.184111     -0.945657
  O      -0.599952      1.141821     -0.666005
  H       1.123643     -1.523131     -0.393679
  H       0.003308     -1.225941      0.937508
  H      -0.659082     -1.374812     -2.051267
  H      -1.642438     -1.988344     -0.711446
  H      -2.160726      0.511845     -1.869423
  H      -2.390709      0.256564     -0.113615
  Li      2.392769      2.666387      0.374715
  O       3.327229      4.220458      0.500464
  C       3.913574      5.073834      1.155933
  C       4.569216      6.328054      0.647671
  C       5.454943      6.754169      1.821563
  C       4.719583      6.149328      3.018004
  O       4.024164      4.971388      2.472419
  H       5.090445      6.140777     -0.293154
  H       3.769634      7.052861      0.440006
  H       6.452582      6.315830      1.725163
  H       5.562464      7.836483      1.913834
  H       5.365000      5.788673      3.819578
  H       3.948360      6.808862      3.428550
25
Coordinates from ORCA-job GBL_m1_shell2_cation_opt E -620.301382667715
  O       1.452567      1.128530      0.173591
  C       0.452615      0.511669     -0.175009
  C       0.224291     -0.973275     -0.110019
  C      -0.986262     -1.176154     -1.025842
  C      -1.685323      0.180905     -0.944376
  O      -0.604617      1.141360     -0.666171
  H       1.126025     -1.519263     -0.394520
  H       0.005967     -1.224404      0.937233
  H      -0.659250     -1.376010     -2.050557
  H      -1.639348     -1.991323     -0.709231
  H      -2.165005      0.507173     -1.867723
  H      -2.392706      0.252131     -0.111828
  Li      2.391193      2.670160      0.371535
  O       3.327526      4.223248      0.496737
  C       3.914213      5.075237      1.153733
  C       4.572373      6.328836      0.647326
  C       5.456125      6.753211      1.823529
  C       4.718062      6.148362      3.018102
  O       4.022401      4.971514      2.470308
  H       5.096038      6.141434     -0.292186
  H       3.774420      7.055123      0.438282
  H       6.453667      6.314182      1.728971
  H       5.564936      7.835280      1.916915
  H       5.361488      5.786582      3.820741
  H       3.946733      6.808033      3.428135
