25
Coordinates from ORCA-job GBL_m1_shell2_cation_opt E -620.301382667715
  O           1.45256695281093      1.12853015717926      0.17359066725559
  C           0.45261483815313      0.51166936859562     -0.17500893387119
  C           0.22429093256254     -0.97327548986463     -0.11001894054908
  C          -0.98626203355224     -1.17615436842096     -1.02584200312445
  C          -1.68532287443326      0.18090508816995     -0.94437553789343
  O          -0.60461748057975      1.14135957219119     -0.66617124193540
  H           1.12602459100908     -1.51926334868641     -0.39451998091969
  H           0.00596710711510     -1.22440360592251      0.93723285648109
  H          -0.65924979672982     -1.37600960217489     -2.05055673651429
  H          -1.63934831298791     -1.99132274417512     -0.70923052387399
  H          -2.16500501950290      0.50717294324641     -1.86772330045358
  H          -2.39270595379565      0.25213129616383     -0.11182802499137
  Li          2.39119252924408      2.67015980774472      0.37153515679619
  O           3.32752560474183      4.22324789857894      0.49673738449070
  C           3.91421280358711      5.07523651122122      1.15373322446275
  C           4.57237327947537      6.32883613640609      0.64732582685500
  C           5.45612520425621      6.75321072191187      1.82352926494728
  C           4.71806156285632      6.14836198004111      3.01810214049920
  O           4.02240115984072      4.97151443335974      2.47030833079446
  H           5.09603800469608      6.14143414306060     -0.29218609127529
  H           3.77442048639247      7.05512273641150      0.43828171809656
  H           6.45366703246781      6.31418204403692      1.72897140839992
  H           5.56493596930165      7.83527984155425      1.91691493102361
  H           5.36148845862411      5.78658222773360      3.82074118285483
  H           3.94673275484685      6.80803280133752      3.42813535734453
