25
C13 GBL [Li(M)2]+ G2_Li2 r2SCAN-3c opt
O      1.4525670000     1.1285300000     0.1735910000
C      0.4526150000     0.5116690000    -0.1750090000
C      0.2242910000    -0.9732750000    -0.1100190000
C     -0.9862620000    -1.1761540000    -1.0258420000
C     -1.6853230000     0.1809050000    -0.9443760000
O     -0.6046170000     1.1413600000    -0.6661710000
H      1.1260250000    -1.5192630000    -0.3945200000
H      0.0059670000    -1.2244040000     0.9372330000
H     -0.6592500000    -1.3760100000    -2.0505570000
H     -1.6393480000    -1.9913230000    -0.7092310000
H     -2.1650050000     0.5071730000    -1.8677230000
H     -2.3927060000     0.2521310000    -0.1118280000
Li     2.3911930000     2.6701600000     0.3715350000
O      3.3275260000     4.2232480000     0.4967370000
C      3.9142130000     5.0752370000     1.1537330000
C      4.5723730000     6.3288360000     0.6473260000
C      5.4561250000     6.7532110000     1.8235290000
C      4.7180620000     6.1483620000     3.0181020000
O      4.0224010000     4.9715140000     2.4703080000
H      5.0960380000     6.1414340000    -0.2921860000
H      3.7744200000     7.0551230000     0.4382820000
H      6.4536670000     6.3141820000     1.7289710000
H      5.5649360000     7.8352800000     1.9169150000
H      5.3614880000     5.7865820000     3.8207410000
H      3.9467330000     6.8080330000     3.4281350000
