10
Coordinates from ORCA-job EC_cation_cpcm_20_moread E -342.061377872508
  C      -0.228298     -0.965635     -0.108228
  C      -0.902100      0.421840     -0.067018
  O       0.176233      1.313822      0.133428
  C       1.340608      0.644793      0.207428
  O       2.397095      1.153182      0.371781
  O       1.144204     -0.678482      0.071371
  H      -0.359577     -1.472810     -1.067700
  H      -0.560210     -1.622113      0.700299
  H      -1.402428      0.678085     -1.004464
  H      -1.605527      0.527318      0.763103
10
Coordinates from ORCA-job EC_cation_cpcm_20_moread E -342.066100863476
  C      -0.230701     -0.951823     -0.106368
  C      -0.892722      0.411545     -0.065194
  O       0.173298      1.316795      0.105001
  C       1.363463      0.656242      0.194841
  O       2.413515      1.159224      0.424715
  O       1.144187     -0.680968      0.039788
  H      -0.379637     -1.486738     -1.068906
  H      -0.557808     -1.626400      0.710792
  H      -1.423127      0.672108     -1.006457
  H      -1.610467      0.530013      0.771787
10
Coordinates from ORCA-job EC_cation_cpcm_20_moread E -342.067722239868
  C      -0.229200     -0.935327     -0.105295
  C      -0.878885      0.402743     -0.063818
  O       0.169104      1.319923      0.074117
  C       1.373946      0.660116      0.228819
  O       2.422447      1.162301      0.447540
  O       1.143569     -0.683806      0.002377
  H      -0.399348     -1.500230     -1.058277
  H      -0.546325     -1.633427      0.707285
  H      -1.440810      0.666246     -0.997825
  H      -1.614497      0.541459      0.765076
10
Coordinates from ORCA-job EC_cation_cpcm_20_moread E -342.068119675488
  C      -0.225255     -0.930963     -0.105716
  C      -0.873330      0.403099     -0.063679
  O       0.167635      1.323171      0.064457
  C       1.381619      0.664880      0.198409
  O       2.413294      1.156360      0.484986
  O       1.145365     -0.686185     -0.009982
  H      -0.405841     -1.511700     -1.044610
  H      -0.538702     -1.634873      0.701924
  H      -1.452070      0.667694     -0.984729
  H      -1.612714      0.548517      0.758940
10
Coordinates from ORCA-job EC_cation_cpcm_20_moread E -342.068274036118
  C      -0.223460     -0.933398     -0.106803
  C      -0.874241      0.405892     -0.064496
  O       0.169297      1.323919      0.067881
  C       1.378702      0.663140      0.207718
  O       2.414210      1.157333      0.475059
  O       1.147207     -0.685543     -0.006447
  H      -0.404995     -1.513722     -1.043606
  H      -0.539083     -1.637317      0.698240
  H      -1.453555      0.668899     -0.983479
  H      -1.614081      0.550797      0.755933
10
Coordinates from ORCA-job EC_cation_cpcm_20_moread E -342.068308995982
  C      -0.221501     -0.932866     -0.107881
  C      -0.872732      0.406996     -0.065244
  O       0.170677      1.324226      0.068918
  C       1.378413      0.662927      0.210729
  O       2.414596      1.157639      0.473557
  O       1.148401     -0.684595     -0.005902
  H      -0.406670     -1.516776     -1.040755
  H      -0.539353     -1.638493      0.694534
  H      -1.456948      0.668592     -0.980569
  H      -1.614883      0.552350      0.752613
10
Coordinates from ORCA-job EC_cation_cpcm_20_moread E -342.068320527722
  C      -0.220081     -0.931824     -0.108679
  C      -0.871136      0.407409     -0.065787
  O       0.171463      1.324160      0.070516
  C       1.378637      0.663075      0.211168
  O       2.415272      1.158027      0.472544
  O       1.148875     -0.683952     -0.004500
  H      -0.407599     -1.518918     -1.039061
  H      -0.540538     -1.638908      0.692034
  H      -1.459308      0.668370     -0.978745
  H      -1.615585      0.552559      0.750510
10
Coordinates from ORCA-job EC_cation_cpcm_20_moread E -342.068323969318
  C      -0.219546     -0.931146     -0.108987
  C      -0.870340      0.407412     -0.065996
  O       0.171516      1.323948      0.072500
  C       1.378921      0.663268      0.210862
  O       2.416084      1.158467      0.470595
  O       1.148750     -0.683868     -0.002485
  H      -0.407293     -1.519627     -1.038799
  H      -0.542011     -1.638900      0.690991
  H      -1.459828      0.668625     -0.978386
  H      -1.616252      0.551820      0.749706
10
Coordinates from ORCA-job EC_cation_cpcm_20_moread E -342.068326310716
  C      -0.219327     -0.930695     -0.109112
  C      -0.869904      0.407341     -0.066079
  O       0.171191      1.323684      0.075377
  C       1.379300      0.663517      0.210715
  O       2.417204      1.159100      0.467038
  O       1.148358     -0.684116      0.000444
  H      -0.406250     -1.519832     -1.039031
  H      -0.543873     -1.638943      0.690166
  H      -1.459442      0.669321     -0.978549
  H      -1.617257      0.550623      0.749031
10
Coordinates from ORCA-job EC_cation_cpcm_20_moread E -342.068329808806
  C      -0.219153     -0.930158     -0.109180
  C      -0.869455      0.407232     -0.066103
  O       0.170260      1.323171      0.081703
  C       1.380131      0.664046      0.210906
  O       2.419549      1.160472      0.458638
  O       1.147445     -0.684891      0.006781
  H      -0.403763     -1.519797     -1.039682
  H      -0.547529     -1.639307      0.688536
  H      -1.457890      0.671007     -0.979144
  H      -1.619595      0.548225      0.747546
10
Coordinates from ORCA-job EC_cation_cpcm_20_moread E -342.068333625776
  C      -0.219134     -0.929896     -0.109105
  C      -0.869311      0.407174     -0.065999
  O       0.168993      1.322597      0.089373
  C       1.381140      0.664665      0.211587
  O       2.422194      1.162076      0.448066
  O       1.146329     -0.685989      0.014343
  H      -0.400788     -1.519315     -1.040501
  H      -0.551388     -1.640092      0.686609
  H      -1.455480      0.673037     -0.980002
  H      -1.622555      0.545743      0.745629
10
Coordinates from ORCA-job EC_cation_cpcm_20_moread E -342.068337505071
  C      -0.219243     -0.929902     -0.108858
  C      -0.869429      0.407172     -0.065705
  O       0.167267      1.321832      0.099757
  C       1.382352      0.665426      0.212875
  O       2.425415      1.164155      0.433469
  O       1.144874     -0.687533      0.024535
  H      -0.397023     -1.518065     -1.041625
  H      -0.555934     -1.641559      0.683942
  H      -1.451689      0.675476     -0.981241
  H      -1.626590      0.542998      0.742852
10
Coordinates from ORCA-job EC_cation_cpcm_20_moread E -342.068338958200
  C      -0.219291     -0.930017     -0.108584
  C      -0.869556      0.407223     -0.065359
  O       0.166019      1.321183      0.108242
  C       1.383032      0.665903      0.213929
  O       2.427660      1.165723      0.421532
  O       1.143796     -0.688695      0.032935
  H      -0.394189     -1.516674     -1.042602
  H      -0.559210     -1.643061      0.681683
  H      -1.448410      0.677118     -0.982294
  H      -1.629852      0.541297      0.740519
10
Coordinates from ORCA-job EC_cation_cpcm_20_moread E -342.068339441300
  C      -0.219366     -0.930102     -0.108345
  C      -0.869665      0.407184     -0.065079
  O       0.165601      1.320919      0.111679
  C       1.383114      0.665991      0.214292
  O       2.428446      1.166318      0.416657
  O       1.143424     -0.689123      0.036405
  H      -0.393154     -1.515714     -1.043113
  H      -0.560300     -1.643903      0.680757
  H      -1.446863      0.677497     -0.982827
  H      -1.631237      0.540935      0.739574
10
Coordinates from ORCA-job EC_cation_cpcm_20_moread E -342.068339560126
  C      -0.219423     -0.930133     -0.108221
  C      -0.869714      0.407110     -0.064949
  O       0.165781      1.321001      0.110855
  C       1.382902      0.665856      0.214143
  O       2.428153      1.166147      0.417810
  O       1.143600     -0.688997      0.035617
  H      -0.393618     -1.515452     -1.043102
  H      -0.559641     -1.644119      0.680928
  H      -1.446975      0.677021     -0.982819
  H      -1.631065      0.541565      0.739738
