10
Coordinates from ORCA-job EC_cation_cpcm_10_moread E -342.062268582195
  C          -0.22037826804707     -0.93300219109445     -0.10966312978273
  C          -0.87237500731704      0.40805377914924     -0.06738654550942
  O           0.17565848039611      1.32610458352536      0.04418127662566
  C           1.37432458931054      0.66122713138928      0.20738916190713
  O           2.40443859414581      1.15160580022466      0.50778902764249
  O           1.15178289380696     -0.68078827498203     -0.02729546741731
  H          -0.41319796262234     -1.52213053614948     -1.03737668198361
  H          -0.52976612098777     -1.63437385960094      0.69890659432156
  H          -1.46788382634443      0.66484144652664     -0.97608490948994
  H          -1.60260337234079      0.55846212101171      0.75954068368619
