10
Coordinates from ORCA-job EC_cation_cpcm_10_moread E -342.055273316148
  C      -0.228298     -0.965635     -0.108228
  C      -0.902100      0.421840     -0.067018
  O       0.176233      1.313822      0.133428
  C       1.340608      0.644793      0.207428
  O       2.397095      1.153182      0.371781
  O       1.144204     -0.678482      0.071371
  H      -0.359577     -1.472810     -1.067700
  H      -0.560210     -1.622113      0.700299
  H      -1.402428      0.678085     -1.004464
  H      -1.605527      0.527318      0.763103
10
Coordinates from ORCA-job EC_cation_cpcm_10_moread E -342.060000784101
  C      -0.230744     -0.952623     -0.105948
  C      -0.893368      0.412003     -0.064796
  O       0.174924      1.317997      0.095447
  C       1.362655      0.656057      0.188689
  O       2.409748      1.156810      0.441331
  O       1.145862     -0.679903      0.030066
  H      -0.382416     -1.488425     -1.067220
  H      -0.553638     -1.625109      0.713165
  H      -1.426103      0.670914     -1.004826
  H      -1.606921      0.532278      0.774092
10
Coordinates from ORCA-job EC_cation_cpcm_10_moread E -342.061622373201
  C      -0.229495     -0.936819     -0.104437
  C      -0.880265      0.403446     -0.063084
  O       0.172724      1.321938      0.053972
  C       1.370001      0.658250      0.227007
  O       2.416147      1.158136      0.474352
  O       1.146711     -0.680976     -0.018220
  H      -0.404570     -1.502548     -1.056597
  H      -0.537444     -1.631855      0.712879
  H      -1.445767      0.663554     -0.996416
  H      -1.608041      0.546874      0.770543
10
Coordinates from ORCA-job EC_cation_cpcm_10_moread E -342.062130192777
  C      -0.225683     -0.933379     -0.105274
  C      -0.875551      0.404262     -0.063429
  O       0.172065      1.325214      0.041004
  C       1.375757      0.662016      0.198706
  O       2.403168      1.150311      0.513762
  O       1.148877     -0.682635     -0.033000
  H      -0.410994     -1.512964     -1.043145
  H      -0.527713     -1.631855      0.708631
  H      -1.456787      0.664140     -0.983336
  H      -1.603139      0.554890      0.766081
10
Coordinates from ORCA-job EC_cation_cpcm_10_moread E -342.062230595842
  C      -0.223804     -0.935186     -0.106806
  C      -0.875937      0.406735     -0.064662
  O       0.173628      1.325958      0.042817
  C       1.373977      0.660962      0.204457
  O       2.403111      1.150730      0.508694
  O       1.150608     -0.682090     -0.030445
  H      -0.411003     -1.515927     -1.041272
  H      -0.527399     -1.633877      0.704842
  H      -1.459864      0.665027     -0.980989
  H      -1.603317      0.557668      0.763363
10
Coordinates from ORCA-job EC_cation_cpcm_10_moread E -342.062258886547
  C      -0.221866     -0.934639     -0.108399
  C      -0.874434      0.407834     -0.066009
  O       0.175149      1.326329      0.042013
  C       1.373703      0.660778      0.207328
  O       2.402887      1.150743      0.509730
  O       1.151826     -0.681090     -0.030855
  H      -0.413160     -1.519517     -1.038407
  H      -0.526888     -1.634691      0.701471
  H      -1.464527      0.664454     -0.977766
  H      -1.602689      0.559799      0.760894
10
Coordinates from ORCA-job EC_cation_cpcm_10_moread E -342.062265388889
  C      -0.220913     -0.933856     -0.109222
  C      -0.873303      0.408086     -0.066779
  O       0.175753      1.326315      0.042148
  C       1.373834      0.660883      0.207581
  O       2.403175      1.150917      0.510263
  O       1.152121     -0.680640     -0.030230
  H      -0.413967     -1.521229     -1.037382
  H      -0.527517     -1.634618      0.700027
  H      -1.466877      0.664194     -0.976453
  H      -1.602305      0.559947      0.760047
10
Coordinates from ORCA-job EC_cation_cpcm_10_moread E -342.062267665248
  C      -0.220452     -0.933226     -0.109624
  C      -0.872577      0.408090     -0.067243
  O       0.175847      1.326190      0.043121
  C       1.374074      0.661058      0.207458
  O       2.403839      1.151276      0.509299
  O       1.152007     -0.680591     -0.028703
  H      -0.413789     -1.522011     -1.037220
  H      -0.528753     -1.634410      0.699250
  H      -1.467885      0.664400     -0.976044
  H      -1.602310      0.559223      0.759706
10
Coordinates from ORCA-job EC_cation_cpcm_10_moread E -342.062268582195
  C      -0.220378     -0.933002     -0.109663
  C      -0.872375      0.408054     -0.067387
  O       0.175658      1.326105      0.044181
  C       1.374325      0.661227      0.207389
  O       2.404439      1.151606      0.507789
  O       1.151783     -0.680788     -0.027295
  H      -0.413198     -1.522131     -1.037377
  H      -0.529766     -1.634374      0.698907
  H      -1.467884      0.664841     -0.976085
  H      -1.602603      0.558462      0.759541
