10
Coordinates from ORCA-job EC_cation_cpcm_5_moread E -342.043382866812
  C      -0.228298     -0.965635     -0.108228
  C      -0.902100      0.421840     -0.067018
  O       0.176233      1.313822      0.133428
  C       1.340608      0.644793      0.207428
  O       2.397095      1.153182      0.371781
  O       1.144204     -0.678482      0.071371
  H      -0.359577     -1.472810     -1.067700
  H      -0.560210     -1.622113      0.700299
  H      -1.402428      0.678085     -1.004464
  H      -1.605527      0.527318      0.763103
10
Coordinates from ORCA-job EC_cation_cpcm_5_moread E -342.048158999560
  C      -0.230818     -0.954048     -0.105450
  C      -0.894521      0.412814     -0.064330
  O       0.177197      1.319652      0.084015
  C       1.360877      0.655454      0.180983
  O       2.404469      1.153552      0.461228
  O       1.148235     -0.678510      0.018507
  H      -0.385221     -1.490563     -1.065064
  H      -0.548268     -1.623683      0.715948
  H      -1.429511      0.669936     -1.002698
  H      -1.602441      0.535396      0.776861
10
Coordinates from ORCA-job EC_cation_cpcm_5_moread E -342.049934750285
  C      -0.230216     -0.941075     -0.102885
  C      -0.884003      0.405473     -0.061674
  O       0.177043      1.324509      0.038982
  C       1.363520      0.655506      0.215768
  O       2.406995      1.152749      0.498804
  O       1.150811     -0.678381     -0.032779
  H      -0.405093     -1.503120     -1.055516
  H      -0.530109     -1.630292      0.718290
  H      -1.447106      0.663311     -0.995199
  H      -1.601842      0.551320      0.776210
10
Coordinates from ORCA-job EC_cation_cpcm_5_moread E -342.050424167057
  C      -0.226451     -0.937025     -0.104178
  C      -0.878903      0.405879     -0.062555
  O       0.177977      1.327782      0.015899
  C       1.366654      0.657696      0.195808
  O       2.389417      1.142460      0.545177
  O       1.153658     -0.678239     -0.057336
  H      -0.414228     -1.514212     -1.041365
  H      -0.515112     -1.629055      0.715965
  H      -1.460550      0.662005     -0.981440
  H      -1.592463      0.562709      0.774026
10
Coordinates from ORCA-job EC_cation_cpcm_5_moread E -342.050498502059
  C      -0.224464     -0.938080     -0.106556
  C      -0.878652      0.407973     -0.064616
  O       0.179982      1.328615      0.011905
  C       1.365559      0.657071      0.199081
  O       2.386262      1.141228      0.549705
  O       1.155586     -0.677274     -0.059528
  H      -0.416367     -1.518821     -1.038245
  H      -0.511966     -1.629856      0.712977
  H      -1.466760      0.661917     -0.977494
  H      -1.589179      0.567226      0.772772
10
Coordinates from ORCA-job EC_cation_cpcm_5_moread E -342.050517957022
  C      -0.222943     -0.938077     -0.108923
  C      -0.877781      0.409103     -0.066893
  O       0.181860      1.328957      0.007990
  C       1.364761      0.656672      0.201205
  O       2.384327      1.140549      0.554857
  O       1.156860     -0.676128     -0.061212
  H      -0.418769     -1.522512     -1.036303
  H      -0.510211     -1.629310      0.711129
  H      -1.472720      0.661000     -0.974563
  H      -1.585384      0.569746      0.772713
10
Coordinates from ORCA-job EC_cation_cpcm_5_moread E -342.050521395944
  C      -0.222433     -0.937761     -0.109883
  C      -0.877238      0.409326     -0.068004
  O       0.182529      1.329009      0.006393
  C       1.364375      0.656517      0.201349
  O       2.383734      1.140367      0.557111
  O       1.157166     -0.675762     -0.061355
  H      -0.419384     -1.523817     -1.036013
  H      -0.510153     -1.628492      0.710800
  H      -1.475214      0.660738     -0.973682
  H      -1.583382      0.569876      0.773286
10
Coordinates from ORCA-job EC_cation_cpcm_5_moread E -342.050522599504
  C      -0.222233     -0.937474     -0.110349
  C      -0.876882      0.409359     -0.068757
  O       0.182895      1.329039      0.005193
  C       1.364036      0.656399      0.201074
  O       2.383362      1.140278      0.558437
  O       1.157263     -0.675669     -0.061070
  H      -0.419249     -1.524459     -1.036095
  H      -0.510588     -1.627748      0.710784
  H      -1.476741      0.660897     -0.973213
  H      -1.581863      0.569377      0.773996
10
Coordinates from ORCA-job EC_cation_cpcm_5_moread E -342.050522891612
  C      -0.222257     -0.937424     -0.110374
  C      -0.876829      0.409346     -0.069015
  O       0.183044      1.329063      0.004406
  C       1.363869      0.656348      0.200879
  O       2.383133      1.140248      0.558885
  O       1.157290     -0.675721     -0.060792
  H      -0.418845     -1.524531     -1.036223
  H      -0.510946     -1.627543      0.710783
  H      -1.477287      0.661171     -0.972977
  H      -1.581171      0.569043      0.774429
