10
Coordinates from ORCA-job EC_cation_cpcm_14_moread E -342.058747140949
  C      -0.228298     -0.965635     -0.108228
  C      -0.902100      0.421840     -0.067018
  O       0.176233      1.313822      0.133428
  C       1.340608      0.644793      0.207428
  O       2.397095      1.153182      0.371781
  O       1.144204     -0.678482      0.071371
  H      -0.359577     -1.472810     -1.067700
  H      -0.560210     -1.622113      0.700299
  H      -1.402428      0.678085     -1.004464
  H      -1.605527      0.527318      0.763103
10
Coordinates from ORCA-job EC_cation_cpcm_14_moread E -342.063470168302
  C      -0.230721     -0.952173     -0.106165
  C      -0.893005      0.411745     -0.065000
  O       0.174060      1.317360      0.100377
  C       1.363137      0.656182      0.191892
  O       2.411763      1.158090      0.432759
  O       1.144970     -0.680461      0.035076
  H      -0.381026     -1.487548     -1.068101
  H      -0.555821     -1.625765      0.711944
  H      -1.424584      0.671495     -1.005682
  H      -1.608770      0.531075      0.772901
10
Coordinates from ORCA-job EC_cation_cpcm_14_moread E -342.065066587229
  C      -0.229297     -0.935788     -0.104979
  C      -0.879330      0.402962     -0.063564
  O       0.170883      1.320897      0.063349
  C       1.372188      0.659243      0.229133
  O       2.419586      1.160346      0.461264
  O       1.145086     -0.682345     -0.008680
  H      -0.402514     -1.501638     -1.057344
  H      -0.541660     -1.632625      0.710083
  H      -1.443787      0.664617     -0.997059
  H      -1.611154      0.544330      0.767799
10
Coordinates from ORCA-job EC_cation_cpcm_14_moread E -342.065543063764
  C      -0.225441     -0.932049     -0.105592
  C      -0.874333      0.403632     -0.063656
  O       0.169789      1.324188      0.052403
  C       1.378928      0.663556      0.198842
  O       2.408413      1.153407      0.499780
  O       1.147070     -0.684434     -0.021808
  H      -0.408743     -1.512435     -1.043849
  H      -0.533163     -1.633254      0.705320
  H      -1.454721      0.665712     -0.984009
  H      -1.607798      0.551675      0.762568
10
Coordinates from ORCA-job EC_cation_cpcm_14_moread E -342.065667670328
  C      -0.223613     -0.934247     -0.106863
  C      -0.875047      0.406305     -0.064643
  O       0.171378      1.324918      0.055519
  C       1.376549      0.662151      0.206212
  O       2.409000      1.154194      0.491714
  O       1.148841     -0.683873     -0.018288
  H      -0.408123     -1.514819     -1.042493
  H      -0.533424     -1.635548      0.701518
  H      -1.456786      0.666859     -0.982299
  H      -1.608774      0.554061      0.759622
10
Coordinates from ORCA-job EC_cation_cpcm_14_moread E -342.065699911483
  C      -0.221657     -0.933661     -0.108149
  C      -0.873505      0.407385     -0.065639
  O       0.172778      1.325250      0.055879
  C       1.376318      0.661971      0.209226
  O       2.409225      1.154413      0.491144
  O       1.150016     -0.682926     -0.018095
  H      -0.410004     -1.518111     -1.039605
  H      -0.533386     -1.636638      0.697901
  H      -1.460702      0.666454     -0.979246
  H      -1.609083      0.555865      0.756584
10
Coordinates from ORCA-job EC_cation_cpcm_14_moread E -342.065709306188
  C      -0.220427     -0.932693     -0.108979
  C      -0.872075      0.407717     -0.066304
  O       0.173459      1.325211      0.056861
  C       1.376566      0.662132      0.209621
  O       2.409791      1.154732      0.490791
  O       1.150395     -0.682387     -0.017005
  H      -0.410912     -1.520122     -1.038163
  H      -0.534331     -1.636883      0.695803
  H      -1.463123      0.666218     -0.977604
  H      -1.609342      0.556075      0.754979
10
Coordinates from ORCA-job EC_cation_cpcm_14_moread E -342.065712437694
  C      -0.219911     -0.932012     -0.109326
  C      -0.871284      0.407717     -0.066617
  O       0.173502      1.325034      0.058540
  C       1.376884      0.662346      0.209397
  O       2.410621      1.155178      0.489130
  O       1.150258     -0.682337     -0.015106
  H      -0.410659     -1.520883     -1.037924
  H      -0.535762     -1.636827      0.694818
  H      -1.463840      0.666469     -0.977216
  H      -1.609810      0.555315      0.754305
10
Coordinates from ORCA-job EC_cation_cpcm_14_moread E -342.065714336630
  C      -0.219729     -0.931607     -0.109432
  C      -0.870894      0.407656     -0.066755
  O       0.173198      1.324834      0.060840
  C       1.377282      0.662605      0.209315
  O       2.411676      1.155761      0.486181
  O       1.149900     -0.682598     -0.012590
  H      -0.409763     -1.521089     -1.038128
  H      -0.537432     -1.636852      0.694108
  H      -1.463648      0.667097     -0.977320
  H      -1.610589      0.554192      0.753781
10
Coordinates from ORCA-job EC_cation_cpcm_14_moread E -342.065717141669
  C      -0.219587     -0.931116     -0.109453
  C      -0.870485      0.407566     -0.066873
  O       0.172349      1.324447      0.065939
  C       1.378173      0.663165      0.209559
  O       2.413908      1.157031      0.479153
  O       1.149071     -0.683360     -0.007146
  H      -0.407634     -1.521081     -1.038682
  H      -0.540726     -1.637196      0.692671
  H      -1.462568      0.668582     -0.977752
  H      -1.612501      0.551962      0.752584
10
Coordinates from ORCA-job EC_cation_cpcm_14_moread E -342.065719641465
  C      -0.219605     -0.930937     -0.109333
  C      -0.870401      0.407524     -0.066846
  O       0.171407      1.324109      0.070880
  C       1.379087      0.663719      0.210149
  O       2.415963      1.158233      0.472083
  O       1.148257     -0.684226     -0.002027
  H      -0.405679     -1.520701     -1.039215
  H      -0.543432     -1.637852      0.691295
  H      -1.461083      0.669936     -0.978275
  H      -1.614514      0.550195      0.751291
10
Coordinates from ORCA-job EC_cation_cpcm_14_moread E -342.065721840903
  C      -0.219665     -0.930872     -0.109048
  C      -0.870427      0.407528     -0.066654
  O       0.169870      1.323532      0.079306
  C       1.380512      0.664601      0.211429
  O       2.419200      1.160217      0.459968
  O       1.146961     -0.685663      0.006552
  H      -0.402732     -1.519662     -1.040092
  H      -0.547454     -1.639349      0.688852
  H      -1.458243      0.671846     -0.979201
  H      -1.618021      0.547823      0.748889
10
Coordinates from ORCA-job EC_cation_cpcm_14_moread E -342.065722120268
  C      -0.219696     -0.930942     -0.108907
  C      -0.870505      0.407530     -0.066478
  O       0.169493      1.323370      0.081714
  C       1.380782      0.664779      0.211844
  O       2.419974      1.160732      0.456613
  O       1.146665     -0.686030      0.008856
  H      -0.402215     -1.519054     -1.040371
  H      -0.548176     -1.640013      0.688155
  H      -1.457233      0.672022     -0.979558
  H      -1.619090      0.547606      0.748131
10
Coordinates from ORCA-job EC_cation_cpcm_14_moread E -342.065722278167
  C      -0.219735     -0.931018     -0.108798
  C      -0.870580      0.407500     -0.066289
  O       0.169505      1.323372      0.081852
  C       1.380705      0.664742      0.211895
  O       2.419912      1.160720      0.456610
  O       1.146722     -0.686020      0.008708
  H      -0.402584     -1.518697     -1.040409
  H      -0.547717     -1.640346      0.688153
  H      -1.456921      0.671626     -0.979706
  H      -1.619307      0.548122      0.747985
