10
Coordinates from ORCA-job EC_cation_cpcm_7_moread E -342.050129419646
  C      -0.228298     -0.965635     -0.108228
  C      -0.902100      0.421840     -0.067018
  O       0.176233      1.313822      0.133428
  C       1.340608      0.644793      0.207428
  O       2.397095      1.153182      0.371781
  O       1.144204     -0.678482      0.071371
  H      -0.359577     -1.472810     -1.067700
  H      -0.560210     -1.622113      0.700299
  H      -1.402428      0.678085     -1.004464
  H      -1.605527      0.527318      0.763103
10
Coordinates from ORCA-job EC_cation_cpcm_7_moread E -342.054872341206
  C      -0.230776     -0.953258     -0.105699
  C      -0.893881      0.412366     -0.064561
  O       0.176007      1.318788      0.089723
  C       1.361896      0.655816      0.184897
  O       2.407215      1.155231      0.451283
  O       1.146987     -0.679225      0.024268
  H      -0.383904     -1.489470     -1.066162
  H      -0.551007     -1.624369      0.714566
  H      -1.427829      0.670347     -1.003789
  H      -1.604708      0.533773      0.775476
10
Coordinates from ORCA-job EC_cation_cpcm_7_moread E -342.056576183871
  C      -0.229860     -0.938794     -0.103602
  C      -0.882014      0.404368     -0.062314
  O       0.174741      1.323157      0.046479
  C       1.367077      0.657024      0.221552
  O       2.411843      1.155558      0.486526
  O       1.148616     -0.679731     -0.025611
  H      -0.405017     -1.502735     -1.056108
  H      -0.533863     -1.631108      0.715637
  H      -1.446379      0.663276     -0.995905
  H      -1.605143      0.548986      0.773346
10
Coordinates from ORCA-job EC_cation_cpcm_7_moread E -342.057065925147
  C      -0.226042     -0.935039     -0.104680
  C      -0.877086      0.404994     -0.062930
  O       0.174740      1.326416      0.028981
  C       1.371701      0.660077      0.197702
  O       2.396905      1.146687      0.528620
  O       1.151044     -0.680607     -0.044802
  H      -0.412747     -1.513426     -1.042312
  H      -0.521735     -1.630605      0.712142
  H      -1.458505      0.662922     -0.982512
  H      -1.598275      0.558581      0.769791
10
Coordinates from ORCA-job EC_cation_cpcm_7_moread E -342.057148974009
  C      -0.224076     -0.936393     -0.106617
  C      -0.877076      0.407256     -0.064553
  O       0.176435      1.327206      0.028110
  C       1.370446      0.659330      0.202102
  O       2.395567      1.146398      0.528233
  O       1.152829     -0.679916     -0.044485
  H      -0.413868     -1.517266     -1.039743
  H      -0.520144     -1.632110      0.708628
  H      -1.463178      0.663316     -0.979321
  H      -1.596936      0.562178      0.767646
10
Coordinates from ORCA-job EC_cation_cpcm_7_moread E -342.057172174940
  C      -0.222254     -0.936057     -0.108646
  C      -0.875798      0.408401     -0.066405
  O       0.178153      1.327577      0.025649
  C       1.369973      0.659067      0.204664
  O       2.394552      1.146073      0.531516
  O       1.154089     -0.678812     -0.045659
  H      -0.416285     -1.521053     -1.037196
  H      -0.518985     -1.632293      0.705897
  H      -1.468697      0.662500     -0.976112
  H      -1.594747      0.564598      0.766291
10
Coordinates from ORCA-job EC_cation_cpcm_7_moread E -342.057176198157
  C      -0.221576     -0.935534     -0.109495
  C      -0.875014      0.408616     -0.067314
  O       0.178734      1.327586      0.024961
  C       1.369872      0.659054      0.204854
  O       2.394470      1.146092      0.532817
  O       1.154342     -0.678433     -0.045397
  H      -0.416941     -1.522446     -1.036648
  H      -0.519314     -1.631827      0.705124
  H      -1.470976      0.662238     -0.975145
  H      -1.593598      0.564654      0.766245
10
Coordinates from ORCA-job EC_cation_cpcm_7_moread E -342.057177384942
  C      -0.221276     -0.935092     -0.109890
  C      -0.874506      0.408623     -0.067884
  O       0.178912      1.327549      0.024832
  C       1.369874      0.659106      0.204675
  O       2.394658      1.146226      0.533010
  O       1.154307     -0.678385     -0.044590
  H      -0.416800     -1.523096     -1.036625
  H      -0.520117     -1.631366      0.704791
  H      -1.472143      0.662400     -0.974764
  H      -1.592908      0.564034      0.766445
10
Coordinates from ORCA-job EC_cation_cpcm_7_moread E -342.057177589143
  C      -0.221277     -0.935002     -0.109877
  C      -0.874436      0.408602     -0.068014
  O       0.178862      1.327539      0.024969
  C       1.369937      0.659163      0.204624
  O       2.394834      1.146330      0.532599
  O       1.154223     -0.678486     -0.044081
  H      -0.416461     -1.523152     -1.036700
  H      -0.520579     -1.631277      0.704707
  H      -1.472266      0.662685     -0.974729
  H      -1.592836      0.563598      0.766503
