15
Coordinates from ORCA-job SL_optfreq E -705.751086813401
  O       2.056717      1.057395      1.029969
  S       1.198260      0.839690     -0.101915
  O       1.560854      1.477645     -1.337652
  C       0.946926     -0.954321     -0.374015
  C      -0.410335     -1.197741      0.248424
  C      -1.285981      0.009034     -0.104145
  C      -0.533137      1.244288      0.338819
  H       0.954215     -1.114661     -1.447665
  H       1.757958     -1.492574      0.102394
  H      -0.860291     -2.122975     -0.113489
  H      -0.307997     -1.265490      1.333138
  H      -1.438239      0.041801     -1.184614
  H      -2.261028     -0.064315      0.378970
  H      -0.819137      2.150459     -0.182248
  H      -0.558785      1.391766      1.414030
15
Coordinates from ORCA-job SL_optfreq E -705.755479411870
  O       2.078358      1.065993      1.058596
  S       1.224412      0.857299     -0.102992
  O       1.577431      1.494147     -1.364676
  C       0.946403     -0.944927     -0.368796
  C      -0.422717     -1.210088      0.248076
  C      -1.302083      0.000753     -0.100781
  C      -0.525337      1.240059      0.330996
  H       0.956798     -1.106989     -1.450277
  H       1.767176     -1.484674      0.107266
  H      -0.863371     -2.140538     -0.123302
  H      -0.327270     -1.291589      1.337848
  H      -1.471089      0.030346     -1.184230
  H      -2.276324     -0.060200      0.394113
  H      -0.808901      2.153723     -0.194822
  H      -0.553487      1.396684      1.412984
15
Coordinates from ORCA-job SL_optfreq E -705.756355713842
  O       2.084039      1.068094      1.077844
  S       1.232873      0.863344     -0.103796
  O       1.578711      1.497468     -1.384797
  C       0.947149     -0.944205     -0.364458
  C      -0.425812     -1.215168      0.246262
  C      -1.307582     -0.000256     -0.098171
  C      -0.524849      1.240325      0.326714
  H       0.960472     -1.107397     -1.447122
  H       1.772125     -1.480394      0.111805
  H      -0.856344     -2.146564     -0.134757
  H      -0.335982     -1.310391      1.335857
  H      -1.490143      0.028624     -1.179815
  H      -2.278214     -0.050449      0.404987
  H      -0.803644      2.156723     -0.200122
  H      -0.552801      1.400247      1.409569
15
Coordinates from ORCA-job SL_optfreq E -705.756418089712
  O       2.082981      1.067366      1.082292
  S       1.232107      0.863054     -0.104078
  O       1.575444      1.495829     -1.390510
  C       0.947858     -0.945706     -0.363053
  C      -0.425402     -1.214935      0.245391
  C      -1.306943      0.000428     -0.097516
  C      -0.526104      1.241482      0.326043
  H       0.962953     -1.108551     -1.445336
  H       1.773493     -1.479120      0.114096
  H      -0.852668     -2.145761     -0.140403
  H      -0.338710     -1.315106      1.334402
  H      -1.494492      0.028448     -1.177949
  H      -2.275986     -0.046878      0.408773
  H      -0.802300      2.158143     -0.200697
  H      -0.552234      1.401308      1.408547
15
Coordinates from ORCA-job SL_optfreq E -705.756424726815
  O       2.082173      1.067014      1.082727
  S       1.231098      0.862478     -0.104251
  O       1.573333      1.494615     -1.392019
  C       0.948282     -0.946549     -0.362456
  C      -0.425165     -1.214347      0.244996
  C      -1.306144      0.000751     -0.097351
  C      -0.526751      1.242074      0.326032
  H       0.964564     -1.108963     -1.444540
  H       1.774005     -1.478372      0.115663
  H      -0.851648     -2.144538     -0.143296
  H      -0.340216     -1.316520      1.333777
  H      -1.495915      0.028209     -1.177260
  H      -2.274543     -0.046149      0.410336
  H      -0.801631      2.158746     -0.200747
  H      -0.551443      1.401553      1.408390
15
Coordinates from ORCA-job SL_optfreq E -705.756425637826
  O       2.082158      1.067277      1.082183
  S       1.230803      0.862343     -0.104423
  O       1.572386      1.494080     -1.392466
  C       0.948536     -0.946843     -0.362060
  C      -0.425238     -1.214172      0.244740
  C      -1.305891      0.000856     -0.097278
  C      -0.526914      1.242263      0.326116
  H       0.965626     -1.109181     -1.444084
  H       1.774204     -1.477863      0.116901
  H      -0.851667     -2.143881     -0.144869
  H      -0.341141     -1.317361      1.333440
  H      -1.496748      0.028231     -1.176968
  H      -2.274019     -0.046246      0.411029
  H      -0.801221      2.158978     -0.200739
  H      -0.550873      1.401520      1.408478
