15
Coordinates from ORCA-job SL_optfreq E -705.756425637826
  O           2.08215766557908      1.06727680788074      1.08218343545236
  S           1.23080321065158      0.86234290207309     -0.10442331173014
  O           1.57238618277350      1.49407972530996     -1.39246599003759
  C           0.94853586409338     -0.94684281834904     -0.36205950204191
  C          -0.42523820455836     -1.21417212393530      0.24473962453279
  C          -1.30589108993707      0.00085587925673     -0.09727784099945
  C          -0.52691415289313      1.24226301567456      0.32611581256865
  H           0.96562604142955     -1.10918089061176     -1.44408436232197
  H           1.77420372552798     -1.47786341684983      0.11690092317755
  H          -0.85166737796279     -2.14388142170601     -0.14486870452938
  H          -0.34114052744394     -1.31736053675643      1.33343980839163
  H          -1.49674848891686      0.02823144904762     -1.17696790653397
  H          -2.27401915518999     -0.04624607472529      0.41102902545149
  H          -0.80122059226752      2.15897761452243     -0.20073886236052
  H          -0.55087309088542      1.40151987916852      1.40847786098044
