11
Coordinates from ORCA-job EC_m1_cation_opt E -349.710502376524
  C      -0.530050     -1.049624     -0.149674
  C      -0.909714      0.442503     -0.066050
  O       0.352402      1.087174      0.133107
  C       1.300982      0.195276      0.164571
  O       2.479013      0.485778      0.323236
  O       0.891503     -1.031957      0.012866
  H      -0.759985     -1.505538     -1.115479
  H      -0.960044     -1.655407      0.651380
  H      -1.353608      0.832672     -0.984929
  H      -1.555724      0.682400      0.781736
  Li      4.076400      0.880727      0.538638
11
Coordinates from ORCA-job EC_m1_cation_opt E -349.711975473613
  C      -0.541417     -1.054039     -0.151338
  C      -0.921914      0.441114     -0.067585
  O       0.355304      1.095522      0.134165
  C       1.314616      0.198758      0.166470
  O       2.496452      0.490208      0.325585
  O       0.898142     -1.037743      0.013308
  H      -0.770300     -1.509029     -1.117603
  H      -0.970753     -1.659057      0.650380
  H      -1.364692      0.830889     -0.986897
  H      -1.566771      0.680512      0.780887
  Li      4.102506      0.886870      0.542032
11
Coordinates from ORCA-job EC_m1_cation_opt E -349.712522631763
  C      -0.549871     -1.055583     -0.152444
  C      -0.930202      0.438524     -0.068798
  O       0.355224      1.102055      0.134014
  C       1.318380      0.199825      0.166799
  O       2.499723      0.491217      0.326019
  O       0.901164     -1.043353      0.013779
  H      -0.771916     -1.509764     -1.119789
  H      -0.973686     -1.660271      0.651376
  H      -1.367793      0.830598     -0.988661
  H      -1.568887      0.680172      0.782666
  Li      4.119038      0.890583      0.544443
11
Coordinates from ORCA-job EC_m1_cation_opt E -349.712819531121
  C      -0.555908     -1.055409     -0.153157
  C      -0.935525      0.435543     -0.069660
  O       0.353956      1.104738      0.133204
  C       1.317559      0.199738      0.166626
  O       2.497612      0.490930      0.325784
  O       0.901235     -1.046156      0.014097
  H      -0.770881     -1.509122     -1.121883
  H      -0.973824     -1.660195      0.653132
  H      -1.367805      0.830421     -0.990353
  H      -1.568076      0.679901      0.785118
  Li      4.132832      0.893615      0.546495
11
Coordinates from ORCA-job EC_m1_cation_opt E -349.713048911100
  C      -0.559903     -1.054804     -0.153562
  C      -0.938823      0.433138     -0.070148
  O       0.351914      1.104470      0.131842
  C       1.314430      0.199128      0.165292
  O       2.493420      0.490177      0.325143
  O       0.899240     -1.046662      0.013631
  H      -0.769929     -1.508637     -1.123180
  H      -0.972778     -1.659925      0.654903
  H      -1.367371      0.830432     -0.991392
  H      -1.566784      0.679865      0.787197
  Li      4.147757      0.896820      0.549677
11
Coordinates from ORCA-job EC_m1_cation_opt E -349.713197027625
  C      -0.560674     -1.054563     -0.153709
  C      -0.939432      0.432576     -0.070251
  O       0.349835      1.102258      0.130924
  C       1.310979      0.198360      0.165225
  O       2.489757      0.489521      0.324850
  O       0.896387     -1.045479      0.012967
  H      -0.770323     -1.508833     -1.123306
  H      -0.972368     -1.660097      0.655180
  H      -1.367680      0.830474     -0.991491
  H      -1.567020      0.679933      0.787317
  Li      4.161714      0.899854      0.551697
11
Coordinates from ORCA-job EC_m1_cation_opt E -349.713258856514
  C      -0.559023     -1.054925     -0.153433
  C      -0.938184      0.433648     -0.069898
  O       0.348587      1.100431      0.129990
  C       1.309765      0.198277      0.162743
  O       2.488507      0.489413      0.324249
  O       0.894569     -1.044186      0.011372
  H      -0.772925     -1.509873     -1.121996
  H      -0.972634     -1.660296      0.654881
  H      -1.369784      0.830145     -0.990422
  H      -1.568198      0.679790      0.786495
  Li      4.170495      0.901580      0.555421
11
Coordinates from ORCA-job EC_m1_cation_opt E -349.713271875104
  C      -0.557375     -1.055308     -0.153485
  C      -0.936958      0.434754     -0.069940
  O       0.348041      1.099909      0.131296
  C       1.309705      0.198113      0.166357
  O       2.488786      0.489528      0.324974
  O       0.894043     -1.043983      0.011868
  H      -0.774027     -1.510009     -1.121690
  H      -0.974410     -1.660628      0.653274
  H      -1.370329      0.829771     -0.990424
  H      -1.570431      0.679343      0.784493
  Li      4.174128      0.902514      0.552679
11
Coordinates from ORCA-job EC_m1_cation_opt E -349.713274531680
  C      -0.556611     -1.055523     -0.153170
  C      -0.936411      0.435251     -0.069648
  O       0.348096      1.100190      0.130553
  C       1.310809      0.198630      0.162671
  O       2.489402      0.489774      0.324184
  O       0.894305     -1.044044      0.010608
  H      -0.775820     -1.510490     -1.120725
  H      -0.974489     -1.660277      0.653650
  H      -1.371902      0.829231     -0.989631
  H      -1.570467      0.678977      0.784663
  Li      4.174262      0.902284      0.556248
11
Coordinates from ORCA-job EC_m1_cation_opt E -349.713275496420
  C      -0.556721     -1.055471     -0.153258
  C      -0.936496      0.435154     -0.069760
  O       0.348104      1.100368      0.131029
  C       1.310837      0.198567      0.164111
  O       2.489455      0.489783      0.324447
  O       0.894414     -1.044229      0.011032
  H      -0.775405     -1.510236     -1.121015
  H      -0.974727     -1.660268      0.653444
  H      -1.371449      0.829208     -0.989949
  H      -1.570633      0.678899      0.784467
  Li      4.173795      0.902228      0.554854
