11
Coordinates from ORCA-job EC_m1_reduced_opt E -349.849570478476
  C      -0.556721     -1.055471     -0.153258
  C      -0.936496      0.435154     -0.069760
  O       0.348104      1.100368      0.131029
  C       1.310837      0.198567      0.164111
  O       2.489455      0.489783      0.324447
  O       0.894414     -1.044229      0.011032
  H      -0.775405     -1.510236     -1.121015
  H      -0.974727     -1.660268      0.653444
  H      -1.371449      0.829208     -0.989949
  H      -1.570633      0.678899      0.784467
  Li      4.173795      0.902228      0.554854
11
Coordinates from ORCA-job EC_m1_reduced_opt E -349.850336109080
  C      -0.556716     -1.053907     -0.153067
  C      -0.935780      0.433767     -0.069747
  O       0.344700      1.102572      0.130780
  C       1.318873      0.200664      0.164375
  O       2.488450      0.489604      0.324132
  O       0.892565     -1.047578      0.009773
  H      -0.778868     -1.507673     -1.121270
  H      -0.977236     -1.657485      0.654160
  H      -1.372785      0.825422     -0.990795
  H      -1.572082      0.675066      0.784428
  Li      4.180054      0.903552      0.556633
11
Coordinates from ORCA-job EC_m1_reduced_opt E -349.850854795009
  C      -0.556138     -1.052469     -0.152953
  C      -0.934666      0.432746     -0.069826
  O       0.337593      1.104342      0.130987
  C       1.327432      0.202784      0.167193
  O       2.486628      0.489287      0.324189
  O       0.887414     -1.052287      0.008418
  H      -0.782974     -1.504773     -1.121317
  H      -0.980906     -1.654563      0.653828
  H      -1.374231      0.821065     -0.991672
  H      -1.574778      0.670644      0.783076
  Li      4.195801      0.907227      0.557479
11
Coordinates from ORCA-job EC_m1_reduced_opt E -349.851008401491
  C      -0.555975     -1.052822     -0.152812
  C      -0.934705      0.433102     -0.069681
  O       0.334850      1.104189      0.130705
  C       1.328413      0.203164      0.165394
  O       2.486600      0.489404      0.323586
  O       0.885038     -1.053352      0.007477
  H      -0.785298     -1.504995     -1.120827
  H      -0.982398     -1.654352      0.653748
  H      -1.375965      0.820172     -0.991431
  H      -1.576348      0.669704      0.782645
  Li      4.206961      0.909788      0.560597
11
Coordinates from ORCA-job EC_m1_reduced_opt E -349.851346570289
  C      -0.555932     -1.054517     -0.153115
  C      -0.935526      0.434604     -0.069919
  O       0.328754      1.102518      0.133056
  C       1.325915      0.202342      0.170173
  O       2.484933      0.489247      0.324026
  O       0.879262     -1.054806      0.008132
  H      -0.789374     -1.505555     -1.121004
  H      -0.988371     -1.655419      0.651065
  H      -1.378732      0.818914     -0.992251
  H      -1.583167      0.667919      0.779099
  Li      4.243412      0.918757      0.560139
11
Coordinates from ORCA-job EC_m1_reduced_opt E -349.851486178056
  C      -0.557134     -1.055698     -0.152818
  C      -0.937184      0.435023     -0.069584
  O       0.327658      1.101353      0.132316
  C       1.323014      0.202100      0.162674
  O       2.482673      0.488977      0.321538
  O       0.877860     -1.054078      0.006789
  H      -0.792860     -1.507125     -1.119929
  H      -0.990012     -1.655907      0.651661
  H      -1.382158      0.818530     -0.991363
  H      -1.585246      0.667416      0.779375
  Li      4.264564      0.923411      0.568742
11
Coordinates from ORCA-job EC_m1_reduced_opt E -349.851536710767
  C      -0.559084     -1.056097     -0.153570
  C      -0.939138      0.434528     -0.070360
  O       0.327603      1.100516      0.134971
  C       1.318972      0.200650      0.170908
  O       2.480056      0.488318      0.323194
  O       0.877525     -1.053548      0.009387
  H      -0.791689     -1.506811     -1.121636
  H      -0.992432     -1.657132      0.649797
  H      -1.381007      0.818941     -0.993117
  H      -1.588134      0.667491      0.777495
  Li      4.278502      0.927147      0.562333
11
Coordinates from ORCA-job EC_m1_reduced_opt E -349.851548436027
  C      -0.560423     -1.055908     -0.153426
  C      -0.940236      0.433709     -0.070250
  O       0.328295      1.100797      0.133534
  C       1.318755      0.200884      0.166040
  O       2.479538      0.488242      0.321972
  O       0.878199     -1.053304      0.008165
  H      -0.792076     -1.507302     -1.121244
  H      -0.990976     -1.656990      0.651249
  H      -1.381729      0.819102     -0.992609
  H      -1.586674      0.667909      0.779070
  Li      4.278500      0.926865      0.566901
11
Coordinates from ORCA-job EC_m1_reduced_opt E -349.851551357932
  C      -0.561189     -1.055666     -0.153541
  C      -0.940794      0.433142     -0.070395
  O       0.328335      1.101063      0.133447
  C       1.318794      0.200858      0.166533
  O       2.479524      0.488205      0.322181
  O       0.878349     -1.053518      0.008089
  H      -0.791584     -1.507251     -1.121513
  H      -0.990423     -1.657047      0.651546
  H      -1.381260      0.819334     -0.992848
  H      -1.586234      0.668188      0.779387
  Li      4.277656      0.926694      0.566516
11
Coordinates from ORCA-job EC_m1_reduced_opt E -349.851551738217
  C      -0.561485     -1.055580     -0.153585
  C      -0.941005      0.432930     -0.070455
  O       0.328174      1.101157      0.133547
  C       1.318894      0.200855      0.166834
  O       2.479595      0.488201      0.322299
  O       0.878275     -1.053687      0.007945
  H      -0.791498     -1.507289     -1.121587
  H      -0.990197     -1.657087      0.651681
  H      -1.380998      0.819475     -0.992985
  H      -1.586221      0.668296      0.779402
  Li      4.277641      0.926731      0.566306
