11
Coordinates from ORCA-job EC_m1_cation_opt E -349.713275496420
  C          -0.55672093433809     -1.05547059897689     -0.15325809328067
  C          -0.93649589345599      0.43515387698244     -0.06975981195831
  O           0.34810433758467      1.10036847274824      0.13102945980971
  C           1.31083731392181      0.19856712214762      0.16411101288992
  O           2.48945487019823      0.48978339953942      0.32444671058809
  O           0.89441442431421     -1.04422938107863      0.01103178630333
  H          -0.77540529138086     -1.51023586164699     -1.12101474634048
  H          -0.97472684535272     -1.66026787044781      0.65344423433957
  H          -1.37144900027765      0.82920809491461     -0.98994867160805
  H          -1.57063340627659      0.67889881780677      0.78446720699540
  Li          4.17379459946301      0.90222798401123      0.55485384636148
