11
Coordinates from ORCA-job EC_m1_dication_opt E -349.175293843361
  C          -0.54761493943161     -1.03015714118069     -0.14960117938065
  C          -0.91517012530995      0.41746064623908     -0.06949488483767
  O           0.29526546316134      1.09235631211341      0.12507125562321
  C           1.34240281879194      0.20465220834945      0.17069982288370
  O           2.48516545536776      0.48642531654929      0.32374827809428
  O           0.84256954924114     -1.06449967021464      0.00813506951263
  H          -0.82258020550344     -1.55489752026769     -1.10218594050982
  H          -1.02047493581946     -1.70266228323028      0.61319246303237
  H          -1.43448606938722      0.84557543247733     -0.96655298548760
  H          -1.62848578290630      0.69881845141273      0.74929614790629
  Li          4.43458277179579      0.97093124775202      0.58709395316326
