11
Coordinates from ORCA-job EC_m1_dication_opt E -349.158307743055
  C      -0.556721     -1.055471     -0.153258
  C      -0.936496      0.435154     -0.069760
  O       0.348104      1.100368      0.131029
  C       1.310837      0.198567      0.164111
  O       2.489455      0.489783      0.324447
  O       0.894414     -1.044229      0.011032
  H      -0.775405     -1.510236     -1.121015
  H      -0.974727     -1.660268      0.653444
  H      -1.371449      0.829208     -0.989949
  H      -1.570633      0.678899      0.784467
  Li      4.173795      0.902228      0.554854
11
Coordinates from ORCA-job EC_m1_dication_opt E -349.167063481015
  C      -0.550258     -1.044194     -0.148452
  C      -0.925161      0.428035     -0.065864
  O       0.334806      1.100306      0.106335
  C       1.333701      0.205853      0.139956
  O       2.493941      0.490873      0.324208
  O       0.882285     -1.047289     -0.018470
  H      -0.793564     -1.529923     -1.120866
  H      -0.965461     -1.674345      0.668964
  H      -1.392815      0.838776     -0.989623
  H      -1.573343      0.692852      0.798627
  Li      4.187043      0.903060      0.594586
11
Coordinates from ORCA-job EC_m1_dication_opt E -349.171796028343
  C      -0.537611     -1.026755     -0.147197
  C      -0.905438      0.418893     -0.064956
  O       0.311411      1.094010      0.112076
  C       1.353242      0.208393      0.182398
  O       2.495285      0.490535      0.334747
  O       0.859594     -1.052561     -0.020786
  H      -0.799903     -1.544529     -1.113699
  H      -0.972596     -1.693760      0.649089
  H      -1.397556      0.849821     -0.983616
  H      -1.597930      0.706656      0.774791
  Li      4.222676      0.913299      0.566554
11
Coordinates from ORCA-job EC_m1_dication_opt E -349.172614874675
  C      -0.533769     -1.024903     -0.145116
  C      -0.901287      0.418607     -0.062156
  O       0.309517      1.095498      0.107276
  C       1.364589      0.213997      0.133632
  O       2.501676      0.492919      0.321312
  O       0.858971     -1.054734     -0.026675
  H      -0.816943     -1.555450     -1.096004
  H      -0.973940     -1.695724      0.643490
  H      -1.416839      0.849216     -0.965751
  H      -1.600009      0.709179      0.769510
  Li      4.239208      0.915398      0.609883
11
Coordinates from ORCA-job EC_m1_dication_opt E -349.173419763043
  C      -0.531097     -1.025546     -0.147078
  C      -0.899394      0.420336     -0.063293
  O       0.310347      1.097498      0.117423
  C       1.363504      0.212155      0.153883
  O       2.505738      0.493659      0.325590
  O       0.861136     -1.057829     -0.015867
  H      -0.820969     -1.559374     -1.091093
  H      -0.988176     -1.700533      0.625196
  H      -1.423424      0.849264     -0.960150
  H      -1.612671      0.710284      0.752900
  Li      4.266179      0.924088      0.591891
11
Coordinates from ORCA-job EC_m1_dication_opt E -349.174104757255
  C      -0.527348     -1.024934     -0.149151
  C      -0.895989      0.421499     -0.064962
  O       0.311297      1.098248      0.131555
  C       1.356963      0.208806      0.174707
  O       2.502522      0.492546      0.327931
  O       0.862337     -1.060504      0.002297
  H      -0.820716     -1.561445     -1.088224
  H      -1.006468     -1.703675      0.604374
  H      -1.428432      0.848510     -0.955448
  H      -1.624754      0.709447      0.736225
  Li      4.301763      0.935504      0.570097
11
Coordinates from ORCA-job EC_m1_dication_opt E -349.174477934705
  C      -0.527555     -1.024296     -0.150067
  C      -0.895976      0.421019     -0.066536
  O       0.310383      1.096588      0.139043
  C       1.351247      0.206755      0.182418
  O       2.497911      0.491178      0.327497
  O       0.860193     -1.060687      0.014321
  H      -0.817437     -1.561067     -1.090548
  H      -1.016990     -1.703950      0.596798
  H      -1.429715      0.848210     -0.956185
  H      -1.629603      0.706899      0.732057
  Li      4.328717      0.943355      0.560604
11
Coordinates from ORCA-job EC_m1_dication_opt E -349.174884819799
  C      -0.531977     -1.024577     -0.150708
  C      -0.899937      0.419660     -0.068896
  O       0.306529      1.093251      0.143673
  C       1.344810      0.204968      0.184801
  O       2.491537      0.489292      0.325572
  O       0.854187     -1.060350      0.024770
  H      -0.812071     -1.559742     -1.096748
  H      -1.025604     -1.703476      0.595892
  H      -1.429546      0.849111     -0.960643
  H      -1.631981      0.702733      0.734545
  Li      4.365228      0.953132      0.557142
11
Coordinates from ORCA-job EC_m1_dication_opt E -349.175151595059
  C      -0.539088     -1.026415     -0.150842
  C      -0.906745      0.418402     -0.070811
  O       0.300865      1.090836      0.142220
  C       1.341467      0.204320      0.181878
  O       2.487075      0.487876      0.323680
  O       0.847171     -1.061047      0.027245
  H      -0.809163     -1.558224     -1.102568
  H      -1.028164     -1.703104      0.601158
  H      -1.429001      0.850573     -0.965583
  H      -1.631581      0.699269      0.741000
  Li      4.398339      0.961519      0.562025
11
Coordinates from ORCA-job EC_m1_dication_opt E -349.175266286991
  C      -0.545550     -1.028802     -0.150629
  C      -0.913106      0.417683     -0.071646
  O       0.295897      1.090388      0.137029
  C       1.340814      0.204319      0.177800
  O       2.484990      0.487036      0.322824
  O       0.842067     -1.062980      0.023800
  H      -0.810729     -1.556694     -1.105379
  H      -1.027198     -1.703014      0.606972
  H      -1.429688      0.850790     -0.968277
  H      -1.630594      0.697200      0.746260
  Li      4.424272      0.968076      0.570650
11
Coordinates from ORCA-job EC_m1_dication_opt E -349.175286745962
  C      -0.547741     -1.029889     -0.150315
  C      -0.915345      0.417538     -0.071327
  O       0.294372      1.091171      0.132668
  C       1.341366      0.204470      0.175474
  O       2.484803      0.486769      0.323021
  O       0.841026     -1.064279      0.019076
  H      -0.814409     -1.555702     -1.105003
  H      -1.025296     -1.702952      0.609606
  H      -1.431165      0.849500     -0.968286
  H      -1.630123      0.696904      0.747828
  Li      4.433687      0.970472      0.576660
11
Coordinates from ORCA-job EC_m1_dication_opt E -349.175291435508
  C      -0.548097     -1.030211     -0.150009
  C      -0.915699      0.417506     -0.070679
  O       0.294354      1.091887      0.129227
  C       1.341909      0.204597      0.173576
  O       2.484981      0.486664      0.323350
  O       0.841401     -1.064774      0.014651
  H      -0.817977     -1.555139     -1.103897
  H      -1.023401     -1.702823      0.611128
  H      -1.432654      0.847893     -0.967584
  H      -1.629546      0.697327      0.748432
  Li      4.435904      0.971077      0.581206
11
Coordinates from ORCA-job EC_m1_dication_opt E -349.175293164568
  C      -0.547875     -1.030222     -0.149765
  C      -0.915458      0.417487     -0.070034
  O       0.294798      1.092268      0.126772
  C       1.342237      0.204652      0.172047
  O       2.485120      0.486562      0.323610
  O       0.842049     -1.064760      0.011041
  H      -0.820676     -1.554879     -1.102916
  H      -1.021801     -1.702724      0.612235
  H      -1.433753      0.846538     -0.966966
  H      -1.629002      0.698025      0.748851
  Li      4.435536      0.971056      0.584526
11
Coordinates from ORCA-job EC_m1_dication_opt E -349.175293843361
  C      -0.547615     -1.030157     -0.149601
  C      -0.915170      0.417461     -0.069495
  O       0.295265      1.092356      0.125071
  C       1.342403      0.204652      0.170700
  O       2.485165      0.486425      0.323748
  O       0.842570     -1.064500      0.008135
  H      -0.822580     -1.554898     -1.102186
  H      -1.020475     -1.702662      0.613192
  H      -1.434486      0.845575     -0.966553
  H      -1.628486      0.698818      0.749296
  Li      4.434583      0.970931      0.587094
