11
Coordinates from ORCA-job EC_m1_reduced_opt E -349.851551738217
  C          -0.56148489932478     -1.05557999070246     -0.15358506831889
  C          -0.94100520774372      0.43293030041177     -0.07045453496508
  O           0.32817431757596      1.10115718941547      0.13354723991824
  C           1.31889413546301      0.20085490471485      0.16683398587664
  O           2.47959506767280      0.48820095644952      0.32229882601428
  O           0.87827482582279     -1.05368658400283      0.00794480012289
  H          -0.79149815622195     -1.50728908350615     -1.12158718199426
  H          -0.99019710697104     -1.65708715248217      0.65168082173340
  H          -1.38099825211436      0.81947503458442     -0.99298478556347
  H          -1.58622147228692      0.66829629435300      0.77940189537415
  Li          4.27764074812821      0.92673113076459      0.56630600180210
