11
EC_m1_reduced_sp_smd
C     -0.5567210000    -1.0554710000    -0.1532580000
C     -0.9364960000     0.4351540000    -0.0697600000
O      0.3481040000     1.1003680000     0.1310290000
C      1.3108370000     0.1985670000     0.1641110000
O      2.4894550000     0.4897830000     0.3244470000
O      0.8944140000    -1.0442290000     0.0110320000
H     -0.7754050000    -1.5102360000    -1.1210150000
H     -0.9747270000    -1.6602680000     0.6534440000
H     -1.3714490000     0.8292080000    -0.9899490000
H     -1.5706330000     0.6788990000     0.7844670000
Li     4.1737950000     0.9022280000     0.5548540000
