17
TMP conformer 0/5 rel=+0.36 kJ/mol from g1_reference; GFN2-xTB opt; T6 conformer ensemble
C   2.32214989 -1.11010661 -0.12124670
O   1.44690446 -0.24684137  0.58684779
P  -0.00109275  0.00339185 -0.03297716
O  -0.04965437  0.15395280 -1.49026141
O  -0.85113311 -1.20666194  0.56426986
C  -2.12412487 -1.45854653 -0.00907443
O  -0.53050641  1.25111111  0.80750770
C  -0.19101281  2.54695091  0.34039501
H   3.33796893 -0.82767449  0.15421575
H   2.17611552 -0.99387712 -1.19646799
H   2.13642850 -2.14836075  0.15935749
H  -2.35066281 -2.50911570  0.17032353
H  -2.10065006 -1.25485216 -1.08080879
H  -2.88125419 -0.82977643  0.46250396
H   0.78964291  2.83966219  0.71971574
H  -0.95279940  3.22949479  0.71642349
H  -0.17631943  2.56124945 -0.75072384
