17
TMP conformer 4/5 rel=+0.00 kJ/mol from 5; GFN2-xTB opt; T6 conformer ensemble
C  -0.67034953  2.30186955 -0.48366102
O  -0.41555268  1.16529139 -1.29662022
P   0.17537579 -0.15512248 -0.64693265
O   0.40889358 -1.23303214 -1.59830113
O  -0.82199917 -0.54573485  0.56760030
C  -1.82488854 -1.51369485  0.31434987
O   1.43967244  0.40199035  0.15869283
C   2.36151323 -0.55492824  0.65378334
H  -1.15949978  2.00968247  0.44645336
H  -1.32249432  2.95517309 -1.06262534
H   0.26292130  2.81489535 -0.25141702
H  -1.97867333 -2.07007524  1.23911424
H  -2.75507759 -1.02430517  0.01869713
H  -1.50339663 -2.18718915 -0.48143128
H   2.47659050 -1.37227749 -0.06007447
H   3.31148649 -0.03866925  0.78887237
H   2.01547823 -0.95387334  1.60894078
