17
TMP conformer 3/5 rel=+0.00 kJ/mol from 8; GFN2-xTB opt; T6 conformer ensemble
C  -1.33043830 -1.79944137 -0.92857066
O  -0.49113751 -0.65953342 -0.87336244
P  -0.13203068 -0.05520429  0.58548080
O  -1.16657798 -0.26330825  1.58943763
O   1.28144666 -0.65781300  0.97758724
C   2.38511477 -0.50612720  0.09636800
O   0.23726269  1.45533713  0.21165846
C  -0.84052386  2.36452458  0.06215955
H  -1.92461176 -1.72016177 -1.83910043
H  -0.72834422 -2.70979526 -0.95853164
H  -1.98261709 -1.82743954 -0.05444578
H   2.78140891  0.50723088  0.16103427
H   3.13856547 -1.22394585  0.41939416
H   2.08809641 -0.70951579 -0.93327583
H  -1.61890064  2.15076928  0.79655251
H  -0.43654037  3.36343060  0.22404923
H  -1.26017248  2.29099326 -0.94268534
