17
TMP conformer 1/5 rel=+0.00 kJ/mol from 1; GFN2-xTB opt; T6 conformer ensemble
C   2.41620351  0.16823787 -0.13759676
O   1.32806260 -0.14562229 -0.99497809
P  -0.16076954  0.00443473 -0.46986759
O  -1.17687508 -0.32787593 -1.45912747
O  -0.16325547  1.49256900  0.11606105
C  -1.42376267  2.05707162  0.43706350
O  -0.24897004 -0.86784798  0.89161183
C  -0.76382984 -2.18451388  0.80132380
H   2.25505071 -0.24598872  0.85849389
H   3.30304806 -0.27441781 -0.59020770
H   2.53483813  1.24905138 -0.06087011
H  -1.30037819  3.13945048  0.41551147
H  -2.17212526  1.74983496 -0.29536364
H  -1.73819428  1.73793887  1.43231077
H   0.05100311 -2.89995269  0.67349512
H  -1.44773642 -2.26236344 -0.04508692
H  -1.29230933 -2.39000618  1.73237387
