17
TMP conformer 2/5 rel=+0.00 kJ/mol from 6; GFN2-xTB opt; T6 conformer ensemble
C   2.13407213 -1.32429212 -0.18703986
O   1.48408495 -0.10483341  0.13081063
P  -0.05211423 -0.19172815  0.56716056
O  -0.43126928 -1.26637541  1.47430095
O  -0.78422722 -0.25150387 -0.87602711
C  -2.07851636 -0.82409472 -0.93776050
O  -0.32021280  1.26305285  1.13862016
C   0.02433291  2.40274002  0.36399218
H   3.20252316 -1.15740464 -0.05366744
H   1.92724465 -1.60416579 -1.22150593
H   1.79216361 -2.11857692  0.47862026
H  -2.83949633 -0.04653495 -0.84576660
H  -2.16905404 -1.31591311 -1.90641999
H  -2.20604337 -1.54998066 -0.13337498
H  -0.50031080  3.24791296  0.80865832
H  -0.28406168  2.27186182 -0.67404241
H   1.10088470  2.56983609  0.39917691
