13
 energy: -23.973931496379 gnorm: 0.000554313554 xtb: 6.7.1pre (5071a88)
C            1.41362394769355       -0.38876588189284       -0.09651128676381
C            0.04115662902573       -0.44873825023386        0.58120303112626
C           -0.64860708328326        0.94784876425410        0.59304580773936
O           -1.73612237099696        0.83407279832238       -0.26514947071228
C           -1.53276578210417       -0.37926748487654       -1.08080209087630
O           -1.08606366587812       -0.26264758034961       -2.25918244335957
O           -0.84835922698560       -1.25701743426314       -0.12667405213074
H            2.06907485575387        0.32082579579312        0.40984038307597
H            1.26145426577359       -0.08439623704477       -1.12974696762388
H            1.87345010656003       -1.37587281977405       -0.08857375300241
H            0.14223282972943       -0.84890276647678        1.60515309288110
H            0.05506180010146        1.72891819081952        0.25485263539075
H           -1.00413629538926        1.21394291572241        1.60254510425569
