13
Coordinates from ORCA-job PC_anion_cpcm_10_moread E -381.715788967244
  C           1.56019009441808     -0.34101143497272     -0.00057294059328
  C           0.13049721355035     -0.41498916724363      0.51492333461092
  C          -0.57776477922830      0.95402012278163      0.53066683008093
  O          -1.24606458625668      1.01124665069101     -0.72049419569172
  C          -1.75152803541822     -0.34829742504642     -0.94017612982110
  O          -2.14995005787589     -0.63138438912732     -2.09837059823418
  O          -0.66910898989027     -1.19790839091759     -0.37687972394433
  H           2.19736384601889      0.19797569621107      0.71153292955492
  H           1.58866057870922      0.18283755674620     -0.96281425196757
  H           1.97311600682022     -1.34552465221852     -0.14010893574409
  H           0.11751268741919     -0.86902110898504      1.51769042896420
  H           0.12571028684671      1.79043189587910      0.60198433360425
  H          -1.29863425511326      1.01162465620224      1.36261890918104
