37
TEGDME_anion_cpcm_20_path11of20
C        6.5645631818       1.4796728974       1.6816393452
O        6.2158645042       0.5260238726       0.7731891953
C        5.0292954101       0.1816133735       0.4712042018
C        4.4502410886      -0.5238214710       1.3034404718
O        2.8079204103      -1.5740970077      -0.5427777015
C        2.4092598030      -0.4189586181      -1.2121950497
C        1.1407701380      -0.6251795674      -2.0118809361
O        0.0432475248      -0.8121257092      -1.1318235396
C       -1.1618812589      -1.0905425217      -1.8256706406
C       -2.3075694299      -1.1653116246      -0.8461562023
O       -2.6031924124       0.0839945024      -0.2923622085
C       -4.5376864045      -0.5408774924       1.1173620816
C       -5.0098220353       0.3045530765       0.8384098613
O       -6.0810984050       0.7123931596       1.3911039714
C       -6.5550744182       1.5300109256       1.1497674916
H        6.2547345126       1.2453713889       2.4193327521
H        6.2675887464       2.2597473827       1.5033388164
H        7.4847008282       1.6869922001       1.8318456975
H        4.9255925242      -0.3890146897      -0.3749901089
H        4.6374386391       1.0092005145       0.3835626012
H        4.9291733894      -1.3068054946       1.5615051782
H        3.8805862269      -0.2909313513       1.9324663046
H        2.2263118819       0.4274358895      -0.5208201620
H        3.1663857532      -0.0541471840      -1.9404608568
H        0.9565946142       0.2539063032      -2.6564816794
H        1.2536463502      -1.5076447539      -2.6618549644
H       -1.3625989481      -0.2999238224      -2.5694344642
H       -1.0701975897      -2.0497461880      -2.3628323580
H       -2.0447209254      -1.9146168200      -0.0708224764
H       -3.1721069691      -1.5890053989      -1.4014946181
H       -4.4068616990      -0.5544500140       1.8999205612
H       -4.7322768855      -1.1292702693       0.8791135495
H       -4.2105540881       0.6448643836       0.7684617370
H       -5.3254626730       0.2555732796       0.2312649450
H       -7.3677014577       1.7989194558       1.6006174903
H       -5.7758101814       1.9101105796       1.1291489737
H       -6.9192997559       1.5260868332       0.5464492798
