37
TEGDME_anion_cpcm_20_path09of20
C        6.6189824072       1.3295752205       1.6203190619
O        6.2969848493       0.3169316505       0.7672279946
C        5.1307328700       0.0326460352       0.3491915881
C        4.4112550788      -0.5753475399       1.1566280889
O        2.8732690928      -1.4621767579      -0.5234438253
C        2.4763313846      -0.2952976474      -1.1876166171
C        1.1937613577      -0.5000383705      -1.9601567366
O        0.1140053065      -0.6736980068      -1.0584492268
C       -1.1074193345      -0.9516806177      -1.7270710418
C       -2.2369951208      -1.0095064745      -0.7242100919
O       -2.5219118911       0.2348769622      -0.1695430014
C       -4.6380514351      -0.5112005330       1.3590041634
C       -5.1581148979       0.2117295420       0.9000235035
O       -6.2184149841       0.7265754403       1.3815976496
C       -6.7284603043       1.4436913448       0.9610841666
H        6.2087017820       1.1954068130       2.3333909500
H        6.4124993339       2.1071526644       1.3356454402
H        7.5302402944       1.4824552239       1.8620229656
H        5.0768867096      -0.5903089671      -0.4632860084
H        4.8137443725       0.8762916836       0.1664392604
H        4.8069670611      -1.3831324028       1.4762148147
H        3.9080667468      -0.2310636532       1.7940494597
H        2.3162076923       0.5450542043      -0.4870908235
H        3.2279534525       0.0558379926      -1.9242710872
H        1.0058590216       0.3759845354      -2.6073558459
H        1.2905052992      -1.3865793941      -2.6070881566
H       -1.3157550238      -0.1654534791      -2.4734843227
H       -1.0280224316      -1.9159022589      -2.2577911612
H       -1.9609384790      -1.7651935976       0.0435338686
H       -3.1081894961      -1.4406177458      -1.2682789524
H       -4.5242299595      -0.3746558056       2.1297756313
H       -4.6780898175      -1.1479389334       1.1869085501
H       -4.3787875100       0.5460631815       0.6946294369
H       -5.4988320134      -0.0018097840       0.3435163575
H       -7.5298921313       1.8033653909       1.3664321522
H       -5.9635453063       1.8215828500       0.8050414899
H       -7.1173039864       1.2763812540       0.3975468450
