37
TEGDME_anion_cpcm_20_path14of20
C        6.4829343437       1.7048194129       1.7736197702
O        6.0941839866       0.8396622056       0.7821309963
C        4.8771392203       0.4050643808       0.6542231223
C        4.5087201033      -0.4465323676       1.5236590462
O        2.7098973864      -1.7419773824      -0.5717785158
C        2.3086524306      -0.6044500742      -1.2490626986
C        1.0612833085      -0.8128913627      -2.0894672353
O       -0.0628891477      -1.0197672627      -1.2418850090
C       -1.2435741455      -1.2988353776      -1.9735700388
C       -2.4134308936      -1.3990193498      -1.0290753680
O       -2.7251131944      -0.1423291873      -0.4765910192
C       -4.3871388585      -0.5853929316       0.7548989589
C       -4.7873827414       0.4437883783       0.7459893982
O       -5.8751235365       0.6911197385       1.4053634540
C       -6.2949955890       1.6594902966       1.4327924792
H        6.3237836085       1.3203182527       2.5482454554
H        6.0502228651       2.4886394601       1.7548788807
H        7.4163916289       1.9937976644       1.7865797954
H        4.6986512461      -0.0870732736      -0.2425462597
H        4.3729800390       1.2085637608       0.7092476123
H        5.1124828820      -1.1923151321       1.6894407233
H        3.8393654470      -0.3807328985       2.1400915718
H        2.0914681663       0.2510084172      -0.5714141697
H        3.0740342042      -0.2191249489      -1.9647455111
H        0.8826980032       0.0707889548      -2.7301704298
H        1.1983579267      -1.6892427936      -2.7440051762
H       -1.4328648346      -0.5016293374      -2.7133596765
H       -1.1334603267      -2.2505120817      -2.5203941532
H       -2.1703945951      -2.1387516536      -0.2423569939
H       -3.2679831787      -1.8115868786      -1.6013181167
H       -4.2308093081      -0.8241413266       1.5551379562
H       -4.8135574874      -1.1012672730       0.4174210487
H       -3.9582039553       0.7930661867       0.8792101871
H       -5.0654086624       0.6416478749       0.0628878261
H       -7.1244154473       1.7922505531       1.9518954975
H       -5.4942074941       2.0429021740       1.6153101994
H       -6.6222934102       1.9006452020       0.7698029320
