37
TEGDME_anion_cpcm_20_path20of20
C        6.3196766674       2.1551124439       1.9575806202
O        5.8508229514       1.4669388716       0.8000145985
C        4.5728268407       0.8519663954       1.0202609634
C        4.6256781329      -0.2919541609       1.9640961949
O        2.5138513387      -2.0777381319      -0.6297801444
C        2.1074376859      -0.9754329864      -1.3227979965
C        0.9023096495      -1.1883149534      -2.2446398338
O       -0.2751624927      -1.4350503698      -1.4620079476
C       -1.4069599186      -1.7154210896      -2.2693688352
C       -2.6251538209      -1.8664348002      -1.3949136993
O       -2.9689547584      -0.5949765666      -0.8450486407
C       -4.0860437667      -0.6744238098       0.0299727136
C       -4.3425041536       0.7222589819       0.5611484719
O       -5.4631737994       0.6485728964       1.4338824193
C       -5.7748379307       1.9184490388       1.9988424544
H        6.4618818004       1.4702119804       2.8060708619
H        5.6154911024       2.9464236150       2.2579590092
H        7.2797732304       2.6074085930       1.6960479913
H        4.2447686898       0.5168095586       0.0223414387
H        3.8440628387       1.6072902534       1.3606176346
H        5.4791018671      -0.9633344073       1.9453118137
H        3.7569238872      -0.5603359928       2.5553421064
H        1.8217807352      -0.1018465273      -0.6726021850
H        2.8893311063      -0.5490804787      -2.0133148198
H        0.7349047810      -0.2954457419      -2.8775479304
H        1.0877810797      -2.0524388730      -2.9083055997
H       -1.5733966075      -0.9050403675      -3.0012101011
H       -1.2599858009      -2.6520438691      -2.8355177435
H       -2.4217419344      -2.5870213207      -0.5854260290
H       -3.4597355977      -2.2567498381      -2.0009651139
H       -3.8787045263      -1.3635239518       0.8655727461
H       -4.9761186914      -1.0452612806      -0.5059639529
H       -3.4535036898       1.0894697931       1.1007070875
H       -4.5453006412       1.4137970657      -0.2738664116
H       -6.6378434265       1.7789127478       2.6544515119
H       -4.9310021194       2.3084853627       2.5876326508
H       -6.0282807187       2.6497619396       1.2165102364
