37
TEGDME_anion_cpcm_20_path18of20
C        6.3740958929       2.0050147669       1.8962603368
O        5.9319432964       1.2578466496       0.7940533977
C        4.6742643006       0.7029990572       0.8982483497
C        4.5866921230      -0.3434802298       1.8172838120
O        2.5792000213      -1.9658178821      -0.6104462682
C        2.1745092675      -0.8517720157      -1.2982195639
C        0.9553008692      -1.0631737565      -2.1929156343
O       -0.2044047110      -1.2966226674      -1.3886336347
C       -1.3524979942      -1.5765591856      -2.1707692364
C       -2.5545795118      -1.7106296501      -1.2729675888
O       -2.8876742370      -0.4440941068      -0.7222294336
C       -4.1864087973      -0.6447468504       0.2716147953
C       -4.4907970162       0.6294354474       0.6227621140
O       -5.6004903784       0.6627551771       1.4243760975
C       -5.9482238168       1.8321294581       1.8101591293
H        6.4158490698       1.4202474045       2.7201290598
H        5.7604016900       2.7938288967       2.0902656330
H        7.3253126966       2.4028716168       1.7262252593
H        4.3960628752       0.3155152812      -0.0659544608
H        4.0203685721       1.4743814226       1.1434942938
H        5.3568955387      -1.0396613156       1.8600214502
H        3.7844044071      -0.5004682947       2.4169252615
H        1.9116765456       0.0157717875      -0.6388728466
H        2.9508988056      -0.4390953021      -1.9971250503
H        0.7841691884      -0.1733675097      -2.8284220968
H        1.1246400287      -1.9313735132      -2.8535387919
H       -1.5265526832      -0.7705700241      -2.9052599596
H       -1.2178106429      -2.5181999400      -2.7304765467
H       -2.3379594880      -2.4375980983      -0.4710696840
H       -3.3958181247      -2.1083621849      -1.8677494482
H       -3.9960727869      -1.1837297434       1.0954278161
H       -4.9219316234      -1.0639299448      -0.1981689523
H       -3.6217371116       0.9906685910       1.0268747874
H       -4.7186699816       1.1564140021      -0.1616149991
H       -6.8000341001       1.7833586829       2.4202661737
H       -5.1187372443       2.2199576332       2.2635251670
H       -6.2262849492       2.4000563604       1.0676078016
