37
TEGDME_anion_cpcm_20_path04of20
C        6.7550304708       0.9543310280       1.4670183536
O        6.4997857120      -0.2057989045       0.7523249928
C        5.3843265197      -0.3397723103       0.0441600539
C        4.3137900542      -0.7041627121       0.7895971316
O        3.0366407992      -1.1823761334      -0.4751091348
C        2.6440103385       0.0138547794      -1.1261705355
C        1.3262394068      -0.1871853782      -1.8308462379
O        0.2908997606      -0.3276287509      -0.8750134446
C       -0.9712645236      -0.6045258577      -1.4805720448
C       -2.0605593480      -0.6199935992      -0.4193448158
O       -2.3187105877       0.6120831117       0.1375050165
C       -4.8889640116      -0.4370081345       1.9631093679
C       -5.5288470544      -0.0203292943       1.0540576087
O       -6.5617064317       0.7620311421       1.3578318452
C       -7.1619250196       1.2278923930       0.4893758540
H        6.0936199554       1.0704953733       2.1185364445
H        6.7747758028       1.7256658687       0.9164119998
H        7.6440889598       0.9711127834       1.9374661357
H        5.4551221731      -1.0935446606      -0.6840257570
H        5.2545087060       0.5440196065      -0.3763690915
H        4.5014512401      -1.5739496735       1.2629889061
H        3.9767680467      -0.0813944079       1.4480073476
H        2.5409472182       0.8390999914      -0.4027674773
H        3.3818727008       0.3308009341      -1.8837966633
H        1.1290200401       0.6811801160      -2.4845412621
H        1.3826526717      -1.0839159946      -2.4701711370
H       -1.1986452131       0.1707223793      -2.2336089688
H       -0.9225845365      -1.5812924360      -1.9951881693
H       -1.7514823629      -1.3916355417       0.3294247311
H       -2.9483958136      -1.0696486129      -0.9352397881
H       -4.8176506110       0.0748297154       2.7044133063
H       -4.5426221475      -1.1946105938       1.9563960514
H       -4.7993710646       0.2990601762       0.5100486866
H       -5.9322553645      -0.6452674430       0.6241448890
H       -7.9353688153       1.8144802286       0.7809688069
H       -6.4328831185       1.6002635261      -0.0052272196
H       -7.6123145625       0.6521173061       0.0252907580
