37
TEGDME_anion_cpcm_20_path12of20
C        6.5373535691       1.5547217359       1.7122994869
O        6.1753043317       0.6305699836       0.7761697956
C        4.9785766802       0.2560970426       0.5322105086
C        4.4697340935      -0.4980584365       1.3768466633
O        2.7752460690      -1.6300571326      -0.5524446396
C        2.3757240122      -0.4807891035      -1.2244842660
C        1.1142745282      -0.6877501658      -2.0377430358
O        0.0078686340      -0.8813395604      -1.1685106961
C       -1.1891122211      -1.1599734736      -1.8749704400
C       -2.3428565845      -1.2432141997      -0.9071292575
O       -2.6438326730       0.0085532725      -0.3537718121
C       -4.4875038892      -0.5557159722       0.9965410407
C       -4.9356756040       0.3509648438       0.8076030403
O       -6.0124401155       0.7053020192       1.3958571323
C       -6.4683814751       1.5731707159       1.2441091542
H        6.2777508779       1.2703536768       2.4623036532
H        6.1951334526       2.3360447419       1.5871855045
H        7.4619310951       1.7892606882       1.8167570635
H        4.8499454315      -0.2883675510      -0.3308421592
H        4.5492857724       1.0756549299       0.4921242716
H        4.9902765536      -1.2686420404       1.6041503599
H        3.8668459669      -0.3208652004       2.0016747270
H        2.1813639767       0.3686267320      -0.5376848312
H        3.1356019035      -0.1091397723      -1.9485557416
H        0.9319624105       0.1928671870      -2.6810445962
H        1.2352168757      -1.5681774338      -2.6892383684
H       -1.3860209103      -0.3671589941      -2.6174095350
H       -1.0912851687      -2.1166681526      -2.4153529564
H       -2.0866121486      -1.9893284312      -0.1280006489
H       -3.2040657056      -1.6631992255      -1.4681024510
H       -4.3481775687      -0.6443471182       1.7849930262
H       -4.7593704195      -1.1199359372       0.7252160493
H       -4.1264373772       0.6942649846       0.8053778870
H       -5.2387780028       0.3842648114       0.1751392387
H       -7.2866061209       1.7966964882       1.7177101594
H       -5.6819426190       1.9543744444       1.2912027156
H       -6.8202976406       1.6509396228       0.6209004972
