37
TEGDME_anion_cpcm_20_path16of20
C        6.4285151183       1.8549170899       1.8349400535
O        6.0130636415       1.0487544276       0.7880921970
C        4.7757017605       0.5540317190       0.7762357360
C        4.5477061132      -0.3950062987       1.6704714291
O        2.6445487039      -1.8538976322      -0.5911123920
C        2.2415808491      -0.7281110449      -1.2736411312
C        1.0082920889      -0.9380325596      -2.1411914348
O       -0.1336469294      -1.1581949651      -1.3152593218
C       -1.2980360698      -1.4376972816      -2.0721696376
C       -2.4840052027      -1.5548245000      -1.1510214784
O       -2.8063937157      -0.2932116471      -0.5994102264
C       -4.2867738279      -0.6150698910       0.5132568771
C       -4.6390898788       0.5366119128       0.6843757561
O       -5.7378069574       0.6769374578       1.4148697758
C       -6.1216097029       1.7458098774       1.6214758043
H        6.3698163392       1.3702828286       2.6341872576
H        5.9053122775       2.6412341784       1.9225722568
H        7.3708521627       2.1983346406       1.7564025274
H        4.5473570607       0.1142210038      -0.1542503603
H        4.1966743055       1.3414725917       0.9263709531
H        5.2346892104      -1.1159882239       1.7747310868
H        3.8118849270      -0.4406005966       2.2785084167
H        2.0015723560       0.1333901024      -0.6051435081
H        3.0124665049      -0.3291101255      -1.9809352807
H        0.8334335958      -0.0512892774      -2.7792962633
H        1.1614989777      -1.8103081534      -2.7987719840
H       -1.4797087589      -0.6360996808      -2.8093098180
H       -1.1756354848      -2.3843560109      -2.6254353500
H       -2.2541770415      -2.2881748759      -0.3567133389
H       -3.3319006517      -1.9599745318      -1.7345337824
H       -4.1134410475      -1.0039355350       1.3252828861
H       -4.8677445554      -1.0825986089       0.1096260482
H       -3.7899705335       0.8918673888       0.9530424873
H       -4.8920393220       0.8990309385      -0.0493635865
H       -6.9622247737       1.7878046180       2.1860808356
H       -5.3064723692       2.1314299036       1.9394176832
H       -6.4242891797       2.1503507812       0.9187053668
