37
TEGDME_anion_cpcm_20_path15of20
C        6.4557247310       1.7798682514       1.8042799119
O        6.0536238141       0.9442083166       0.7851115967
C        4.8264204904       0.4795480499       0.7152294292
C        4.5282131083      -0.4207693331       1.5970652376
O        2.6772230451      -1.7979375073      -0.5814454539
C        2.2751166399      -0.6662805596      -1.2613519149
C        1.0347876987      -0.8754619612      -2.1153293351
O       -0.0982680385      -1.0889811139      -1.2785721654
C       -1.2708051076      -1.3682663296      -2.0228698382
C       -2.4487180481      -1.4769219249      -1.0900484232
O       -2.7657534550      -0.2177704172      -0.5380006228
C       -4.3369563432      -0.6002314113       0.6340779180
C       -4.7132363101       0.4902001456       0.7151825771
O       -5.8064652470       0.6840285981       1.4101166149
C       -6.2083026460       1.7026500870       1.5271341418
H        6.3467999739       1.3453005407       2.5912163565
H        5.9777675713       2.5649368193       1.8387255687
H        7.3936218958       2.0960661525       1.7714911614
H        4.6230041534       0.0135738651      -0.1983983100
H        4.2848271723       1.2750181763       0.8178092827
H        5.1735860462      -1.1541516780       1.7320859051
H        3.8256251870      -0.4106667475       2.2092999943
H        2.0465202612       0.1921992598      -0.5882788389
H        3.0432503546      -0.2741175372      -1.9728403959
H        0.8580657995       0.0097498387      -2.7547333465
H        1.1799284522      -1.7497754735      -2.7713885801
H       -1.4562867968      -0.5688645091      -2.7613347473
H       -1.1545479058      -2.3174340463      -2.5729147516
H       -2.2122858183      -2.2134632647      -0.2995351664
H       -3.2999419152      -1.8857807052      -1.6679259496
H       -4.1721251778      -0.9140384308       1.4402104212
H       -4.8406510214      -1.0919329410       0.2635235485
H       -3.8740872444       0.8424667878       0.9161263372
H       -4.9787239922       0.7703394067       0.0067621198
H       -7.0433201105       1.7900275856       2.0689881666
H       -5.4003399316       2.0871660388       1.7773639413
H       -6.5232912949       2.0254979916       0.8442541494
