10
Coordinates from ORCA-job EC_cation_cpcm_5_moread E -342.050522891612
  C          -0.22225746085378     -0.93742409245119     -0.11037432760822
  C          -0.87682895308900      0.40934632046449     -0.06901457452164
  O           0.18304390542423      1.32906346199998      0.00440622112958
  C           1.36386870812877      0.65634764362617      0.20087864419597
  O           2.38313321495751      1.14024829199689      0.55888456470669
  O           1.15728985444299     -0.67572119970038     -0.06079219942077
  H          -0.41884469340908     -1.52453077303751     -1.03622284228121
  H          -0.51094639749553     -1.62754335830692      0.71078265052123
  H          -1.47728749902921      0.66117116493793     -0.97297669078253
  H          -1.58117067907692      0.56904254047055      0.77442856406092
