10
Coordinates from ORCA-job neb_EC_cation_cpcm_5_MEP_ALL E -342.050165622273
  C      -0.220357     -0.932469     -0.106103
  C      -0.871377      0.407300     -0.063513
  O       0.158603      1.317757      0.145658
  C       1.387049      0.666999      0.215822
  O       2.435667      1.172225      0.363914
  O       1.137865     -0.694931      0.075521
  H      -0.375616     -1.507949     -1.049582
  H      -0.574605     -1.651099      0.672390
  H      -1.433948      0.686649     -0.986899
  H      -1.643280      0.535518      0.732791
10
Coordinates from ORCA-job neb_EC_cation_cpcm_5_MEP_ALL E -342.050142953554
  C      -0.220423     -0.932662     -0.106475
  C      -0.871581      0.407430     -0.064091
  O       0.160160      1.319074      0.128763
  C       1.385170      0.666171      0.214311
  O       2.430772      1.169081      0.386765
  O       1.139313     -0.693687      0.059174
  H      -0.380801     -1.510072     -1.048015
  H      -0.567194     -1.648501      0.677021
  H      -1.439241      0.683680     -0.985266
  H      -1.636174      0.539487      0.737812
10
Coordinates from ORCA-job neb_EC_cation_cpcm_5_MEP_ALL E -342.050126051748
  C      -0.220503     -0.932862     -0.106596
  C      -0.871813      0.407515     -0.064366
  O       0.161971      1.320232      0.113403
  C       1.382909      0.665134      0.212775
  O       2.426376      1.166251      0.407486
  O       1.140841     -0.692202      0.044303
  H      -0.385412     -1.511986     -1.046646
  H      -0.560600     -1.646128      0.681178
  H      -1.443971      0.681047     -0.983849
  H      -1.629797      0.542998      0.742311
10
Coordinates from ORCA-job neb_EC_cation_cpcm_5_MEP_ALL E -342.050135669507
  C      -0.220699     -0.933251     -0.106734
  C      -0.872267      0.407640     -0.064671
  O       0.164289      1.321466      0.097756
  C       1.380128      0.663872      0.211062
  O       2.421623      1.163232      0.428688
  O       1.142742     -0.690371      0.029165
  H      -0.390103     -1.513880     -1.045207
  H      -0.553801     -1.643622      0.685409
  H      -1.448741      0.678334     -0.982355
  H      -1.623171      0.546580      0.746888
10
Coordinates from ORCA-job neb_EC_cation_cpcm_5_MEP_ALL E -342.050178867779
  C      -0.220955     -0.933770     -0.106938
  C      -0.872871      0.407792     -0.065037
  O       0.166858      1.322692      0.082938
  C       1.377170      0.662500      0.209307
  O       2.416840      1.160239      0.448885
  O       1.144812     -0.688368      0.014847
  H      -0.394574     -1.515636     -1.043798
  H      -0.547258     -1.641176      0.689440
  H      -1.453252      0.675718     -0.980894
  H      -1.616770      0.550007      0.751251
10
Coordinates from ORCA-job neb_EC_cation_cpcm_5_MEP_ALL E -342.050250989724
  C      -0.221278     -0.934470     -0.107334
  C      -0.873668      0.408026     -0.065609
  O       0.170088      1.324109      0.065858
  C       1.373804      0.660951      0.207227
  O       2.410759      1.156511      0.472272
  O       1.147372     -0.685864     -0.001632
  H      -0.399804     -1.517637     -1.042111
  H      -0.539558     -1.638284      0.694138
  H      -1.458487      0.672625     -0.979142
  H      -1.609227      0.554033      0.756335
10
Coordinates from ORCA-job neb_EC_cation_cpcm_5_MEP_ALL E -342.050338758625
  C      -0.221586     -0.935187     -0.107819
  C      -0.874468      0.408288     -0.066247
  O       0.173233      1.325400      0.050263
  C       1.370844      0.659601      0.205303
  O       2.404698      1.152860      0.493686
  O       1.149831     -0.683434     -0.016659
  H      -0.404641     -1.519450     -1.040523
  H      -0.532405     -1.635590      0.698468
  H      -1.463296      0.669742     -0.977491
  H      -1.602211      0.557770      0.761020
10
Coordinates from ORCA-job neb_EC_cation_cpcm_5_MEP_ALL E -342.050425776121
  C      -0.221871     -0.935943     -0.108417
  C      -0.875295      0.408586     -0.066982
  O       0.176463      1.326673      0.034751
  C       1.368195      0.658374      0.203429
  O       2.398113      1.148965      0.514989
  O       1.152323     -0.680914     -0.031586
  H      -0.409510     -1.521244     -1.038899
  H      -0.525179     -1.632864      0.702806
  H      -1.468115      0.666823     -0.975806
  H      -1.595125      0.561546      0.765714
10
Coordinates from ORCA-job neb_EC_cation_cpcm_5_MEP_ALL E -342.050493657687
  C      -0.222139     -0.936724     -0.109110
  C      -0.876128      0.408924     -0.067798
  O       0.179752      1.327906      0.019301
  C       1.365892      0.657325      0.201643
  O       2.391004      1.144821      0.536172
  O       1.154830     -0.678340     -0.046440
  H      -0.414411     -1.523031     -1.037246
  H      -0.517885     -1.630111      0.707154
  H      -1.472947      0.663872     -0.974090
  H      -1.587968      0.565358      0.770415
10
Coordinates from ORCA-job neb_EC_cation_cpcm_5_MEP_ALL E -342.050522851302
  C      -0.222300     -0.937460     -0.109981
  C      -0.876874      0.409310     -0.068657
  O       0.183022      1.329068      0.003921
  C       1.363965      0.656431      0.199947
  O       2.383415      1.140454      0.557258
  O       1.157269     -0.675718     -0.061225
  H      -0.419379     -1.524839     -1.035553
  H      -0.510530     -1.627346      0.711533
  H      -1.477828      0.660862     -0.972366
  H      -1.580760      0.569238      0.775123
10
Coordinates from ORCA-job neb_EC_cation_cpcm_5_MEP_ALL E -342.050165622273
  C      -0.220357     -0.932469     -0.106103
  C      -0.871377      0.407300     -0.063513
  O       0.158603      1.317757      0.145658
  C       1.387049      0.666999      0.215822
  O       2.435667      1.172225      0.363914
  O       1.137865     -0.694931      0.075521
  H      -0.375616     -1.507949     -1.049582
  H      -0.574605     -1.651099      0.672390
  H      -1.433948      0.686649     -0.986899
  H      -1.643280      0.535518      0.732791
10
Coordinates from ORCA-job neb_EC_cation_cpcm_5_MEP_ALL E -342.050155301666
  C      -0.220466     -0.932586     -0.106452
  C      -0.871538      0.407356     -0.064096
  O       0.159619      1.319135      0.128453
  C       1.385811      0.666490      0.214550
  O       2.431377      1.169356      0.387039
  O       1.139010     -0.694137      0.058849
  H      -0.380925     -1.510174     -1.047995
  H      -0.567222     -1.648589      0.677051
  H      -1.439404      0.683650     -0.985245
  H      -1.636261      0.539500      0.737847
10
Coordinates from ORCA-job neb_EC_cation_cpcm_5_MEP_ALL E -342.050161213560
  C      -0.220575     -0.932719     -0.106440
  C      -0.871730      0.407368     -0.064237
  O       0.161065      1.320240      0.113557
  C       1.384298      0.665811      0.213262
  O       2.427370      1.166737      0.406890
  O       1.140286     -0.692921      0.044395
  H      -0.385335     -1.512049     -1.046685
  H      -0.561074     -1.646418      0.681016
  H      -1.443960      0.681157     -0.983896
  H      -1.630345      0.542795      0.742138
10
Coordinates from ORCA-job neb_EC_cation_cpcm_5_MEP_ALL E -342.050185555324
  C      -0.220808     -0.933078     -0.106433
  C      -0.872181      0.407438     -0.064409
  O       0.163247      1.321470      0.097693
  C       1.382074      0.664822      0.211703
  O       2.422553      1.163678      0.428118
  O       1.142089     -0.691181      0.029018
  H      -0.389999     -1.513966     -1.045249
  H      -0.554397     -1.643980      0.685252
  H      -1.448728      0.678476     -0.982411
  H      -1.623851      0.546321      0.746717
10
Coordinates from ORCA-job neb_EC_cation_cpcm_5_MEP_ALL E -342.050225713084
  C      -0.221115     -0.933618     -0.106514
  C      -0.872832      0.407557     -0.064667
  O       0.165868      1.322712      0.082567
  C       1.379426      0.663597      0.210032
  O       2.417499      1.160543      0.448510
  O       1.144194     -0.689126      0.014386
  H      -0.394471     -1.515736     -1.043835
  H      -0.547860     -1.641536      0.689334
  H      -1.453256      0.675869     -0.980947
  H      -1.617453      0.549740      0.751134
10
Coordinates from ORCA-job neb_EC_cation_cpcm_5_MEP_ALL E -342.050293712973
  C      -0.221498     -0.934390     -0.106843
  C      -0.873723      0.407786     -0.065188
  O       0.169338      1.324168      0.065108
  C       1.375955      0.662002      0.207926
  O       2.411099      1.156645      0.472302
  O       1.146921     -0.686443     -0.002459
  H      -0.399754     -1.517748     -1.042125
  H      -0.540032     -1.638577      0.694128
  H      -1.458542      0.672740     -0.979170
  H      -1.609764      0.553817      0.756321
10
Coordinates from ORCA-job neb_EC_cation_cpcm_5_MEP_ALL E -342.050367541654
  C      -0.221829     -0.935169     -0.107334
  C      -0.874593      0.408066     -0.065839
  O       0.172709      1.325468      0.049587
  C       1.372696      0.660506      0.205932
  O       2.404883      1.152923      0.493645
  O       1.149526     -0.683846     -0.017400
  H      -0.404557     -1.519524     -1.040543
  H      -0.532842     -1.635842      0.698462
  H      -1.463305      0.669863     -0.977522
  H      -1.602689      0.557554      0.761011
10
Coordinates from ORCA-job neb_EC_cation_cpcm_5_MEP_ALL E -342.050440824023
  C      -0.222102     -0.935973     -0.108012
  C      -0.875452      0.408410     -0.066654
  O       0.176163      1.326738      0.034241
  C       1.369534      0.659033      0.203907
  O       2.398216      1.148994      0.514888
  O       1.152164     -0.681165     -0.032140
  H      -0.409417     -1.521279     -1.038918
  H      -0.525524     -1.633052      0.702805
  H      -1.468092      0.666932     -0.975831
  H      -1.595490      0.561361      0.765712
10
Coordinates from ORCA-job neb_EC_cation_cpcm_5_MEP_ALL E -342.050498159942
  C      -0.222304     -0.936771     -0.108850
  C      -0.876261      0.408820     -0.067608
  O       0.179643      1.327955      0.019010
  C       1.366578      0.657673      0.201898
  O       2.391063      1.144838      0.536059
  O       1.154786     -0.678452     -0.046747
  H      -0.414341     -1.523034     -1.037254
  H      -0.518079     -1.630215      0.707163
  H      -1.472920      0.663947     -0.974096
  H      -1.588165      0.565238      0.770426
10
Coordinates from ORCA-job neb_EC_cation_cpcm_5_MEP_ALL E -342.050522851302
  C      -0.222302     -0.937461     -0.109969
  C      -0.876875      0.409309     -0.068643
  O       0.183021      1.329068      0.003906
  C       1.363969      0.656434      0.199915
  O       2.383425      1.140460      0.557203
  O       1.157268     -0.675717     -0.061242
  H      -0.419398     -1.524848     -1.035532
  H      -0.510515     -1.627341      0.711556
  H      -1.477847      0.660853     -0.972343
  H      -1.580746      0.569244      0.775148
10
Coordinates from ORCA-job neb_EC_cation_cpcm_5_MEP_ALL E -342.050165622273
  C      -0.220357     -0.932469     -0.106103
  C      -0.871377      0.407300     -0.063513
  O       0.158603      1.317757      0.145658
  C       1.387049      0.666999      0.215822
  O       2.435667      1.172225      0.363914
  O       1.137865     -0.694931      0.075521
  H      -0.375616     -1.507949     -1.049582
  H      -0.574605     -1.651099      0.672390
  H      -1.433948      0.686649     -0.986899
  H      -1.643280      0.535518      0.732791
10
Coordinates from ORCA-job neb_EC_cation_cpcm_5_MEP_ALL E -342.050158308958
  C      -0.220696     -0.932679     -0.106455
  C      -0.871757      0.407238     -0.064124
  O       0.159255      1.319272      0.128335
  C       1.386626      0.666886      0.214910
  O       2.432363      1.169818      0.387053
  O       1.138867     -0.694497      0.058708
  H      -0.381084     -1.510281     -1.047936
  H      -0.567445     -1.648764      0.676959
  H      -1.439589      0.683604     -0.985195
  H      -1.636540      0.539404      0.737745
10
Coordinates from ORCA-job neb_EC_cation_cpcm_5_MEP_ALL E -342.050168842591
  C      -0.220924     -0.932854     -0.106360
  C      -0.872049      0.407186     -0.064164
  O       0.160372      1.320265      0.115229
  C       1.385856      0.666578      0.213977
  O       2.429467      1.167811      0.404283
  O       1.139916     -0.693565      0.045942
  H      -0.384924     -1.511922     -1.046717
  H      -0.562416     -1.647059      0.680354
  H      -1.443550      0.681428     -0.983954
  H      -1.631749      0.542131      0.741410
10
Coordinates from ORCA-job neb_EC_cation_cpcm_5_MEP_ALL E -342.050200213679
  C      -0.221214     -0.933236     -0.106249
  C      -0.872565      0.407213     -0.064259
  O       0.162617      1.321633      0.097270
  C       1.383946      0.665747      0.212401
  O       2.424387      1.164527      0.428022
  O       1.141786     -0.691741      0.028488
  H      -0.390105     -1.514062     -1.045054
  H      -0.555211     -1.644505      0.685101
  H      -1.448851      0.678451     -0.982254
  H      -1.624791      0.545972      0.746534
10
Coordinates from ORCA-job neb_EC_cation_cpcm_5_MEP_ALL E -342.050248301010
  C      -0.221519     -0.933750     -0.106214
  C      -0.873188      0.407317     -0.064409
  O       0.165153      1.322820      0.082063
  C       1.381745      0.664743      0.210853
  O       2.419238      1.161345      0.448228
  O       1.143800     -0.689715      0.013752
  H      -0.394461     -1.515786     -1.043631
  H      -0.548880     -1.642184      0.689195
  H      -1.453270      0.675909     -0.980791
  H      -1.618618      0.549300      0.750953
10
Coordinates from ORCA-job neb_EC_cation_cpcm_5_MEP_ALL E -342.050319683451
  C      -0.221889     -0.934521     -0.106440
  C      -0.874077      0.407548     -0.064846
  O       0.168758      1.324264      0.064106
  C       1.378398      0.663205      0.208751
  O       2.412307      1.157172      0.472463
  O       1.146579     -0.686888     -0.003576
  H      -0.399760     -1.517799     -1.041904
  H      -0.540928     -1.639185      0.694144
  H      -1.458583      0.672770     -0.979000
  H      -1.610803      0.553435      0.756304
10
Coordinates from ORCA-job neb_EC_cation_cpcm_5_MEP_ALL E -342.050389216853
  C      -0.222194     -0.935298     -0.106893
  C      -0.874931      0.407847     -0.065466
  O       0.172288      1.325534      0.048608
  C       1.374974      0.661635      0.206706
  O       2.405657      1.153243      0.493716
  O       1.149258     -0.684158     -0.018472
  H      -0.404490     -1.519532     -1.040364
  H      -0.533661     -1.636393      0.698519
  H      -1.463278      0.669933     -0.977390
  H      -1.603624      0.557189      0.761037
10
Coordinates from ORCA-job neb_EC_cation_cpcm_5_MEP_ALL E -342.050453601698
  C      -0.222414     -0.936098     -0.107612
  C      -0.875749      0.408236     -0.066324
  O       0.175932      1.326777      0.033456
  C       1.371309      0.659924      0.204523
  O       2.398627      1.149151      0.514840
  O       1.152006     -0.681335     -0.032981
  H      -0.409305     -1.521251     -1.038797
  H      -0.526170     -1.633482      0.702879
  H      -1.468022      0.667026     -0.975745
  H      -1.596212      0.561053      0.765761
10
Coordinates from ORCA-job neb_EC_cation_cpcm_5_MEP_ALL E -342.050502078280
  C      -0.222516     -0.936869     -0.108572
  C      -0.876476      0.408713     -0.067398
  O       0.179584      1.327981      0.018537
  C       1.367549      0.658175      0.202241
  O       2.391222      1.144890      0.535945
  O       1.154736     -0.678510     -0.047230
  H      -0.414236     -1.522989     -1.037191
  H      -0.518448     -1.630465      0.707236
  H      -1.472852      0.664036     -0.974050
  H      -1.588562      0.565038      0.770483
10
Coordinates from ORCA-job neb_EC_cation_cpcm_5_MEP_ALL E -342.050522851302
  C      -0.222304     -0.937463     -0.109954
  C      -0.876878      0.409308     -0.068625
  O       0.183020      1.329068      0.003887
  C       1.363974      0.656437      0.199873
  O       2.383439      1.140468      0.557129
  O       1.157267     -0.675717     -0.061264
  H      -0.419424     -1.524860     -1.035505
  H      -0.510496     -1.627334      0.711587
  H      -1.477873      0.660841     -0.972312
  H      -1.580726      0.569251      0.775183
10
Coordinates from ORCA-job neb_EC_cation_cpcm_5_MEP_ALL E -342.050165622273
  C      -0.220357     -0.932469     -0.106103
  C      -0.871377      0.407300     -0.063513
  O       0.158603      1.317757      0.145658
  C       1.387049      0.666999      0.215822
  O       2.435667      1.172225      0.363914
  O       1.137865     -0.694931      0.075521
  H      -0.375616     -1.507949     -1.049582
  H      -0.574605     -1.651099      0.672390
  H      -1.433948      0.686649     -0.986899
  H      -1.643280      0.535518      0.732791
10
Coordinates from ORCA-job neb_EC_cation_cpcm_5_MEP_ALL E -342.050159746551
  C      -0.220938     -0.932832     -0.106450
  C      -0.872034      0.407156     -0.064125
  O       0.159438      1.319311      0.128920
  C       1.387249      0.667200      0.215213
  O       2.433052      1.170162      0.386198
  O       1.139015     -0.694411      0.059273
  H      -0.381106     -1.510314     -1.047932
  H      -0.567968     -1.649033      0.676677
  H      -1.439617      0.683631     -0.985206
  H      -1.637090      0.539132      0.737432
10
Coordinates from ORCA-job neb_EC_cation_cpcm_5_MEP_ALL E -342.050169826642
  C      -0.221254     -0.933071     -0.106347
  C      -0.872450      0.407059     -0.064138
  O       0.160536      1.320223      0.117422
  C       1.387157      0.667203      0.214545
  O       2.430716      1.168495      0.401156
  O       1.140020     -0.693509      0.048033
  H      -0.384509     -1.511749     -1.046766
  H      -0.563878     -1.647719      0.679578
  H      -1.443092      0.681684     -0.984039
  H      -1.633245      0.541384      0.740556
10
Coordinates from ORCA-job neb_EC_cation_cpcm_5_MEP_ALL E -342.050206082529
  C      -0.221681     -0.933573     -0.106198
  C      -0.873150      0.407064     -0.064214
  O       0.163084      1.321760      0.097388
  C       1.385411      0.666481      0.212907
  O       2.425467      1.165023      0.427450
  O       1.142146     -0.691445      0.028513
  H      -0.390251     -1.514086     -1.044804
  H      -0.556204     -1.645092      0.684818
  H      -1.448927      0.678352     -0.982057
  H      -1.625894      0.545516      0.746198
10
Coordinates from ORCA-job neb_EC_cation_cpcm_5_MEP_ALL E -342.050255546360
  C      -0.221966     -0.934079     -0.106149
  C      -0.873758      0.407182     -0.064355
  O       0.165619      1.322947      0.081680
  C       1.383088      0.665430      0.211305
  O       2.420508      1.161906      0.448219
  O       1.144143     -0.689395      0.013268
  H      -0.394661     -1.515797     -1.043282
  H      -0.549855     -1.642829      0.689060
  H      -1.453377      0.675754     -0.980508
  H      -1.619741      0.548880      0.750763
10
Coordinates from ORCA-job neb_EC_cation_cpcm_5_MEP_ALL E -342.050329326962
  C      -0.222243     -0.934780     -0.106343
  C      -0.874532      0.407445     -0.064766
  O       0.169111      1.324338      0.063486
  C       1.379475      0.663772      0.209117
  O       2.413735      1.157796      0.472690
  O       1.146805     -0.686615     -0.004291
  H      -0.399897     -1.517764     -1.041537
  H      -0.541889     -1.639868      0.694123
  H      -1.458628      0.672640     -0.978707
  H      -1.611935      0.553035      0.756228
10
Coordinates from ORCA-job neb_EC_cation_cpcm_5_MEP_ALL E -342.050397819481
  C      -0.222423     -0.935467     -0.106768
  C      -0.875243      0.407774     -0.065364
  O       0.172497      1.325552      0.047943
  C       1.375805      0.662072      0.206984
  O       2.407014      1.153834      0.493985
  O       1.149338     -0.683954     -0.019210
  H      -0.404536     -1.519460     -1.040044
  H      -0.534536     -1.637042      0.698573
  H      -1.463253      0.669862     -0.977144
  H      -1.604663      0.556828      0.761044
10
Coordinates from ORCA-job neb_EC_cation_cpcm_5_MEP_ALL E -342.050459174798
  C      -0.222552     -0.936189     -0.107474
  C      -0.875938      0.408187     -0.066213
  O       0.176036      1.326754      0.032888
  C       1.371878      0.660236      0.204709
  O       2.399692      1.149612      0.515035
  O       1.151998     -0.681206     -0.033587
  H      -0.409268     -1.521157     -1.038569
  H      -0.526866     -1.634015      0.702972
  H      -1.467946      0.667020     -0.975576
  H      -1.597035      0.560756      0.765815
10
Coordinates from ORCA-job neb_EC_cation_cpcm_5_MEP_ALL E -342.050504005310
  C      -0.222588     -0.936910     -0.108454
  C      -0.876573      0.408687     -0.067311
  O       0.179640      1.327948      0.018168
  C       1.367824      0.658348      0.202324
  O       2.391809      1.145138      0.536028
  O       1.154703     -0.678443     -0.047591
  H      -0.414157     -1.522900     -1.037077
  H      -0.518855     -1.630796      0.707333
  H      -1.472772      0.664082     -0.973972
  H      -1.589030      0.564845      0.770552
10
Coordinates from ORCA-job neb_EC_cation_cpcm_5_MEP_ALL E -342.050522851302
  C      -0.222305     -0.937463     -0.109949
  C      -0.876878      0.409307     -0.068618
  O       0.183020      1.329068      0.003882
  C       1.363975      0.656438      0.199858
  O       2.383444      1.140470      0.557103
  O       1.157267     -0.675717     -0.061273
  H      -0.419434     -1.524862     -1.035496
  H      -0.510488     -1.627332      0.711596
  H      -1.477882      0.660838     -0.972299
  H      -1.580719      0.569253      0.775196
10
Coordinates from ORCA-job neb_EC_cation_cpcm_5_MEP_ALL E -342.050165622273
  C      -0.220357     -0.932469     -0.106103
  C      -0.871377      0.407300     -0.063513
  O       0.158603      1.317757      0.145658
  C       1.387049      0.666999      0.215822
  O       2.435667      1.172225      0.363914
  O       1.137865     -0.694931      0.075521
  H      -0.375616     -1.507949     -1.049582
  H      -0.574605     -1.651099      0.672390
  H      -1.433948      0.686649     -0.986899
  H      -1.643280      0.535518      0.732791
10
Coordinates from ORCA-job neb_EC_cation_cpcm_5_MEP_ALL E -342.050160479039
  C      -0.221054     -0.932903     -0.106304
  C      -0.872193      0.407119     -0.063992
  O       0.160021      1.319135      0.131749
  C       1.387856      0.667507      0.215701
  O       2.435150      1.171261      0.382409
  O       1.139269     -0.693979      0.062038
  H      -0.380813     -1.510281     -1.048102
  H      -0.569850     -1.649939      0.675634
  H      -1.439342      0.683928     -0.985422
  H      -1.639043      0.538152      0.736289
10
Coordinates from ORCA-job neb_EC_cation_cpcm_5_MEP_ALL E -342.050168212638
  C      -0.221343     -0.933068     -0.106106
  C      -0.872523      0.407021     -0.063866
  O       0.161073      1.319812      0.124112
  C       1.387344      0.667337      0.215235
  O       2.435547      1.171059      0.392321
  O       1.140197     -0.693164      0.054470
  H      -0.383269     -1.511294     -1.047137
  H      -0.567893     -1.649520      0.677353
  H      -1.441774      0.682497     -0.984502
  H      -1.637359      0.539319      0.738121
10
Coordinates from ORCA-job neb_EC_cation_cpcm_5_MEP_ALL E -342.050207525933
  C      -0.222026     -0.933776     -0.105798
  C      -0.873596      0.406964     -0.063840
  O       0.164666      1.321825      0.098332
  C       1.385735      0.666766      0.213209
  O       2.430008      1.167141      0.425879
  O       1.143122     -0.690271      0.029203
  H      -0.390716     -1.514240     -1.044331
  H      -0.558976     -1.646744      0.683925
  H      -1.449209      0.678093     -0.981736
  H      -1.629007      0.544244      0.745158
10
Coordinates from ORCA-job neb_EC_cation_cpcm_5_MEP_ALL E -342.050259122909
  C      -0.222405     -0.934367     -0.105655
  C      -0.874345      0.407043     -0.063909
  O       0.167489      1.323126      0.080889
  C       1.384247      0.666107      0.211578
  O       2.424115      1.163489      0.448543
  O       1.145309     -0.687943      0.012213
  H      -0.395457     -1.515991     -1.042507
  H      -0.552353     -1.644511      0.688603
  H      -1.453925      0.675242     -0.979923
  H      -1.622675      0.547804      0.750168
10
Coordinates from ORCA-job neb_EC_cation_cpcm_5_MEP_ALL E -342.050334204536
  C      -0.222704     -0.935081     -0.105775
  C      -0.875139      0.407304     -0.064261
  O       0.170848      1.324451      0.062317
  C       1.381600      0.664933      0.209530
  O       2.416320      1.158868      0.473027
  O       1.147827     -0.685211     -0.005714
  H      -0.400482     -1.517789     -1.040691
  H      -0.544412     -1.641633      0.693835
  H      -1.458937      0.672200     -0.978068
  H      -1.614920      0.551956      0.755800
10
Coordinates from ORCA-job neb_EC_cation_cpcm_5_MEP_ALL E -342.050402150805
  C      -0.222823     -0.935742     -0.106191
  C      -0.875784      0.407661     -0.064863
  O       0.173917      1.325600      0.046609
  C       1.378159      0.663325      0.207426
  O       2.408781      1.154511      0.494299
  O       1.150108     -0.682739     -0.020732
  H      -0.404864     -1.519340     -1.039259
  H      -0.536801     -1.638684      0.698461
  H      -1.463337      0.669558     -0.976564
  H      -1.607356      0.555851      0.760814
10
Coordinates from ORCA-job neb_EC_cation_cpcm_5_MEP_ALL E -342.050461883578
  C      -0.222837     -0.936396     -0.106948
  C      -0.876341      0.408114     -0.065777
  O       0.177022      1.326730      0.031724
  C       1.373823      0.661282      0.205066
  O       2.400844      1.150023      0.515169
  O       1.152452     -0.680325     -0.034835
  H      -0.409314     -1.520931     -1.037984
  H      -0.528665     -1.635358      0.702992
  H      -1.467828      0.666909     -0.975153
  H      -1.599156      0.559951      0.765744
10
Coordinates from ORCA-job neb_EC_cation_cpcm_5_MEP_ALL E -342.050504936900
  C      -0.222742     -0.937042     -0.108063
  C      -0.876816      0.408660     -0.067024
  O       0.180149      1.327898      0.017367
  C       1.368855      0.658941      0.202497
  O       2.392418      1.145336      0.536046
  O       1.154860     -0.677983     -0.048343
  H      -0.414004     -1.522645     -1.036769
  H      -0.519911     -1.631636      0.707441
  H      -1.472571      0.664155     -0.973761
  H      -1.590239      0.564315      0.770610
10
Coordinates from ORCA-job neb_EC_cation_cpcm_5_MEP_ALL E -342.050522851302
  C      -0.222306     -0.937463     -0.109947
  C      -0.876879      0.409307     -0.068608
  O       0.183020      1.329068      0.003881
  C       1.363977      0.656438      0.199844
  O       2.383450      1.140470      0.557079
  O       1.157266     -0.675717     -0.061286
  H      -0.419444     -1.524862     -1.035493
  H      -0.510481     -1.627332      0.711601
  H      -1.477893      0.660838     -0.972283
  H      -1.580711      0.569252      0.775213
10
Coordinates from ORCA-job neb_EC_cation_cpcm_5_MEP_ALL E -342.050165622273
  C      -0.220357     -0.932469     -0.106103
  C      -0.871377      0.407300     -0.063513
  O       0.158603      1.317757      0.145658
  C       1.387049      0.666999      0.215822
  O       2.435667      1.172225      0.363914
  O       1.137865     -0.694931      0.075521
  H      -0.375616     -1.507949     -1.049582
  H      -0.574605     -1.651099      0.672390
  H      -1.433948      0.686649     -0.986899
  H      -1.643280      0.535518      0.732791
10
Coordinates from ORCA-job neb_EC_cation_cpcm_5_MEP_ALL E -342.050158310542
  C      -0.220885     -0.932845     -0.106350
  C      -0.872035      0.407209     -0.064024
  O       0.160000      1.319149      0.130842
  C       1.387531      0.667343      0.215403
  O       2.433835      1.170600      0.383661
  O       1.139260     -0.693959      0.061163
  H      -0.380877     -1.510250     -1.048031
  H      -0.569151     -1.649578      0.675991
  H      -1.439377      0.683826     -0.985338
  H      -1.638300      0.538505      0.736683
10
Coordinates from ORCA-job neb_EC_cation_cpcm_5_MEP_ALL E -342.050145782201
  C      -0.221163     -0.933056     -0.106189
  C      -0.872400      0.407150     -0.063956
  O       0.161303      1.319966      0.120874
  C       1.387426      0.667373      0.214785
  O       2.432341      1.169387      0.396630
  O       1.140376     -0.692924      0.051364
  H      -0.383986     -1.511530     -1.046895
  H      -0.565994     -1.648674      0.678377
  H      -1.442487      0.682022     -0.984228
  H      -1.635416      0.540286      0.739239
10
Coordinates from ORCA-job neb_EC_cation_cpcm_5_MEP_ALL E -342.050189598245
  C      -0.221637     -0.933617     -0.105964
  C      -0.873206      0.407157     -0.063970
  O       0.164357      1.321667      0.099106
  C       1.385561      0.666630      0.212954
  O       2.427180      1.165853      0.425158
  O       1.142863     -0.690467      0.030077
  H      -0.390299     -1.514042     -1.044618
  H      -0.558079     -1.646093      0.683976
  H      -1.448814      0.678307     -0.981967
  H      -1.627926      0.544604      0.745248
10
Coordinates from ORCA-job neb_EC_cation_cpcm_5_MEP_ALL E -342.050255667800
  C      -0.221981     -0.934199     -0.105885
  C      -0.873923      0.407270     -0.064102
  O       0.167241      1.323027      0.081373
  C       1.383096      0.665513      0.211122
  O       2.421883      1.162470      0.448528
  O       1.145133     -0.688124      0.012822
  H      -0.395243     -1.515896     -1.042797
  H      -0.551167     -1.643719      0.688730
  H      -1.453744      0.675351     -0.980143
  H      -1.621295      0.548305      0.750352
10
Coordinates from ORCA-job neb_EC_cation_cpcm_5_MEP_ALL E -342.050330755144
  C      -0.222259     -0.934890     -0.106073
  C      -0.874692      0.407527     -0.064513
  O       0.170567      1.324393      0.063154
  C       1.379682      0.663958      0.208933
  O       2.415036      1.158320      0.472893
  O       1.147666     -0.685455     -0.004763
  H      -0.400327     -1.517744     -1.041019
  H      -0.543271     -1.640836      0.693844
  H      -1.458818      0.672291     -0.978320
  H      -1.613583      0.552437      0.755864
10
Coordinates from ORCA-job neb_EC_cation_cpcm_5_MEP_ALL E -342.050395489814
  C      -0.222439     -0.935557     -0.106514
  C      -0.875374      0.407850     -0.065132
  O       0.173668      1.325580      0.047479
  C       1.376131      0.662310      0.206816
  O       2.408053      1.154228      0.494251
  O       1.150007     -0.682990     -0.019773
  H      -0.404820     -1.519360     -1.039557
  H      -0.535763     -1.637949      0.698407
  H      -1.463319      0.669591     -0.976785
  H      -1.606144      0.556298      0.760807
10
Coordinates from ORCA-job neb_EC_cation_cpcm_5_MEP_ALL E -342.050456261482
  C      -0.222547     -0.936247     -0.107245
  C      -0.876022      0.408251     -0.066018
  O       0.176830      1.326742      0.032455
  C       1.372230      0.660478      0.204583
  O       2.400414      1.149871      0.515204
  O       1.152403     -0.680530     -0.034058
  H      -0.409365     -1.520999     -1.038202
  H      -0.527845     -1.634768      0.702902
  H      -1.467888      0.666882     -0.975312
  H      -1.598210      0.560320      0.765692
10
Coordinates from ORCA-job neb_EC_cation_cpcm_5_MEP_ALL E -342.050503155024
  C      -0.222577     -0.936944     -0.108280
  C      -0.876623      0.408728     -0.067183
  O       0.180034      1.327919      0.017837
  C       1.368046      0.658509      0.202248
  O       2.392162      1.145249      0.536108
  O       1.154853     -0.678096     -0.047878
  H      -0.414098     -1.522730     -1.036887
  H      -0.519438     -1.631278      0.707343
  H      -1.472652      0.664088     -0.973844
  H      -1.589708      0.564554      0.770536
10
Coordinates from ORCA-job neb_EC_cation_cpcm_5_MEP_ALL E -342.050522851302
  C      -0.222304     -0.937462     -0.109958
  C      -0.876878      0.409308     -0.068622
  O       0.183020      1.329068      0.003894
  C       1.363974      0.656435      0.199875
  O       2.383440      1.140465      0.557133
  O       1.157267     -0.675717     -0.061268
  H      -0.419425     -1.524854     -1.035512
  H      -0.510495     -1.627337      0.711579
  H      -1.477874      0.660846     -0.972307
  H      -1.580725      0.569247      0.775187
