10
Coordinates from ORCA-job neb_EC_cation_cpcm_5_NEB-HEI_converged E -342.050160796461
  C          -0.22088499639978     -0.93284523271202     -0.10634966045270
  C          -0.87203517397696      0.40720946098888     -0.06402427795425
  O           0.15999957407123      1.31914877066861      0.13084198831877
  C           1.38753114572027      0.66734308637894      0.21540335809067
  O           2.43383505375005      1.17059974151572      0.38366050005744
  O           1.13925994096414     -0.69395893598974      0.06116334940857
  H          -0.38087677985684     -1.51024981703419     -1.04803128653962
  H          -0.56915095960931     -1.64957818128585      0.67599071961261
  H          -1.43937739937807      0.68382639189582     -0.98533753155145
  H          -1.63830040528472      0.53850471557383      0.73668284100997
