10
Coordinates from ORCA-job neb_EC_cation_cpcm_5_MEP E -342.050165622273
  C      -0.220357     -0.932469     -0.106103
  C      -0.871377      0.407300     -0.063513
  O       0.158603      1.317757      0.145658
  C       1.387049      0.666999      0.215822
  O       2.435667      1.172225      0.363914
  O       1.137865     -0.694931      0.075521
  H      -0.375616     -1.507949     -1.049582
  H      -0.574605     -1.651099      0.672390
  H      -1.433948      0.686649     -0.986899
  H      -1.643280      0.535518      0.732791
10
Coordinates from ORCA-job neb_EC_cation_cpcm_5_MEP E -342.050158310542
  C      -0.220885     -0.932845     -0.106350
  C      -0.872035      0.407209     -0.064024
  O       0.160000      1.319149      0.130842
  C       1.387531      0.667343      0.215403
  O       2.433835      1.170600      0.383661
  O       1.139260     -0.693959      0.061163
  H      -0.380877     -1.510250     -1.048031
  H      -0.569151     -1.649578      0.675991
  H      -1.439377      0.683826     -0.985338
  H      -1.638300      0.538505      0.736683
10
Coordinates from ORCA-job neb_EC_cation_cpcm_5_MEP E -342.050145782201
  C      -0.221163     -0.933056     -0.106189
  C      -0.872400      0.407150     -0.063956
  O       0.161303      1.319966      0.120874
  C       1.387426      0.667373      0.214785
  O       2.432341      1.169387      0.396630
  O       1.140376     -0.692924      0.051364
  H      -0.383986     -1.511530     -1.046895
  H      -0.565994     -1.648674      0.678377
  H      -1.442487      0.682022     -0.984228
  H      -1.635416      0.540286      0.739239
10
Coordinates from ORCA-job neb_EC_cation_cpcm_5_MEP E -342.050189598245
  C      -0.221637     -0.933617     -0.105964
  C      -0.873206      0.407157     -0.063970
  O       0.164357      1.321667      0.099106
  C       1.385561      0.666630      0.212954
  O       2.427180      1.165853      0.425158
  O       1.142863     -0.690467      0.030077
  H      -0.390299     -1.514042     -1.044618
  H      -0.558079     -1.646093      0.683976
  H      -1.448814      0.678307     -0.981967
  H      -1.627926      0.544604      0.745248
10
Coordinates from ORCA-job neb_EC_cation_cpcm_5_MEP E -342.050255667800
  C      -0.221981     -0.934199     -0.105885
  C      -0.873923      0.407270     -0.064102
  O       0.167241      1.323027      0.081373
  C       1.383096      0.665513      0.211122
  O       2.421883      1.162470      0.448528
  O       1.145133     -0.688124      0.012822
  H      -0.395243     -1.515896     -1.042797
  H      -0.551167     -1.643719      0.688730
  H      -1.453744      0.675351     -0.980143
  H      -1.621295      0.548305      0.750352
10
Coordinates from ORCA-job neb_EC_cation_cpcm_5_MEP E -342.050330755144
  C      -0.222259     -0.934890     -0.106073
  C      -0.874692      0.407527     -0.064513
  O       0.170567      1.324393      0.063154
  C       1.379682      0.663958      0.208933
  O       2.415036      1.158320      0.472893
  O       1.147666     -0.685455     -0.004763
  H      -0.400327     -1.517744     -1.041019
  H      -0.543271     -1.640836      0.693844
  H      -1.458818      0.672291     -0.978320
  H      -1.613583      0.552437      0.755864
10
Coordinates from ORCA-job neb_EC_cation_cpcm_5_MEP E -342.050395489814
  C      -0.222439     -0.935557     -0.106514
  C      -0.875374      0.407850     -0.065132
  O       0.173668      1.325580      0.047479
  C       1.376131      0.662310      0.206816
  O       2.408053      1.154228      0.494251
  O       1.150007     -0.682990     -0.019773
  H      -0.404820     -1.519360     -1.039557
  H      -0.535763     -1.637949      0.698407
  H      -1.463319      0.669591     -0.976785
  H      -1.606144      0.556298      0.760807
10
Coordinates from ORCA-job neb_EC_cation_cpcm_5_MEP E -342.050456261482
  C      -0.222547     -0.936247     -0.107245
  C      -0.876022      0.408251     -0.066018
  O       0.176830      1.326742      0.032455
  C       1.372230      0.660478      0.204583
  O       2.400414      1.149871      0.515204
  O       1.152403     -0.680530     -0.034058
  H      -0.409365     -1.520999     -1.038202
  H      -0.527845     -1.634768      0.702902
  H      -1.467888      0.666882     -0.975312
  H      -1.598210      0.560320      0.765692
10
Coordinates from ORCA-job neb_EC_cation_cpcm_5_MEP E -342.050503155024
  C      -0.222577     -0.936944     -0.108280
  C      -0.876623      0.408728     -0.067183
  O       0.180034      1.327919      0.017837
  C       1.368046      0.658509      0.202248
  O       2.392162      1.145249      0.536108
  O       1.154853     -0.678096     -0.047878
  H      -0.414098     -1.522730     -1.036887
  H      -0.519438     -1.631278      0.707343
  H      -1.472652      0.664088     -0.973844
  H      -1.589708      0.564554      0.770536
10
Coordinates from ORCA-job neb_EC_cation_cpcm_5_MEP E -342.050522851302
  C      -0.222304     -0.937462     -0.109958
  C      -0.876878      0.409308     -0.068622
  O       0.183020      1.329068      0.003894
  C       1.363974      0.656435      0.199875
  O       2.383440      1.140465      0.557133
  O       1.157267     -0.675717     -0.061268
  H      -0.419425     -1.524854     -1.035512
  H      -0.510495     -1.627337      0.711579
  H      -1.477874      0.660846     -0.972307
  H      -1.580725      0.569247      0.775187
