10
Coordinates from ORCA-job neb_EC_cation_cpcm_5_initial_path E   0.000000000000
  C      -0.220357     -0.932469     -0.106103
  C      -0.871377      0.407300     -0.063513
  O       0.158603      1.317757      0.145658
  C       1.387049      0.666999      0.215822
  O       2.435667      1.172225      0.363914
  O       1.137865     -0.694931      0.075521
  H      -0.375616     -1.507949     -1.049582
  H      -0.574605     -1.651099      0.672390
  H      -1.433948      0.686649     -0.986899
  H      -1.643280      0.535518      0.732791
10
Coordinates from ORCA-job neb_EC_cation_cpcm_5_initial_path E   0.000000000000
  C      -0.220572     -0.933023     -0.106541
  C      -0.871987      0.407524     -0.064091
  O       0.161317      1.319014      0.129918
  C       1.384482      0.665824      0.214075
  O       2.429856      1.168692      0.385426
  O       1.140021     -0.692796      0.060335
  H      -0.380469     -1.509821     -1.048034
  H      -0.567493     -1.648463      0.676727
  H      -1.438814      0.683788     -0.985296
  H      -1.636341      0.539262      0.737482
10
Coordinates from ORCA-job neb_EC_cation_cpcm_5_initial_path E   0.000000000000
  C      -0.220788     -0.933577     -0.106978
  C      -0.872597      0.407748     -0.064669
  O       0.164030      1.320270      0.114177
  C       1.381916      0.664648      0.212327
  O       2.424046      1.165159      0.406937
  O       1.142178     -0.690662      0.045150
  H      -0.385322     -1.511693     -1.046487
  H      -0.560381     -1.645827      0.681064
  H      -1.443680      0.680928     -0.983692
  H      -1.629402      0.543006      0.742172
10
Coordinates from ORCA-job neb_EC_cation_cpcm_5_initial_path E   0.000000000000
  C      -0.221003     -0.934131     -0.107415
  C      -0.873207      0.407972     -0.065248
  O       0.166744      1.321527      0.098436
  C       1.379349      0.663472      0.210579
  O       2.418235      1.161625      0.428448
  O       1.144334     -0.688527      0.029964
  H      -0.390175     -1.513564     -1.044939
  H      -0.553269     -1.643191      0.685400
  H      -1.448546      0.678068     -0.982089
  H      -1.622462      0.546749      0.746863
10
Coordinates from ORCA-job neb_EC_cation_cpcm_5_initial_path E   0.000000000000
  C      -0.221218     -0.934685     -0.107853
  C      -0.873817      0.408196     -0.065826
  O       0.169457      1.322784      0.082696
  C       1.376782      0.662297      0.208832
  O       2.412424      1.158092      0.449959
  O       1.146491     -0.686392      0.014778
  H      -0.395028     -1.515436     -1.043391
  H      -0.546157     -1.640555      0.689737
  H      -1.453412      0.675208     -0.980485
  H      -1.615523      0.550493      0.751554
10
Coordinates from ORCA-job neb_EC_cation_cpcm_5_initial_path E   0.000000000000
  C      -0.221433     -0.935239     -0.108290
  C      -0.874427      0.408420     -0.066404
  O       0.172171      1.324041      0.066955
  C       1.374216      0.661121      0.207084
  O       2.406614      1.154558      0.471471
  O       1.148647     -0.684257     -0.000408
  H      -0.399881     -1.517308     -1.041844
  H      -0.539045     -1.637919      0.694074
  H      -1.458277      0.672347     -0.978882
  H      -1.608584      0.554236      0.756245
10
Coordinates from ORCA-job neb_EC_cation_cpcm_5_initial_path E   0.000000000000
  C      -0.221648     -0.935793     -0.108728
  C      -0.875037      0.408644     -0.066982
  O       0.174884      1.325297      0.051214
  C       1.371649      0.659945      0.205337
  O       2.400803      1.151025      0.492982
  O       1.150803     -0.682123     -0.015594
  H      -0.404734     -1.519180     -1.040296
  H      -0.531933     -1.635283      0.698410
  H      -1.463143      0.669487     -0.977279
  H      -1.601645      0.557980      0.760935
10
Coordinates from ORCA-job neb_EC_cation_cpcm_5_initial_path E   0.000000000000
  C      -0.221863     -0.936347     -0.109165
  C      -0.875647      0.408868     -0.067561
  O       0.177598      1.326554      0.035474
  C       1.369083      0.658770      0.203589
  O       2.394992      1.147491      0.514493
  O       1.152960     -0.679988     -0.030780
  H      -0.409587     -1.521051     -1.038748
  H      -0.524821     -1.632647      0.702747
  H      -1.468009      0.666627     -0.975675
  H      -1.594705      0.561723      0.765626
10
Coordinates from ORCA-job neb_EC_cation_cpcm_5_initial_path E   0.000000000000
  C      -0.222078     -0.936901     -0.109603
  C      -0.876257      0.409092     -0.068139
  O       0.180312      1.327811      0.019733
  C       1.366516      0.657594      0.201842
  O       2.389181      1.143958      0.536004
  O       1.155116     -0.677853     -0.045965
  H      -0.414440     -1.522923     -1.037200
  H      -0.517709     -1.630011      0.707083
  H      -1.472875      0.663767     -0.974072
  H      -1.587766      0.565467      0.770317
10
Coordinates from ORCA-job neb_EC_cation_cpcm_5_initial_path E   0.000000000000
  C      -0.222293     -0.937455     -0.110040
  C      -0.876867      0.409316     -0.068717
  O       0.183025      1.329067      0.003992
  C       1.363950      0.656419      0.200094
  O       2.383370      1.140424      0.557515
  O       1.157273     -0.675718     -0.061151
  H      -0.419293     -1.524795     -1.035653
  H      -0.510597     -1.627374      0.711420
  H      -1.477741      0.660906     -0.972468
  H      -1.580827      0.569211      0.775007
