10
 energy: -14.735129172077 gnorm: 0.000294604253 xtb: 6.7.1pre (5071a88)
C           -1.32496670828205        0.22566034202073       -0.31390168383759
S           -0.18624494933410       -0.63743852175449        1.16676505852875
C            1.33065546463356       -0.31591188798721       -0.18587460016905
O           -0.00213281230425        0.49656553974863        2.14478198756563
H           -0.94487677148434        1.20634494262800       -0.57476416740837
H           -1.33240459906483       -0.43756946659202       -1.17351078633286
H           -2.31897283267927        0.30274842527009        0.11640128753853
H            2.23140839901892       -0.62523173878331        0.33577354152140
H            1.15773211119431       -0.94539212851633       -1.05346265659379
H            1.38980268830204        0.73022449396592       -0.46220798081264
