10
 energy: -14.121253401837 gnorm: 0.000685476350 xtb: 6.7.1pre (5071a88)
C           -1.42982022412300        0.23255468763186       -0.27447574980366
S           -0.12443107687769       -0.41420928535327        0.82886950310892
C            1.42573959200274       -0.34979158624905       -0.13680978030170
O           -0.00095518600045        0.45857958699759        1.95966858997378
H           -1.18643203079897        1.26237071659349       -0.53061259292475
H           -1.48377237192150       -0.39483930207199       -1.15829808190981
H           -2.38063988936758        0.21214311050365        0.25366340448276
H            2.23980860380585       -0.73012600022752        0.47641367217116
H            1.31165531600331       -0.96492133429494       -1.02353191125296
H            1.62884725727731        0.68823940647020       -0.39488705354373
