13
C01 DMC C1 m2 donors=1;4 placement=monodentate rel_kj=24.62 from=cached:gfn2-xtb-opt outputs/_week3_scratch
C     -2.4083206622    -0.0789595109     0.1128424184
O     -1.1383807250    -0.7329091629     0.3245558239
C     -0.0690392282     0.0031228809    -0.0585245060
O     -0.0825078197     1.0829212024    -0.5288380034
O      1.0204229406    -0.7544888430     0.2088740873
C      2.2734255471    -0.1267376584    -0.1376095479
H     -3.1741172139    -0.7677248063     0.4576789588
H     -2.5386896988     0.1409397938    -0.9480683469
H     -2.4442900559     0.8517989634     0.6814180751
H      2.3890191255     0.8025680725     0.4227909985
H      2.2945918408     0.0916815001    -1.2066581200
H      3.0570673417    -0.8317258549     0.1245462650
Li    -0.0401804957    -2.1425641275     0.8759223015
