17
C08 DME C1 m1 donors=1;4 placement=esp_min rel_kj=0.00 from=cached:gfn2-xtb-opt outputs/_week3_scratch
C      2.6161066503     0.4583340022    -0.8686971822
O      1.2047585065     0.2816703002    -0.8499108429
C      0.7322179925    -0.1565194331     0.4174326335
C     -0.6735412713    -0.7125180955     0.2464815216
O     -1.4223979919     0.1864471069    -0.5618154568
C     -2.8247249743    -0.0210598270    -0.4465359884
H      2.8865472468     0.8055514133    -1.8624318766
H      2.9233651499     1.1990845108    -0.1263032786
H      3.1207861257    -0.4905129263    -0.6669731599
H      0.7248725584     0.6900638154     1.1156752814
H      1.3858325092    -0.9429131708     0.8116915100
H     -0.6383014607    -1.6959701291    -0.2391704788
H     -1.1431654814    -0.8139867207     1.2313856240
H     -3.0923890381    -1.0372445410    -0.7470928773
H     -3.1514834949     0.1524968813     0.5827225673
H     -3.3132977537     0.6934119702    -1.1038770252
Li    -0.2450456658     0.8778491396    -1.7308010617
