11
C15 DMSO C1 m1 donors=3 placement=esp_min rel_kj=0.00 from=cached:gfn2-xtb-opt outputs/_week3_scratch
C     -1.3326231613     0.2044156841    -0.2177044734
S     -0.1849232720    -0.7607015497     0.8088684905
C      1.3289350378    -0.3453886141    -0.1067385088
O     -0.0651794574     0.0753404212     2.0778780386
H     -1.0029602164     1.2379518116    -0.2730860609
H     -1.3721783999    -0.2357583151    -1.2084457970
H     -2.3191783132     0.1529688459     0.2342195088
H      2.1752770309    -0.7737976803     0.4227343852
H      1.2709134335    -0.7833188963    -1.0975538556
H      1.4396694580     0.7331856675    -0.1730578114
Li     0.0624429964     0.9695317386     3.4357398859
