11
C04 EC C1 m1 donors=4 placement=bidentate rel_kj=0.00 from=cached:gfn2-xtb-opt outputs/_week3_scratch
C     -0.5300501055    -1.0496235147    -0.1496735156
C     -0.9097137232     0.4425027943    -0.0660503390
O      0.3524019671     1.0871740300     0.1331071596
C      1.3009815345     0.1952759271     0.1645712003
O      2.4790127953     0.4857778043     0.3232361719
O      0.8915025991    -1.0319570790     0.0128663973
H     -0.7599852597    -1.5055377079    -1.1154785603
H     -0.9600440570    -1.6554068255     0.6513795782
H     -1.3536077833     0.8326718907    -0.9849292863
H     -1.5557241444     0.6823998196     0.7817356763
Li     4.0764003515     0.8807269171     0.5386384517
