16
C14 SL C1 m1 donors=0;2 placement=bidentate rel_kj=0.00 from=cached:gfn2-xtb-opt outputs/_week3_scratch
O      2.1015962273     1.1160588811     0.9675590321
S      1.1549570510     0.8093452214    -0.0982326009
O      1.6378405356     1.5043804154    -1.2856079764
C      0.9443028600    -0.9692607728    -0.3693077459
C     -0.4238086060    -1.2104032246     0.2430006477
C     -1.3017204054     0.0012246704    -0.0962381043
C     -0.5485247525     1.2466057586     0.3356444929
H      0.9606677519    -1.1336973786    -1.4441216550
H      1.7517404173    -1.5071197772     0.1169441562
H     -0.8721172004    -2.1250937489    -0.1438232654
H     -0.3339210950    -1.3078713673     1.3261989352
H     -1.4857742567     0.0327049045    -1.1714271568
H     -2.2635261816    -0.0722340164     0.4105217601
H     -0.8364768886     2.1484973130    -0.1947928989
H     -0.5748332831     1.4040763721     1.4113038293
Li     3.0831089569     2.1605122306    -0.2622256022
