18
C17 TMP C1 m2 donors=1;4;6 placement=monodentate rel_kj=14.74 from=cached:gfn2-xtb-opt outputs/_week3_scratch
C      2.4190064981    -1.1848352124    -0.2416003619
O      1.5376234201    -0.3988937996     0.5851036617
P      0.1301753683     0.0687405449    -0.0535111457
O     -0.0095817695     0.2141878124    -1.4832003816
O     -0.8125299570    -0.9547315314     0.7371599205
C     -2.0289147840    -1.4171191317     0.1220571070
O     -0.0513762099     1.3562487944     0.9052177307
C     -0.1551514969     2.6610617028     0.3014056800
H      3.4403788142    -0.9446704599     0.0467909550
H      2.2584816059    -0.9310417288    -1.2904365296
H      2.2298478881    -2.2468455123    -0.0876388929
H     -2.1315714464    -2.4757874326     0.3533507202
H     -1.9737457985    -1.2735794756    -0.9574844611
H     -2.8770192721    -0.8659332817     0.5265012940
H      0.7665712661     3.2158562145     0.4739639709
H     -0.9920754174     3.1827263610     0.7634941763
H     -0.3271099941     2.5574286962    -0.7706232026
Li     0.5567117941     0.0172321617     2.2818332899
