18
C17 TMP C1 m1 donors=3 placement=bidentate rel_kj=0.00 from=cached:gfn2-xtb-opt outputs/_week3_scratch
C      2.3708569226    -1.1841177236     0.2008936838
O      1.4749877315    -0.1010176335     0.4625228913
P      0.0141389033    -0.0873293682    -0.0902301045
O     -0.0318288932    -0.1208059601    -1.5976378530
O     -0.7089394933    -1.3126514342     0.5545671901
C     -2.0990855164    -1.5693673082     0.3382311921
O     -0.6681274488     1.1864797896     0.5010987363
C     -0.2074269593     2.5056372078     0.1954153796
H      3.3361681885    -0.8746604699     0.5979516070
H      2.4459673749    -1.3687795062    -0.8728814382
H      2.0300425249    -2.0847604885     0.7099463760
H     -2.2938051736    -2.5455894783     0.7789686724
H     -2.3243051431    -1.5853799366    -0.7299859671
H     -2.7019275643    -0.8099226935     0.8342406451
H      0.7614945781     2.6819062443     0.6608624161
H     -0.9500723454     3.1836998281     0.6121092801
H     -0.1330914388     2.6450215154    -0.8851726239
Li    -0.0726537148    -0.1958399833    -3.1994797483
