15
 energy: -24.979297892927 gnorm: 0.000686981393 xtb: 6.7.1pre (5071a88)
C           -1.55017199177555        0.74498750860453        0.79071675617629
C           -1.53345895165277       -0.71158719779072        0.32705474428501
O           -0.37212040152989       -1.40659942303120        0.74729390271679
C            0.74140016502076       -1.30420959890050       -0.12683747950630
O            0.58821334624559       -1.44007045341105       -1.38075263205870
O            1.54551662692305       -0.13173948508139        0.35892342496333
C            2.17018233614006        0.59222759736557       -0.64114833683625
H           -0.64106620876888        1.23088804396885        0.44866283675564
H           -2.41745889578133        1.26972020296361        0.38610290297009
H           -1.57502401715718        0.79297676714043        1.87823966947781
H           -2.39968971544885       -1.25133680247930        0.73901310877400
H           -1.57783152077838       -0.75537537753248       -0.77167570231185
H            3.26693709500229        0.51729907742370       -0.55481393203888
H            1.86232566812419        0.19420875834521       -1.61899398640133
H            1.89224644543771        1.65861036241454       -0.58178527696472
