15
Coordinates from ORCA-job SL_cation_opt E -705.398666407245
  O       2.082158      1.067277      1.082183
  S       1.230803      0.862343     -0.104423
  O       1.572386      1.494080     -1.392466
  C       0.948536     -0.946843     -0.362060
  C      -0.425238     -1.214172      0.244740
  C      -1.305891      0.000856     -0.097278
  C      -0.526914      1.242263      0.326116
  H       0.965626     -1.109181     -1.444084
  H       1.774204     -1.477863      0.116901
  H      -0.851667     -2.143881     -0.144869
  H      -0.341141     -1.317361      1.333440
  H      -1.496748      0.028231     -1.176968
  H      -2.274019     -0.046246      0.411029
  H      -0.801221      2.158978     -0.200739
  H      -0.550873      1.401520      1.408478
15
Coordinates from ORCA-job SL_cation_opt E -705.402771054492
  O       2.070645      1.052896      1.090143
  S       1.226701      0.860948     -0.106316
  O       1.545582      1.486283     -1.405513
  C       0.951637     -0.973262     -0.367109
  C      -0.420841     -1.204220      0.256238
  C      -1.295368      0.002134     -0.110789
  C      -0.549855      1.254814      0.336568
  H       0.971036     -1.112577     -1.453865
  H       1.784690     -1.497893      0.110558
  H      -0.836393     -2.142067     -0.135841
  H      -0.339006     -1.302936      1.344913
  H      -1.477319      0.028048     -1.191440
  H      -2.270119     -0.031704      0.393760
  H      -0.818086      2.179220     -0.183984
  H      -0.543304      1.400317      1.422676
15
Coordinates from ORCA-job SL_cation_opt E -705.405475994542
  O       2.062441      1.037750      1.102008
  S       1.234193      0.867567     -0.109532
  O       1.516667      1.480808     -1.423624
  C       0.951596     -1.007571     -0.371359
  C      -0.418954     -1.190503      0.269398
  C      -1.282517     -0.000267     -0.126211
  C      -0.581752      1.266204      0.348418
  H       0.975051     -1.110229     -1.461036
  H       1.790079     -1.522560      0.105363
  H      -0.817127     -2.138145     -0.126959
  H      -0.338823     -1.286867      1.356880
  H      -1.456015      0.026506     -1.206914
  H      -2.263819     -0.013560      0.374461
  H      -0.842205      2.195572     -0.165219
  H      -0.528814      1.395298      1.434328
15
Coordinates from ORCA-job SL_cation_opt E -705.405860670861
  O       2.067453      1.037327      1.105195
  S       1.245950      0.874564     -0.110024
  O       1.519207      1.484567     -1.425785
  C       0.948459     -1.016431     -0.372245
  C      -0.419927     -1.188381      0.271917
  C      -1.281736     -0.002424     -0.128889
  C      -0.590974      1.265710      0.349618
  H       0.971397     -1.104539     -1.462865
  H       1.787982     -1.529532      0.103666
  H      -0.815847     -2.139478     -0.120111
  H      -0.335839     -1.282160      1.359196
  H      -1.454282      0.027029     -1.209562
  H      -2.265085     -0.012561      0.369272
  H      -0.848752      2.195117     -0.164439
  H      -0.528006      1.391192      1.435055
15
Coordinates from ORCA-job SL_cation_opt E -705.406133943779
  O       2.078000      1.041181      1.106643
  S       1.262584      0.884086     -0.109702
  O       1.532013      1.493149     -1.423318
  C       0.942545     -1.023867     -0.373228
  C      -0.421065     -1.188808      0.273097
  C      -1.283337     -0.004517     -0.129654
  C      -0.599663      1.262694      0.348907
  H       0.963039     -1.095723     -1.464923
  H       1.783555     -1.535478      0.100698
  H      -0.819458     -2.143114     -0.108672
  H      -0.330331     -1.277558      1.360530
  H      -1.455192      0.027641     -1.210541
  H      -2.269169     -0.016863      0.363764
  H      -0.853112      2.191498     -0.167645
  H      -0.530407      1.385679      1.434047
15
Coordinates from ORCA-job SL_cation_opt E -705.406216396236
  O       2.085030      1.045432      1.105808
  S       1.270569      0.888657     -0.108945
  O       1.543315      1.499763     -1.418924
  C       0.938425     -1.026624     -0.374135
  C      -0.421138     -1.190340      0.273332
  C      -1.284997     -0.004968     -0.129218
  C      -0.603600      1.260444      0.347962
  H       0.956324     -1.090577     -1.466431
  H       1.781274     -1.537279      0.097332
  H      -0.824309     -2.145529     -0.100264
  H      -0.327548     -1.274827      1.361194
  H      -1.455453      0.026524     -1.210585
  H      -2.272428     -0.022567      0.360224
  H      -0.853106      2.189162     -0.170445
  H      -0.532356      1.382729      1.433095
15
Coordinates from ORCA-job SL_cation_opt E -705.406240156259
  O       2.088046      1.048264      1.104755
  S       1.272548      0.889847     -0.108361
  O       1.549974      1.503271     -1.415680
  C       0.936442     -1.027598     -0.374813
  C      -0.420733     -1.191376      0.273537
  C      -1.285910     -0.004743     -0.128843
  C      -0.605391      1.259518      0.347514
  H       0.952690     -1.088455     -1.467395
  H       1.781158     -1.537220      0.094491
  H      -0.827855     -2.146298     -0.095862
  H      -0.327384     -1.273485      1.361781
  H      -1.455027      0.024620     -1.210615
  H      -2.274057     -0.026775      0.358539
  H      -0.851731      2.188642     -0.171682
  H      -0.532768      1.381790      1.432634
15
Coordinates from ORCA-job SL_cation_opt E -705.406245456656
  O       2.088237      1.049257      1.104522
  S       1.272012      0.889551     -0.108114
  O       1.552357      1.504106     -1.414468
  C       0.935998     -1.027944     -0.375126
  C      -0.420355     -1.191624      0.273787
  C      -1.286147     -0.004518     -0.128751
  C      -0.606146      1.259480      0.347377
  H       0.951712     -1.088057     -1.467806
  H       1.781979     -1.536728      0.092915
  H      -0.829303     -2.146044     -0.094858
  H      -0.328154     -1.273255      1.362183
  H      -1.454823      0.023283     -1.210641
  H      -2.274272     -0.028570      0.358509
  H      -0.850692      2.189033     -0.171952
  H      -0.532402      1.382032      1.432424
15
Coordinates from ORCA-job SL_cation_opt E -705.406246510162
  O       2.087636      1.049378      1.104852
  S       1.271452      0.889164     -0.108051
  O       1.553071      1.503941     -1.414302
  C       0.936039     -1.028090     -0.375219
  C      -0.420163     -1.191572      0.273950
  C      -1.286172     -0.004475     -0.128736
  C      -0.606493      1.259653      0.347265
  H       0.951711     -1.088089     -1.467917
  H       1.782653     -1.536394      0.092240
  H      -0.829616     -2.145647     -0.095161
  H      -0.328649     -1.273506      1.362346
  H      -1.455087      0.022724     -1.210570
  H      -2.274000     -0.029065      0.359164
  H      -0.850243      2.189418     -0.172095
  H      -0.532140      1.382561      1.432233
15
Coordinates from ORCA-job SL_cation_opt E -705.406246717995
  O       2.087138      1.049296      1.105311
  S       1.271381      0.889016     -0.108027
  O       1.553562      1.503742     -1.414304
  C       0.936073     -1.028130     -0.375278
  C      -0.420094     -1.191529      0.274021
  C      -1.286202     -0.004539     -0.128683
  C      -0.606668      1.259763      0.347116
  H       0.951730     -1.088056     -1.467979
  H       1.782945     -1.536269      0.091899
  H      -0.829615     -2.145450     -0.095491
  H      -0.328697     -1.273748      1.362379
  H      -1.455522      0.022555     -1.210433
  H      -2.273762     -0.029197      0.359803
  H      -0.850107      2.189549     -0.172366
  H      -0.532161      1.382998      1.432032
