15
Coordinates from ORCA-job SL_cation_opt E -705.406246717995
  O           2.08713805968930      1.04929612428856      1.10531142739404
  S           1.27138099044387      0.88901577464843     -0.10802702735564
  O           1.55356225936694      1.50374156927081     -1.41430435113269
  C           0.93607306658495     -1.02812951493574     -0.37527782640563
  C          -0.42009447600950     -1.19152941394671      0.27402125953328
  C          -1.28620206362104     -0.00453851014519     -0.12868327144024
  C          -0.60666765221374      1.25976343605758      0.34711608083292
  H           0.95173009466429     -1.08805617387973     -1.46797897621575
  H           1.78294532167198     -1.53626944231129      0.09189881309010
  H          -0.82961535979765     -2.14544991585530     -0.09549135245584
  H          -0.32869700445083     -1.27374773553920      1.36237934654762
  H          -1.45552209873898      0.02255497881662     -1.21043279065428
  H          -2.27376234124835     -0.02919725788337      0.35980304722227
  H          -0.85010661807529      2.18954916415634     -0.17236594967460
  H          -0.53216117826595      1.38299791725818      1.43203157071442
