13
Coordinates from ORCA-job DMC_m1_cation_opt E -350.901175702280
  C      -2.221201     -0.072356      0.099106
  O      -0.968955     -0.724515      0.311069
  C       0.132465     -0.122020     -0.015540
  O       0.184294      1.013773     -0.514105
  O       1.173300     -0.852102      0.242588
  C       2.477774     -0.350049     -0.052048
  H      -2.970959     -0.777715      0.450264
  H      -2.371525      0.139377     -0.962644
  H      -2.276573      0.854305      0.676146
  H       2.677788      0.561411      0.516827
  H       2.582807     -0.153513     -1.121965
  H       3.160466     -1.139745      0.252891
  Li      0.259362      2.529648     -1.179679
13
Coordinates from ORCA-job DMC_m1_cation_opt E -350.902151214893
  C      -2.229603     -0.070838      0.099022
  O      -0.969603     -0.735022      0.315493
  C       0.132295     -0.124147     -0.015182
  O       0.184137      1.016053     -0.515363
  O       1.173130     -0.862359      0.246761
  C       2.486198     -0.349571     -0.052664
  H      -2.984448     -0.772496      0.449150
  H      -2.375737      0.138473     -0.964650
  H      -2.280138      0.855549      0.678567
  H       2.681783      0.562113      0.519239
  H       2.587049     -0.154800     -1.124324
  H       3.174272     -1.136392      0.250883
  Li      0.259708      2.539937     -1.184024
13
Coordinates from ORCA-job DMC_m1_cation_opt E -350.902812939394
  C      -2.232566     -0.066087      0.096881
  O      -0.969655     -0.751589      0.323882
  C       0.131846     -0.130907     -0.010030
  O       0.183808      1.010076     -0.511993
  O       1.171644     -0.878567      0.254666
  C       2.489013     -0.344865     -0.055107
  H      -2.994360     -0.761786      0.444001
  H      -2.364507      0.137684     -0.969061
  H      -2.270389      0.857598      0.680506
  H       2.672202      0.565196      0.522396
  H       2.575340     -0.152973     -1.128008
  H       3.184796     -1.126646      0.244223
  Li      0.261871      2.549366     -1.189448
13
Coordinates from ORCA-job DMC_m1_cation_opt E -350.903034830849
  C      -2.232932     -0.063523      0.096615
  O      -0.970379     -0.758205      0.324891
  C       0.131169     -0.136542     -0.012985
  O       0.183460      1.003798     -0.511851
  O       1.171351     -0.885205      0.255174
  C       2.489012     -0.341795     -0.055577
  H      -2.995563     -0.757320      0.445378
  H      -2.360038      0.136299     -0.970054
  H      -2.261638      0.858578      0.682135
  H       2.663073      0.567220      0.525257
  H       2.569944     -0.152028     -1.128678
  H       3.186434     -1.121743      0.244288
  Li      0.265150      2.556965     -1.191686
13
Coordinates from ORCA-job DMC_m1_cation_opt E -350.903236483950
  C      -2.233649     -0.063644      0.094617
  O      -0.970891     -0.758224      0.332105
  C       0.131339     -0.132828      0.001226
  O       0.183359      1.001250     -0.504276
  O       1.171697     -0.885339      0.261510
  C       2.488404     -0.340775     -0.057988
  H      -2.994479     -0.761649      0.438393
  H      -2.349307      0.133419     -0.973258
  H      -2.263481      0.855742      0.683245
  H       2.663266      0.564410      0.527480
  H       2.557223     -0.150205     -1.131183
  H       3.184074     -1.124590      0.235116
  Li      0.271489      2.568935     -1.204079
13
Coordinates from ORCA-job DMC_m1_cation_opt E -350.903348805592
  C      -2.233902     -0.064646      0.098787
  O      -0.971782     -0.759530      0.322709
  C       0.129532     -0.141301     -0.020856
  O       0.182137      0.996247     -0.513730
  O       1.171210     -0.886574      0.251456
  C       2.487660     -0.340449     -0.054340
  H      -2.990341     -0.761983      0.453124
  H      -2.360531      0.129784     -0.968209
  H      -2.254815      0.855679      0.686059
  H       2.653321      0.566107      0.531441
  H       2.566631     -0.152323     -1.127143
  H       3.180583     -1.122921      0.248261
  Li      0.279341      2.588411     -1.204650
13
Coordinates from ORCA-job DMC_m1_cation_opt E -350.903428087202
  C      -2.233743     -0.068019      0.098600
  O      -0.971262     -0.754968      0.325588
  C       0.129985     -0.135147     -0.011586
  O       0.181834      1.000917     -0.510525
  O       1.171271     -0.881756      0.254276
  C       2.486887     -0.343314     -0.054691
  H      -2.989673     -0.768096      0.448774
  H      -2.360152      0.129601     -0.968189
  H      -2.264006      0.852867      0.685254
  H       2.661749      0.562745      0.529871
  H       2.565967     -0.152163     -1.127316
  H       3.178740     -1.128380      0.243867
  Li      0.281447      2.592214     -1.211015
13
Coordinates from ORCA-job DMC_m1_cation_opt E -350.903451742246
  C      -2.233255     -0.070865      0.099366
  O      -0.970999     -0.753218      0.326081
  C       0.129913     -0.133050     -0.009230
  O       0.181213      1.003541     -0.510136
  O       1.171009     -0.879527      0.254851
  C       2.485703     -0.345366     -0.054207
  H      -2.990035     -0.771012      0.447863
  H      -2.362519      0.129972     -0.966855
  H      -2.269263      0.851199      0.684540
  H       2.666112      0.561572      0.528039
  H       2.567929     -0.152121     -1.126622
  H       3.178441     -1.130277      0.243111
  Li      0.284795      2.595655     -1.213892
13
Coordinates from ORCA-job DMC_m1_cation_opt E -350.903454365199
  C      -2.233143     -0.071472      0.099703
  O      -0.971147     -0.753871      0.326104
  C       0.129681     -0.133472     -0.009569
  O       0.180763      1.003397     -0.510243
  O       1.170892     -0.879844      0.254935
  C       2.485186     -0.345446     -0.054090
  H      -2.990742     -0.770912      0.447901
  H      -2.363193      0.130318     -0.966317
  H      -2.269724      0.850912      0.684473
  H       2.666041      0.562048      0.527304
  H       2.568247     -0.151915     -1.126474
  H       3.179002     -1.129436      0.243225
  Li      0.287181      2.596196     -1.214044
13
Coordinates from ORCA-job DMC_m1_cation_opt E -350.903456335064
  C      -2.233121     -0.072001      0.100025
  O      -0.971415     -0.754929      0.326264
  C       0.129293     -0.134025     -0.009905
  O       0.179997      1.002927     -0.510211
  O       1.170730     -0.880368      0.255130
  C       2.484520     -0.345120     -0.054132
  H      -2.991570     -0.770718      0.447854
  H      -2.363530      0.130644     -0.965829
  H      -2.269834      0.850551      0.684594
  H       2.665322      0.562918      0.526529
  H       2.567925     -0.151510     -1.126531
  H       3.179599     -1.128019      0.243166
  Li      0.291127      2.596154     -1.214044
13
Coordinates from ORCA-job DMC_m1_cation_opt E -350.903458183238
  C      -2.233311     -0.072582      0.100361
  O      -0.971739     -0.755860      0.326416
  C       0.128773     -0.134295     -0.010110
  O       0.178917      1.002595     -0.510114
  O       1.170525     -0.880570      0.255291
  C       2.483802     -0.344521     -0.054324
  H      -2.992215     -0.771020      0.447773
  H      -2.363830      0.130829     -0.965350
  H      -2.270096      0.849913      0.685049
  H       2.664388      0.563961      0.525767
  H       2.567253     -0.151106     -1.126787
  H       3.179862     -1.126528      0.243045
  Li      0.296714      2.595685     -1.214108
13
Coordinates from ORCA-job DMC_m1_cation_opt E -350.903461426306
  C      -2.234031     -0.073730      0.100993
  O      -0.972344     -0.757084      0.326643
  C       0.127672     -0.134296     -0.010253
  O       0.176551      1.002412     -0.509913
  O       1.170074     -0.880272      0.255424
  C       2.482564     -0.343158     -0.054847
  H      -2.993055     -0.772384      0.447691
  H      -2.364539      0.130827     -0.964486
  H      -2.271045      0.848394      0.686232
  H       2.662784      0.565885      0.524558
  H       2.565850     -0.150347     -1.127477
  H       3.179799     -1.124059      0.242716
  Li      0.308763      2.594313     -1.214373
13
Coordinates from ORCA-job DMC_m1_cation_opt E -350.903464849022
  C      -2.235321     -0.075119      0.101738
  O      -0.973019     -0.757841      0.326794
  C       0.126281     -0.133850     -0.010241
  O       0.173510      1.002749     -0.509740
  O       1.169491     -0.879181      0.255241
  C       2.481339     -0.341367     -0.055589
  H      -2.993631     -0.774805      0.447885
  H      -2.365758      0.130296     -0.963542
  H      -2.272697      0.846403      0.687832
  H       2.661198      0.567950      0.523539
  H       2.564306     -0.149369     -1.128412
  H       3.179143     -1.121669      0.242232
  Li      0.324202      2.592304     -1.214827
13
Coordinates from ORCA-job DMC_m1_cation_opt E -350.903467134590
  C      -2.236426     -0.075838      0.102112
  O      -0.973324     -0.757600      0.326782
  C       0.125469     -0.133316     -0.010082
  O       0.171628      1.003424     -0.509708
  O       1.169141     -0.877973      0.254717
  C       2.480986     -0.340261     -0.056082
  H      -2.993555     -0.776694      0.448424
  H      -2.366786      0.129361     -0.963164
  H      -2.273948      0.845311      0.688683
  H       2.660677      0.568748      0.523557
  H       2.563698     -0.148648     -1.128981
  H       3.178288     -1.120983      0.241832
  Li      0.333196      2.590970     -1.215182
13
Coordinates from ORCA-job DMC_m1_cation_opt E -350.903467940375
  C      -2.236889     -0.075845      0.102104
  O      -0.973287     -0.757013      0.326730
  C       0.125378     -0.133145     -0.009920
  O       0.171353      1.003872     -0.509739
  O       1.169084     -0.877426      0.254221
  C       2.481263     -0.340070     -0.056190
  H      -2.993241     -0.777238      0.448997
  H      -2.367244      0.128568     -0.963293
  H      -2.274308      0.845349      0.688556
  H       2.660900      0.568456      0.524168
  H       2.563892     -0.148282     -1.129034
  H       3.177836     -1.121484      0.241606
  Li      0.334308      2.590760     -1.215297
