13
Coordinates from ORCA-job DMC_m2_cation_opt E -350.895032682916
  C      -2.408321     -0.078960      0.112842
  O      -1.138381     -0.732909      0.324556
  C      -0.069039      0.003123     -0.058525
  O      -0.082508      1.082921     -0.528838
  O       1.020423     -0.754489      0.208874
  C       2.273426     -0.126738     -0.137610
  H      -3.174117     -0.767725      0.457679
  H      -2.538690      0.140940     -0.948068
  H      -2.444290      0.851799      0.681418
  H       2.389019      0.802568      0.422791
  H       2.294592      0.091682     -1.206658
  H       3.057067     -0.831726      0.124546
  Li     -0.040180     -2.142564      0.875922
13
Coordinates from ORCA-job DMC_m2_cation_opt E -350.896590411447
  C      -2.434529     -0.080720      0.115147
  O      -1.141200     -0.724254      0.320837
  C      -0.069247      0.023171     -0.067517
  O      -0.083197      1.110267     -0.541532
  O       1.022999     -0.746003      0.205135
  C       2.299785     -0.129101     -0.138060
  H      -3.183924     -0.787984      0.466709
  H      -2.571841      0.134509     -0.945916
  H      -2.477311      0.846732      0.688785
  H       2.422488      0.796834      0.426370
  H       2.327622      0.084279     -1.207996
  H       3.067675     -0.851998      0.132539
  Li     -0.040320     -2.137810      0.874430
13
Coordinates from ORCA-job DMC_m2_cation_opt E -350.897311445797
  C      -2.452051     -0.080918      0.116320
  O      -1.139030     -0.714129      0.316096
  C      -0.069390      0.044470     -0.077351
  O      -0.083605      1.133710     -0.552905
  O       1.020558     -0.735990      0.201016
  C       2.317356     -0.129681     -0.138700
  H      -3.180498     -0.807115      0.474545
  H      -2.590552      0.127292     -0.945337
  H      -2.495638      0.841705      0.696486
  H       2.441396      0.791387      0.432125
  H       2.345864      0.076594     -1.209365
  H       3.064989     -0.870910      0.140545
  Li     -0.040399     -2.138494      0.875456
13
Coordinates from ORCA-job DMC_m2_cation_opt E -350.897601632835
  C      -2.457768     -0.080629      0.116554
  O      -1.134809     -0.707042      0.312640
  C      -0.069456      0.057425     -0.083348
  O      -0.083718      1.145342     -0.558888
  O       1.016150     -0.728912      0.198311
  C       2.323077     -0.129467     -0.139016
  H      -3.173491     -0.817079      0.478347
  H      -2.595112      0.123094     -0.945667
  H      -2.499914      0.839110      0.700573
  H       2.446182      0.788446      0.436232
  H       2.349878      0.072729     -1.210048
  H       3.058335     -0.880801      0.144586
  Li     -0.040355     -2.144292      0.878653
13
Coordinates from ORCA-job DMC_m2_cation_opt E -350.897798508271
  C      -2.457976     -0.080530      0.116541
  O      -1.130295     -0.701427      0.309804
  C      -0.069501      0.065591     -0.087274
  O      -0.083690      1.151472     -0.562415
  O       1.011490     -0.723258      0.196222
  C       2.323288     -0.129293     -0.138957
  H      -3.167101     -0.821735      0.480162
  H      -2.594927      0.120885     -0.945949
  H      -2.499389      0.837942      0.702204
  H       2.446149      0.786808      0.438826
  H       2.349080      0.071444     -1.210064
  H       3.052090     -0.885598      0.146224
  Li     -0.040218     -2.154378      0.883607
13
Coordinates from ORCA-job DMC_m2_cation_opt E -350.897963665177
  C      -2.455108     -0.080790      0.116484
  O      -1.126924     -0.697034      0.307587
  C      -0.069541      0.069828     -0.089415
  O      -0.083600      1.154299     -0.564393
  O       1.008006     -0.718817      0.194584
  C       2.320429     -0.129405     -0.138583
  H      -3.163065     -0.822391      0.480625
  H      -2.593721      0.120460     -0.945870
  H      -2.497835      0.837952      0.701703
  H       2.445048      0.786183      0.439727
  H       2.347260      0.072378     -1.209508
  H       3.048053     -0.886619      0.145976
  Li     -0.040002     -2.168122      0.890013
13
Coordinates from ORCA-job DMC_m2_cation_opt E -350.898089375146
  C      -2.451531     -0.081155      0.116440
  O      -1.126182     -0.694441      0.306341
  C      -0.069586      0.070263     -0.089830
  O      -0.083535      1.154735     -0.565096
  O       1.007197     -0.716204      0.193515
  C       2.316856     -0.129632     -0.138118
  H      -3.162518     -0.820040      0.480226
  H      -2.593820      0.121643     -0.945406
  H      -2.497561      0.839049      0.699586
  H       2.445099      0.786606      0.438871
  H       2.346926      0.074956     -1.208691
  H       3.047417     -0.884754      0.144512
  Li     -0.039761     -2.183105      0.896580
13
Coordinates from ORCA-job DMC_m2_cation_opt E -350.898142666170
  C      -2.450214     -0.080998      0.116309
  O      -1.128068     -0.694482      0.306489
  C      -0.069614      0.068128     -0.088905
  O      -0.083560      1.153629     -0.564637
  O       1.009085     -0.716269      0.193378
  C       2.315529     -0.129444     -0.138053
  H      -3.164816     -0.817033      0.479581
  H      -2.595406      0.123373     -0.945103
  H      -2.498921      0.840562      0.697560
  H       2.446517      0.787785      0.437222
  H       2.348471      0.077306     -1.208386
  H       3.049627     -0.882044      0.143155
  Li     -0.039629     -2.192592      0.900323
13
Coordinates from ORCA-job DMC_m2_cation_opt E -350.898155988519
  C      -2.450571     -0.080293      0.116052
  O      -1.129917     -0.695735      0.307194
  C      -0.069610      0.066015     -0.087907
  O      -0.083607      1.152251     -0.563821
  O       1.010970     -0.717558      0.193744
  C       2.315862     -0.128769     -0.138351
  H      -3.166841     -0.815049      0.479173
  H      -2.596268      0.124485     -0.945287
  H      -2.499626      0.841773      0.696605
  H       2.447140      0.788982      0.436164
  H       2.349461      0.078424     -1.208655
  H       3.051625     -0.880117      0.142563
  Li     -0.039617     -2.196486      0.901456
13
Coordinates from ORCA-job DMC_m2_cation_opt E -350.898160295109
  C      -2.450893     -0.079414      0.115721
  O      -1.130934     -0.697123      0.307923
  C      -0.069586      0.064321     -0.087045
  O      -0.083627      1.150839     -0.562899
  O       1.012029     -0.718980      0.194222
  C       2.316159     -0.127918     -0.138740
  H      -3.167956     -0.813487      0.478843
  H      -2.595765      0.125144     -0.945753
  H      -2.498972      0.842787      0.696105
  H       2.446372      0.790089      0.435573
  H       2.349088      0.078944     -1.209113
  H       3.052741     -0.878517      0.142271
  Li     -0.039655     -2.198764      0.901821
13
Coordinates from ORCA-job DMC_m2_cation_opt E -350.898162327415
  C      -2.450837     -0.078519      0.115366
  O      -1.131389     -0.698441      0.308608
  C      -0.069551      0.062808     -0.086224
  O      -0.083618      1.149387     -0.561892
  O       1.012529     -0.720333      0.194711
  C       2.316086     -0.127034     -0.139120
  H      -3.168562     -0.811905      0.478540
  H      -2.594371      0.125568     -0.946327
  H      -2.497387      0.843758      0.695656
  H       2.444665      0.791169      0.435149
  H       2.347798      0.079255     -1.209590
  H       3.053364     -0.876874      0.142051
  Li     -0.039726     -2.200917      0.902001
13
Coordinates from ORCA-job DMC_m2_cation_opt E -350.898162883601
  C      -2.450554     -0.078068      0.115179
  O      -1.131358     -0.699076      0.308963
  C      -0.069522      0.062054     -0.085747
  O      -0.083591      1.148606     -0.561252
  O       1.012529     -0.720994      0.194973
  C       2.315803     -0.126573     -0.139299
  H      -3.168711     -0.810941      0.478435
  H      -2.593220      0.125635     -0.946675
  H      -2.496085      0.844311      0.695331
  H       2.443286      0.791774      0.434927
  H       2.346685      0.079313     -1.209841
  H       3.053537     -0.875879      0.141977
  Li     -0.039799     -2.202238      0.901960
