13
Coordinates from ORCA-job DMC_m2_cation_opt E -350.898162883601
  C          -2.45055390197933     -0.07806779893614      0.11517902767404
  O          -1.13135762291375     -0.69907629362030      0.30896282418290
  C          -0.06952186828415      0.06205395474878     -0.08574690645979
  O          -0.08359086328624      1.14860601193561     -0.56125190941825
  O           1.01252940417280     -0.72099377656761      0.19497295644803
  C           2.31580278150208     -0.12657329389284     -0.13929913150403
  H          -3.16871127787119     -0.81094079713034      0.47843487940989
  H          -2.59322006483213      0.12563475684759     -0.94667530845104
  H          -2.49608462189685      0.84431132202617      0.69533070537833
  H           2.44328598844973      0.79177356829130      0.43492719882383
  H           2.34668490782587      0.07931256173737     -1.20984105642789
  H           3.05353676473825     -0.87587943968775      0.14197664950503
  Li         -0.03979872932509     -2.20223832655184      0.90196047513895
