13
Coordinates from ORCA-job DMC_m1_dication_opt E -350.354733837123
  C      -2.236889     -0.075845      0.102104
  O      -0.973287     -0.757013      0.326730
  C       0.125378     -0.133145     -0.009920
  O       0.171353      1.003872     -0.509739
  O       1.169084     -0.877426      0.254221
  C       2.481263     -0.340070     -0.056190
  H      -2.993241     -0.777238      0.448997
  H      -2.367244      0.128568     -0.963293
  H      -2.274308      0.845349      0.688556
  H       2.660900      0.568456      0.524168
  H       2.563892     -0.148282     -1.129034
  H       3.177836     -1.121484      0.241606
  Li      0.334308      2.590760     -1.215297
13
Coordinates from ORCA-job DMC_m1_dication_opt E -350.361615436571
  C      -2.260797     -0.112723      0.119524
  O      -0.964548     -0.712367      0.306765
  C       0.129516     -0.049928     -0.046840
  O       0.172601      1.075195     -0.541337
  O       1.164629     -0.832024      0.234777
  C       2.504328     -0.381645     -0.039414
  H      -2.974949     -0.853569      0.481236
  H      -2.408623      0.107457     -0.955468
  H      -2.315253      0.826546      0.703556
  H       2.704089      0.541456      0.537844
  H       2.606906     -0.177871     -1.122508
  H       3.153405     -1.199202      0.276969
  Li      0.327739      2.675176     -1.252196
13
Coordinates from ORCA-job DMC_m1_dication_opt E -350.364349116946
  C      -2.264590     -0.147782      0.134875
  O      -0.951256     -0.680051      0.292403
  C       0.133515      0.019359     -0.076316
  O       0.174970      1.128017     -0.564863
  O       1.154002     -0.798361      0.221698
  C       2.507057     -0.418454     -0.023595
  H      -2.945893     -0.913969      0.504236
  H      -2.426513      0.097469     -0.938500
  H      -2.335524      0.806170      0.704165
  H       2.724721      0.516655      0.538190
  H       2.627242     -0.194069     -1.106268
  H       3.119032     -1.258703      0.303977
  Li      0.322282      2.750221     -1.287093
13
Coordinates from ORCA-job DMC_m1_dication_opt E -350.364931505385
  C      -2.264429     -0.156428      0.139037
  O      -0.950001     -0.678703      0.290857
  C       0.134593      0.027920     -0.082766
  O       0.175647      1.134218     -0.569565
  O       1.152854     -0.796696      0.220592
  C       2.507433     -0.427841     -0.019051
  H      -2.943363     -0.923987      0.508317
  H      -2.432740      0.102521     -0.930166
  H      -2.341565      0.802588      0.699193
  H       2.731504      0.511509      0.532896
  H       2.635911     -0.192861     -1.098344
  H       3.115383     -1.269703      0.309907
  Li      0.317820      2.773966     -1.297998
13
Coordinates from ORCA-job DMC_m1_dication_opt E -350.365783810092
  C      -2.260229     -0.165489      0.141521
  O      -0.950833     -0.684977      0.298163
  C       0.136899      0.028130     -0.074706
  O       0.176891      1.130991     -0.566066
  O       1.153815     -0.802744      0.228584
  C       2.505485     -0.438496     -0.015231
  H      -2.945841     -0.929783      0.503219
  H      -2.430974      0.117993     -0.920575
  H      -2.350133      0.800575      0.687135
  H       2.742751      0.506060      0.520768
  H       2.640014     -0.184366     -1.088550
  H       3.116353     -1.279297      0.308582
  Li      0.304848      2.807904     -1.319935
13
Coordinates from ORCA-job DMC_m1_dication_opt E -350.366304753685
  C      -2.253358     -0.165531      0.144410
  O      -0.953307     -0.699540      0.295870
  C       0.137207      0.005005     -0.088382
  O       0.177486      1.112587     -0.571051
  O       1.154855     -0.817729      0.226427
  C       2.501742     -0.440029     -0.010878
  H      -2.949558     -0.919315      0.507566
  H      -2.431806      0.131373     -0.912699
  H      -2.337511      0.804889      0.683847
  H       2.733847      0.508938      0.519327
  H       2.646345     -0.177144     -1.080402
  H       3.121179     -1.273236      0.315709
  Li      0.291924      2.836234     -1.326835
13
Coordinates from ORCA-job DMC_m1_dication_opt E -350.366682710975
  C      -2.246010     -0.165975      0.138165
  O      -0.954426     -0.703710      0.317745
  C       0.140730      0.001566     -0.045511
  O       0.180789      1.101613     -0.548872
  O       1.157161     -0.822730      0.248991
  C       2.496653     -0.441812     -0.015484
  H      -2.954567     -0.917882      0.481374
  H      -2.404352      0.140038     -0.919786
  H      -2.345928      0.802055      0.680655
  H       2.744098      0.502572      0.516482
  H       2.622316     -0.171131     -1.085408
  H       3.124700     -1.275872      0.292431
  Li      0.277882      2.857771     -1.357871
13
Coordinates from ORCA-job DMC_m1_dication_opt E -350.366960429022
  C      -2.245438     -0.162461      0.139954
  O      -0.954886     -0.707049      0.311529
  C       0.139931     -0.011758     -0.062981
  O       0.182167      1.092737     -0.557916
  O       1.156571     -0.827131      0.242567
  C       2.496560     -0.438458     -0.013601
  H      -2.954920     -0.911717      0.488060
  H      -2.407201      0.137321     -0.919267
  H      -2.335079      0.801352      0.692368
  H       2.732742      0.503154      0.528844
  H       2.624464     -0.174407     -1.084926
  H       3.126480     -1.269751      0.299006
  Li      0.277652      2.874670     -1.360729
13
Coordinates from ORCA-job DMC_m1_dication_opt E -350.367116717615
  C      -2.248471     -0.161456      0.140395
  O      -0.953544     -0.701926      0.311273
  C       0.139899     -0.008866     -0.067525
  O       0.183512      1.094610     -0.563456
  O       1.155852     -0.823029      0.242407
  C       2.499325     -0.438077     -0.013271
  H      -2.953330     -0.916457      0.486252
  H      -2.405521      0.132804     -0.920458
  H      -2.337026      0.793553      0.707908
  H       2.732956      0.496070      0.542893
  H       2.621703     -0.179287     -1.086031
  H       3.124931     -1.273487      0.297869
  Li      0.278760      2.892051     -1.375347
13
Coordinates from ORCA-job DMC_m1_dication_opt E -350.367176697861
  C      -2.251560     -0.161826      0.140430
  O      -0.952196     -0.696742      0.315316
  C       0.140094     -0.002089     -0.066216
  O       0.183872      1.098007     -0.567299
  O       1.155849     -0.818481      0.246685
  C       2.502263     -0.439552     -0.013096
  H      -2.952072     -0.924204      0.479033
  H      -2.400941      0.135028     -0.919751
  H      -2.344498      0.784498      0.721067
  H       2.739266      0.487383      0.553272
  H       2.618013     -0.178728     -1.085313
  H       3.122954     -1.280671      0.292707
  Li      0.278001      2.903879     -1.393925
13
Coordinates from ORCA-job DMC_m1_dication_opt E -350.367214284832
  C      -2.253611     -0.162087      0.140355
  O      -0.951122     -0.692893      0.322615
  C       0.140182      0.002926     -0.063340
  O       0.183763      1.098569     -0.571895
  O       1.156367     -0.815100      0.254294
  C       2.504188     -0.441034     -0.012790
  H      -2.951397     -0.932261      0.466775
  H      -2.393059      0.145446     -0.916816
  H      -2.354288      0.774138      0.735633
  H       2.747900      0.477996      0.563579
  H       2.612600     -0.171159     -1.082610
  H       3.121196     -1.288130      0.283869
  Li      0.276327      2.910093     -1.416760
13
Coordinates from ORCA-job DMC_m1_dication_opt E -350.367291465990
  C      -2.256181     -0.161750      0.139927
  O      -0.949204     -0.684918      0.341567
  C       0.140109      0.009957     -0.057067
  O       0.183302      1.095330     -0.583804
  O       1.157948     -0.808083      0.273873
  C       2.506382     -0.443146     -0.012208
  H      -2.949633     -0.948692      0.434444
  H      -2.372508      0.177537     -0.907327
  H      -2.377847      0.748976      0.770209
  H       2.768241      0.456354      0.587699
  H       2.598504     -0.146019     -1.074360
  H       3.117108     -1.303011      0.260151
  Li      0.272825      2.913967     -1.470195
13
Coordinates from ORCA-job DMC_m1_dication_opt E -350.367470553748
  C      -2.259860     -0.160010      0.138085
  O      -0.945520     -0.666146      0.380531
  C       0.139857      0.023727     -0.044398
  O       0.182538      1.087838     -0.607744
  O       1.161506     -0.791391      0.314053
  C       2.508987     -0.446340     -0.012086
  H      -2.940894     -0.979594      0.367312
  H      -2.334416      0.246263     -0.882627
  H      -2.429956      0.692622      0.836461
  H       2.812115      0.409443      0.633803
  H       2.572357     -0.091287     -1.054279
  H       3.104879     -1.331055      0.210709
  Li      0.267451      2.912433     -1.576910
13
Coordinates from ORCA-job DMC_m1_dication_opt E -350.367640476956
  C      -2.260884     -0.158116      0.135075
  O      -0.943573     -0.651632      0.407282
  C       0.139344      0.032009     -0.035081
  O       0.182245      1.082414     -0.621801
  O       1.164417     -0.778507      0.341351
  C       2.508446     -0.447299     -0.014073
  H      -2.931641     -0.997312      0.325068
  H      -2.313935      0.291108     -0.864280
  H      -2.467550      0.653059      0.873372
  H       2.843289      0.376857      0.659546
  H       2.557309     -0.052425     -1.039551
  H       3.094117     -1.346917      0.177628
  Li      0.267461      2.903263     -1.641627
13
Coordinates from ORCA-job DMC_m1_dication_opt E -350.367981380148
  C      -2.255503     -0.154223      0.121453
  O      -0.943603     -0.627660      0.448694
  C       0.136147      0.035084     -0.016997
  O       0.181791      1.071332     -0.633019
  O       1.171118     -0.756692      0.383067
  C       2.495897     -0.443768     -0.027664
  H      -2.916765     -1.012604      0.280760
  H      -2.297908      0.348802     -0.844972
  H      -2.526830      0.603146      0.899563
  H       2.891310      0.337516      0.672184
  H       2.538984      0.011601     -1.022593
  H       3.077799     -1.355485      0.134334
  Li      0.286609      2.849453     -1.691901
13
Coordinates from ORCA-job DMC_m1_dication_opt E -350.368345327058
  C      -2.257856     -0.150370      0.125881
  O      -0.939911     -0.603091      0.466755
  C       0.136053      0.051038     -0.015181
  O       0.181492      1.073093     -0.652521
  O       1.172132     -0.733087      0.401993
  C       2.497405     -0.442201     -0.024520
  H      -2.897812     -1.031843      0.238900
  H      -2.286229      0.385085     -0.822705
  H      -2.565093      0.555654      0.938006
  H       2.923576      0.297120      0.703229
  H       2.530708      0.040711     -1.006147
  H       3.058108     -1.372813      0.102951
  Li      0.286473      2.837205     -1.753733
13
Coordinates from ORCA-job DMC_m1_dication_opt E -350.368934490987
  C      -2.258426     -0.142599      0.149592
  O      -0.932368     -0.550481      0.453928
  C       0.134708      0.075107     -0.037408
  O       0.179814      1.092722     -0.688430
  O       1.166757     -0.675401      0.392022
  C       2.496037     -0.426340     -0.012666
  H      -2.873830     -1.046774      0.207598
  H      -2.288344      0.386840     -0.817268
  H      -2.597746      0.515315      0.985020
  H       2.955025      0.251997      0.752048
  H       2.525400      0.050679     -1.006012
  H       3.031385     -1.378990      0.073578
  Li      0.300635      2.754428     -1.749094
13
Coordinates from ORCA-job DMC_m1_dication_opt E -350.369757629469
  C      -2.259285     -0.134631      0.145049
  O      -0.928840     -0.498404      0.509165
  C       0.135143      0.106864     -0.014972
  O       0.180309      1.090593     -0.716915
  O       1.175310     -0.626413      0.447208
  C       2.493477     -0.422218     -0.016280
  H      -2.827273     -1.077995      0.134164
  H      -2.288032      0.463187     -0.766896
  H      -2.679815      0.411278      1.025376
  H       3.028689      0.152335      0.787471
  H       2.528778      0.127808     -0.960096
  H       2.980643     -1.408998      0.006761
  Li      0.299941      2.723096     -1.877126
13
Coordinates from ORCA-job DMC_m1_dication_opt E -350.369906892126
  C      -2.258175     -0.131752      0.148937
  O      -0.927619     -0.481681      0.521320
  C       0.136908      0.118637     -0.011752
  O       0.179997      1.092722     -0.727912
  O       1.177226     -0.607610      0.459824
  C       2.494482     -0.418043     -0.012740
  H      -2.812632     -1.085465      0.109660
  H      -2.293807      0.480121     -0.751497
  H      -2.699074      0.386512      1.034320
  H       3.049932      0.119042      0.801070
  H       2.538125      0.146377     -0.945407
  H       2.962560     -1.417355     -0.016378
  Li      0.291120      2.704995     -1.906536
13
Coordinates from ORCA-job DMC_m1_dication_opt E -350.370062137039
  C      -2.253985     -0.126838      0.157064
  O      -0.925803     -0.462087      0.536757
  C       0.141416      0.131870     -0.011000
  O       0.179242      1.092190     -0.745442
  O       1.179382     -0.583549      0.475104
  C       2.497969     -0.409081     -0.002889
  H      -2.793830     -1.090129      0.077192
  H      -2.301303      0.497794     -0.733726
  H      -2.717209      0.363695      1.043858
  H       3.076530      0.065007      0.828512
  H       2.556114      0.176315     -0.919821
  H       2.935598     -1.424935     -0.057711
  Li      0.264922      2.676251     -1.944988
13
Coordinates from ORCA-job DMC_m1_dication_opt E -350.370086537474
  C      -2.251951     -0.123176      0.160503
  O      -0.924199     -0.449331      0.545069
  C       0.142982      0.137775     -0.012607
  O       0.178986      1.089274     -0.757731
  O       1.180086     -0.570356      0.482654
  C       2.498984     -0.403816      0.002344
  H      -2.781576     -1.091114      0.063227
  H      -2.301529      0.510015     -0.724322
  H      -2.727181      0.344818      1.053165
  H       3.088805      0.028667      0.847582
  H       2.562343      0.200593     -0.901547
  H       2.919132     -1.425968     -0.083507
  Li      0.254163      2.659122     -1.971921
13
Coordinates from ORCA-job DMC_m1_dication_opt E -350.370101820509
  C      -2.250203     -0.121412      0.161340
  O      -0.924335     -0.451724      0.545683
  C       0.144560      0.134517     -0.015006
  O       0.179108      1.083727     -0.762407
  O       1.179994     -0.573128      0.482050
  C       2.500794     -0.400957      0.006485
  H      -2.784208     -1.086865      0.065241
  H      -2.298366      0.510619     -0.724857
  H      -2.723659      0.350389      1.053387
  H       3.089336      0.015037      0.859745
  H       2.565233      0.215573     -0.889479
  H       2.918119     -1.422670     -0.099103
  Li      0.242671      2.653395     -1.980169
13
Coordinates from ORCA-job DMC_m1_dication_opt E -350.370115538824
  C      -2.248762     -0.119434      0.161236
  O      -0.924783     -0.455958      0.543121
  C       0.145745      0.129360     -0.019360
  O       0.179202      1.077167     -0.768352
  O       1.179521     -0.578222      0.478192
  C       2.502557     -0.398100      0.010215
  H      -2.789998     -1.081249      0.072670
  H      -2.295419      0.511253     -0.726220
  H      -2.717866      0.357967      1.053677
  H       3.087493      0.002384      0.872866
  H       2.568786      0.233400     -0.875312
  H       2.920094     -1.417571     -0.114318
  Li      0.232474      2.645504     -1.985506
13
Coordinates from ORCA-job DMC_m1_dication_opt E -350.370124952608
  C      -2.248073     -0.117781      0.160947
  O      -0.925435     -0.461370      0.537709
  C       0.146644      0.124088     -0.024653
  O       0.179377      1.071423     -0.774460
  O       1.178808     -0.584231      0.472101
  C       2.504530     -0.395981      0.013168
  H      -2.797160     -1.075889      0.081637
  H      -2.294650      0.512607     -0.726537
  H      -2.710990      0.365123      1.054698
  H       3.083754     -0.006198      0.884246
  H       2.573582      0.248169     -0.862748
  H       2.924337     -1.412750     -0.124564
  Li      0.224321      2.639292     -1.988634
13
Coordinates from ORCA-job DMC_m1_dication_opt E -350.370128416719
  C      -2.248192     -0.117045      0.161241
  O      -0.925708     -0.463362      0.534316
  C       0.146910      0.122307     -0.027413
  O       0.179537      1.069412     -0.777768
  O       1.178438     -0.586192      0.468920
  C       2.505484     -0.395277      0.014094
  H      -2.799658     -1.074152      0.083940
  H      -2.296078      0.515223     -0.724650
  H      -2.708549      0.365533      1.056767
  H       3.081737     -0.008313      0.888311
  H       2.576599      0.252610     -0.858661
  H       2.926282     -1.411347     -0.125899
  Li      0.222245      2.637104     -1.990291
13
Coordinates from ORCA-job DMC_m1_dication_opt E -350.370130773468
  C      -2.248455     -0.116513      0.161866
  O      -0.925816     -0.463941      0.532286
  C       0.146969      0.121697     -0.029016
  O       0.179675      1.068466     -0.779990
  O       1.178244     -0.586642      0.467287
  C       2.505980     -0.395020      0.014327
  H      -2.800078     -1.073644      0.082837
  H      -2.297848      0.518584     -0.721810
  H      -2.708053      0.363128      1.059339
  H       3.080567     -0.007919      0.889564
  H       2.578409      0.253103     -0.857992
  H       2.927133     -1.411198     -0.124103
  Li      0.222318      2.636401     -1.991687
13
Coordinates from ORCA-job DMC_m1_dication_opt E -350.370133349295
  C      -2.248630     -0.115771      0.162733
  O      -0.925963     -0.464871      0.530405
  C       0.147005      0.120568     -0.030790
  O       0.179761      1.066897     -0.782417
  O       1.178043     -0.587655      0.465592
  C       2.506420     -0.394730      0.014596
  H      -2.800542     -1.072691      0.080696
  H      -2.299364      0.522615     -0.718463
  H      -2.707401      0.360447      1.062375
  H       3.079007     -0.006350      0.890585
  H       2.579665      0.253050     -0.857856
  H       2.928453     -1.410826     -0.121633
  Li      0.222592      2.635821     -1.992913
13
Coordinates from ORCA-job DMC_m1_dication_opt E -350.370137394441
  C      -2.248745     -0.114438      0.164184
  O      -0.926089     -0.465293      0.529055
  C       0.147023      0.119258     -0.032899
  O       0.179785      1.064302     -0.786184
  O       1.177853     -0.588458      0.464204
  C       2.506786     -0.394232      0.015014
  H      -2.800218     -1.071322      0.075621
  H      -2.300850      0.529270     -0.713046
  H      -2.707669      0.354956      1.067195
  H       3.077464     -0.004436      0.891670
  H       2.580578      0.252875     -0.857864
  H       2.929707     -1.410267     -0.118634
  Li      0.223419      2.634286     -1.995407
13
Coordinates from ORCA-job DMC_m1_dication_opt E -350.370143669520
  C      -2.248758     -0.112510      0.166126
  O      -0.926266     -0.465437      0.528466
  C       0.146968      0.117537     -0.035233
  O       0.179659      1.060376     -0.791234
  O       1.177631     -0.589483      0.463119
  C       2.506952     -0.393689      0.015516
  H      -2.799429     -1.069269      0.067879
  H      -2.301813      0.538114     -0.705918
  H      -2.708746      0.347192      1.073350
  H       3.075681     -0.001090      0.892300
  H       2.580669      0.252034     -0.858448
  H       2.931457     -1.409402     -0.114861
  Li      0.225040      2.632128     -1.998153
13
Coordinates from ORCA-job DMC_m1_dication_opt E -350.370152453273
  C      -2.248661     -0.110005      0.168453
  O      -0.926430     -0.464464      0.529494
  C       0.146860      0.115952     -0.037462
  O       0.179307      1.055142     -0.797813
  O       1.177410     -0.589942      0.463068
  C       2.506813     -0.393185      0.016137
  H      -2.797648     -1.066816      0.057447
  H      -2.301883      0.548734     -0.697412
  H      -2.711492      0.336751      1.080390
  H       3.074314      0.002990      0.892225
  H       2.579838      0.250497     -0.859479
  H       2.933126     -1.408396     -0.111142
  Li      0.227492      2.629244     -2.000997
13
Coordinates from ORCA-job DMC_m1_dication_opt E -350.370161982037
  C      -2.248444     -0.106933      0.171131
  O      -0.926526     -0.461638      0.532409
  C       0.146801      0.115005     -0.039546
  O       0.178729      1.048537     -0.806613
  O       1.177192     -0.588869      0.464566
  C       2.506403     -0.392795      0.017078
  H      -2.794219     -1.064261      0.044234
  H      -2.301136      0.561522     -0.687123
  H      -2.716592      0.322667      1.088236
  H       3.073892      0.006743      0.891682
  H       2.578693      0.248377     -0.860514
  H       2.933987     -1.407630     -0.108035
  Li      0.230265      2.625777     -2.004596
13
Coordinates from ORCA-job DMC_m1_dication_opt E -350.370166205273
  C      -2.248402     -0.107165      0.170845
  O      -0.926473     -0.459520      0.534998
  C       0.146758      0.116264     -0.038259
  O       0.178461      1.048343     -0.807036
  O       1.177243     -0.586987      0.466785
  C       2.505826     -0.393514      0.016725
  H      -2.792537     -1.065466      0.043360
  H      -2.300000      0.560354     -0.688145
  H      -2.719103      0.321522      1.086957
  H       3.075172      0.008660      0.888847
  H       2.577373      0.244973     -0.862954
  H       2.932971     -1.408619     -0.107261
  Li      0.231754      2.627655     -2.001953
13
Coordinates from ORCA-job DMC_m1_dication_opt E -350.370174128001
  C      -2.248332     -0.109804      0.168130
  O      -0.926415     -0.456235      0.539268
  C       0.146829      0.119365     -0.034582
  O       0.178081      1.050883     -0.804052
  O       1.177342     -0.583405      0.470780
  C       2.504769     -0.395741      0.015213
  H      -2.791240     -1.070121      0.051877
  H      -2.297591      0.547873     -0.698473
  H      -2.721470      0.329274      1.078140
  H       3.077810      0.012654      0.881785
  H       2.574939      0.236712     -0.869056
  H       2.930523     -1.411599     -0.106097
  Li      0.233801      2.636644     -1.990024
13
Coordinates from ORCA-job DMC_m1_dication_opt E -350.370184369572
  C      -2.248062     -0.116260      0.162132
  O      -0.925900     -0.447302      0.548876
  C       0.147069      0.128088     -0.025352
  O       0.177613      1.059230     -0.795382
  O       1.177985     -0.573346      0.480463
  C       2.502472     -0.400466      0.010968
  H      -2.785969     -1.081593      0.069457
  H      -2.293923      0.519398     -0.720853
  H      -2.727521      0.344494      1.058200
  H       3.085272      0.019125      0.865286
  H       2.569212      0.217672     -0.883736
  H       2.922245     -1.419645     -0.101624
  Li      0.238551      2.657108     -1.965527
13
Coordinates from ORCA-job DMC_m1_dication_opt E -350.370192350006
  C      -2.247672     -0.120140      0.158656
  O      -0.925631     -0.443163      0.552958
  C       0.147475      0.132217     -0.020889
  O       0.177516      1.063652     -0.790708
  O       1.178375     -0.568492      0.484760
  C       2.501704     -0.403026      0.008215
  H      -2.783721     -1.087550      0.081044
  H      -2.292628      0.501968     -0.734069
  H      -2.729331      0.355093      1.046158
  H       3.088706      0.023657      0.855946
  H       2.565984      0.206194     -0.892803
  H       2.918042     -1.424323     -0.096666
  Li      0.240225      2.670415     -1.949693
13
Coordinates from ORCA-job DMC_m1_dication_opt E -350.370210138091
  C      -2.245657     -0.130624      0.149387
  O      -0.924702     -0.430899      0.564050
  C       0.149289      0.143098     -0.009682
  O       0.177489      1.073854     -0.780788
  O       1.179671     -0.554675      0.496298
  C       2.500224     -0.410170      0.000006
  H      -2.776551     -1.102470      0.112090
  H      -2.289011      0.453542     -0.769169
  H      -2.733919      0.383837      1.011733
  H       3.098018      0.037221      0.828886
  H       2.555729      0.171840     -0.919417
  H       2.906152     -1.437646     -0.078082
  Li      0.242312      2.709593     -1.902404
13
Coordinates from ORCA-job DMC_m1_dication_opt E -350.370211820590
  C      -2.245368     -0.130205      0.149877
  O      -0.924567     -0.429748      0.565132
  C       0.149568      0.143117     -0.009754
  O       0.177583      1.072291     -0.782757
  O       1.179837     -0.553929      0.497145
  C       2.500512     -0.410169     -0.000261
  H      -2.775079     -1.102582      0.108987
  H      -2.288947      0.455667     -0.767674
  H      -2.735099      0.381780      1.012762
  H       3.098662      0.037346      0.828326
  H       2.554735      0.170999     -0.920235
  H       2.905562     -1.438104     -0.076230
  Li      0.241647      2.710040     -1.902410
13
Coordinates from ORCA-job DMC_m1_dication_opt E -350.370212250238
  C      -2.245222     -0.129977      0.150152
  O      -0.924520     -0.430270      0.565241
  C       0.149586      0.142449     -0.009889
  O       0.177668      1.071477     -0.783050
  O       1.179899     -0.554671      0.497064
  C       2.500567     -0.410056     -0.000378
  H      -2.775354     -1.101954      0.107752
  H      -2.288464      0.456694     -0.766979
  H      -2.734761      0.382085      1.013055
  H       3.098432      0.037543      0.828490
  H       2.553932      0.171856     -0.919959
  H       2.906237     -1.437715     -0.076034
  Li      0.241044      2.709041     -1.902555
