13
Coordinates from ORCA-job DMC_m1_dication_opt E -350.370212250238
  C          -2.24522220231744     -0.12997666439773      0.15015231602498
  O          -0.92451951336079     -0.43027042524993      0.56524068162014
  C           0.14958624388062      0.14244910859692     -0.00988929894988
  O           0.17766784014908      1.07147665003924     -0.78304996616441
  O           1.17989858642860     -0.55467119336990      0.49706351210874
  C           2.50056692440437     -0.41005560849755     -0.00037824290724
  H          -2.77535376232457     -1.10195367322458      0.10775207090353
  H          -2.28846381500952      0.45669388095845     -0.76697865991983
  H          -2.73476126758947      0.38208460704310      1.01305450345708
  H           3.09843237406205      0.03754298429180      0.82848983558666
  H           2.55393234306771      0.17185638279011     -0.91995943566567
  H           2.90623741487571     -1.43771486755687     -0.07603354434526
  Li          0.24104383373364      2.70904081857694     -1.90255477174884
