13
Coordinates from ORCA-job DMC_m1_reduced_opt E -351.051293538385
  C      -2.236889     -0.075845      0.102104
  O      -0.973287     -0.757013      0.326730
  C       0.125378     -0.133145     -0.009920
  O       0.171353      1.003872     -0.509739
  O       1.169084     -0.877426      0.254221
  C       2.481263     -0.340070     -0.056190
  H      -2.993241     -0.777238      0.448997
  H      -2.367244      0.128568     -0.963293
  H      -2.274308      0.845349      0.688556
  H       2.660900      0.568456      0.524168
  H       2.563892     -0.148282     -1.129034
  H       3.177836     -1.121484      0.241606
  Li      0.334308      2.590760     -1.215297
13
Coordinates from ORCA-job DMC_m1_reduced_opt E -351.052255331660
  C      -2.221464     -0.070531      0.098989
  O      -0.978881     -0.778547      0.336272
  C       0.124407     -0.152170     -0.001885
  O       0.169978      0.975419     -0.497436
  O       1.172060     -0.899045      0.263316
  C       2.466372     -0.332533     -0.058585
  H      -2.998170     -0.754460      0.439221
  H      -2.332222      0.141087     -0.967361
  H      -2.239664      0.855148      0.679477
  H       2.626607      0.583236      0.516105
  H       2.530236     -0.131208     -1.130994
  H       3.184406     -1.098880      0.231720
  Li      0.335380      2.568985     -1.205930
13
Coordinates from ORCA-job DMC_m1_reduced_opt E -351.052713755489
  C      -2.213115     -0.069406      0.097864
  O      -0.983564     -0.796535      0.344609
  C       0.123887     -0.162388      0.003096
  O       0.168260      0.957208     -0.488945
  O       1.174758     -0.917006      0.270799
  C       2.458634     -0.330170     -0.059291
  H      -3.004478     -0.739029      0.433180
  H      -2.311246      0.149761     -0.968685
  H      -2.219059      0.861656      0.670830
  H       2.606489      0.592242      0.508870
  H       2.510463     -0.118565     -1.130817
  H       3.191466     -1.084814      0.224857
  Li      0.336552      2.563548     -1.203458
13
Coordinates from ORCA-job DMC_m1_reduced_opt E -351.052863669985
  C      -2.214196     -0.071723      0.099002
  O      -0.983770     -0.799051      0.345280
  C       0.123913     -0.160754      0.001062
  O       0.167826      0.958049     -0.489686
  O       1.174602     -0.919431      0.271030
  C       2.459547     -0.332300     -0.058246
  H      -3.005651     -0.740282      0.435498
  H      -2.313980      0.148935     -0.967243
  H      -2.220222      0.861338      0.669002
  H       2.607473      0.591455      0.508032
  H       2.512631     -0.117898     -1.129319
  H       3.192254     -1.086618      0.226045
  Li      0.338619      2.574782     -1.207548
13
Coordinates from ORCA-job DMC_m1_reduced_opt E -351.053099784620
  C      -2.217681     -0.077575      0.100840
  O      -0.982552     -0.798451      0.347130
  C       0.124295     -0.152749      0.003074
  O       0.167182      0.964852     -0.489730
  O       1.173249     -0.918426      0.272206
  C       2.462177     -0.337660     -0.056727
  H      -3.005640     -0.749326      0.437782
  H      -2.320921      0.144358     -0.965010
  H      -2.230381      0.857278      0.668152
  H       2.616780      0.585692      0.508827
  H       2.517714     -0.119473     -1.127116
  H       3.190607     -1.095986      0.225975
  Li      0.344216      2.603969     -1.222494
13
Coordinates from ORCA-job DMC_m1_reduced_opt E -351.053232466148
  C      -2.219304     -0.080361      0.104475
  O      -0.981932     -0.799934      0.340716
  C       0.123203     -0.157104     -0.013080
  O       0.165780      0.964687     -0.497901
  O       1.171699     -0.919430      0.265335
  C       2.463258     -0.339813     -0.053402
  H      -3.003817     -0.751182      0.450826
  H      -2.333962      0.138124     -0.960933
  H      -2.228137      0.856016      0.669380
  H       2.614314      0.584287      0.511924
  H       2.528989     -0.124286     -1.123748
  H       3.188941     -1.097680      0.237053
  Li      0.350012      2.633180     -1.227736
13
Coordinates from ORCA-job DMC_m1_reduced_opt E -351.053314262422
  C      -2.219702     -0.083599      0.102713
  O      -0.981380     -0.796469      0.347216
  C       0.123759     -0.150720      0.006187
  O       0.165134      0.967846     -0.488234
  O       1.171519     -0.915392      0.271682
  C       2.462496     -0.342092     -0.055303
  H      -3.003426     -0.759034      0.442326
  H      -2.328029      0.133793     -0.963484
  H      -2.237913      0.850863      0.670349
  H       2.623338      0.577990      0.513626
  H       2.521341     -0.125508     -1.125730
  H       3.186603     -1.104832      0.226922
  Li      0.355306      2.653657     -1.245360
13
Coordinates from ORCA-job DMC_m1_reduced_opt E -351.053337018956
  C      -2.218419     -0.081497      0.102948
  O      -0.982426     -0.798697      0.344881
  C       0.123095     -0.157322      0.000533
  O       0.165113      0.962857     -0.490266
  O       1.172066     -0.917672      0.269605
  C       2.461142     -0.339741     -0.055127
  H      -3.003830     -0.754138      0.444819
  H      -2.327598      0.134643     -0.963325
  H      -2.231098      0.852690      0.671021
  H       2.616438      0.581246      0.513724
  H       2.520899     -0.125527     -1.125897
  H       3.187881     -1.099239      0.229895
  Li      0.355782      2.648899     -1.239901
13
Coordinates from ORCA-job DMC_m1_reduced_opt E -351.053339264178
  C      -2.217903     -0.080531      0.102660
  O      -0.982902     -0.799406      0.344754
  C       0.122866     -0.159482      0.000612
  O       0.165093      0.960971     -0.489920
  O       1.172409     -0.918336      0.269699
  C       2.460511     -0.338652     -0.055456
  H      -3.004200     -0.752436      0.444199
  H      -2.326011      0.135323     -0.963713
  H      -2.229012      0.853093      0.671567
  H       2.614254      0.582384      0.513623
  H       2.519397     -0.125431     -1.126408
  H       3.188493     -1.097046      0.229727
  Li      0.356051      2.646049     -1.238435
13
Coordinates from ORCA-job DMC_m1_reduced_opt E -351.053339369690
  C      -2.217927     -0.080384      0.102577
  O      -0.982957     -0.799493      0.344851
  C       0.122823     -0.159620      0.000964
  O       0.165046      0.960823     -0.489739
  O       1.172463     -0.918366      0.269887
  C       2.460474     -0.338482     -0.055567
  H      -3.004302     -0.752361      0.443806
  H      -2.325611      0.135537     -0.963804
  H      -2.228930      0.853009      0.671828
  H       2.614115      0.582529      0.513551
  H       2.519048     -0.125503     -1.126568
  H       3.188593     -1.096781      0.229557
  Li      0.356211      2.645594     -1.238433
