13
Coordinates from ORCA-job DMC_m1_reduced_opt E -351.053339369690
  C          -2.21792673146628     -0.08038441309781      0.10257685124006
  O          -0.98295665978585     -0.79949334411383      0.34485053149326
  C           0.12282264889298     -0.15962004731363      0.00096384066315
  O           0.16504555334490      0.96082298940102     -0.48973865510344
  O           1.17246264704142     -0.91836553467164      0.26988665468077
  C           2.46047381592804     -0.33848164145664     -0.05556676239850
  H          -3.00430178269567     -0.75236122150151      0.44380637378585
  H          -2.32561134229005      0.13553743979896     -0.96380421994540
  H          -2.22892952735310      0.85300891923368      0.67182767755588
  H           2.61411514341998      0.58252882527128      0.51355100233131
  H           2.51904765413339     -0.12550282021156     -1.12656805934338
  H           3.18859256912092     -1.09678141889508      0.22955652320268
  Li          0.35621101170932      2.64559426755677     -1.23843275816224
