13
Coordinates from ORCA-job DMC_m1_cation_opt E -350.903467940375
  C          -2.23688894618043     -0.07584504990601      0.10210431857759
  O          -0.97328704194647     -0.75701259354721      0.32673003549138
  C           0.12537765204142     -0.13314521854767     -0.00991980701827
  O           0.17135304558567      1.00387206172348     -0.50973851774457
  O           1.16908354837477     -0.87742622940270      0.25422061554683
  C           2.48126323300340     -0.34006971304192     -0.05619049133324
  H          -2.99324138749119     -0.77723817934242      0.44899657948903
  H          -2.36724364270104      0.12856768742547     -0.96329340690619
  H          -2.27430833891786      0.84534858632169      0.68855620163915
  H           2.66089955480956      0.56845584264192      0.52416759717226
  H           2.56389205892801     -0.14828229656761     -1.12903363359186
  H           3.17783616887224     -1.12148425422504      0.24160584780342
  Li          0.33430771222191      2.59076022226803     -1.21529675622552
