13
 energy: -23.972719339687 gnorm: 0.000861874559 xtb: 6.7.1pre (5071a88)
C            1.65120115273721       -0.32216488314832        0.17373888524538
C            0.12679496577209       -0.43715559875321        0.23258906284170
C           -0.57552208962207        0.94673242997431        0.36908550228797
O           -1.33903844363304        1.09066317892164       -0.78113454505306
C           -1.62145701977636       -0.26501965024794       -1.28301959790159
O           -2.73051724099201       -0.81085163915838       -1.01843321606286
O           -0.37196577733656       -0.96915197423355       -0.95501551479141
H            2.03716299960335        0.08824170039105        1.10669250784564
H            1.93431162494354        0.32590643176140       -0.65273009324187
H            2.08559116256582       -1.30619268920708        0.00781874388052
H           -0.15082809870430       -1.07837866001507        1.09322221529643
H            0.15566121731138        1.76791387262498        0.42717355943622
H           -1.20139444286906        0.96945749109015        1.28001248021692
