13
Coordinates from ORCA-job PC_anion_cpcm_200_default E -381.727588850837
  C           1.63470649992638     -0.33955334923074      0.18521763336480
  C           0.12993870084131     -0.43004567020118      0.34956386910446
  C          -0.56296262418224      0.93697140715248      0.45605159119984
  O          -1.82861671434878      0.73607329680077     -0.15900511263992
  C          -1.56423222137050     -0.14688892554815     -1.29511214311283
  O          -2.56239706651318     -0.70195743223902     -1.82922489290551
  O          -0.49192841659199     -1.03688269084836     -0.79272991602391
  H           2.08136446247288      0.14680340016319      1.06103495628172
  H           1.88612106190863      0.24840235037572     -0.70444577758303
  H           2.07899571217185     -1.33499684857613      0.08564434552795
  H          -0.11037842564987     -1.04003051786957      1.23591840207904
  H           0.01942468070268      1.70293659306737     -0.08431542688209
  H          -0.71003563936715      1.25916839695363      1.49140246158947
