15
 energy: -24.979301312371 gnorm: 0.000328542427 xtb: 6.7.1pre (5071a88)
C           -1.55094282229083        0.74579528978116        0.79220074908067
C           -1.53137733972560       -0.70933332859874        0.32429678772935
O           -0.37313384499512       -1.40490328542918        0.74911227656751
C            0.74387827254928       -1.30619635320634       -0.12326791451952
O            0.59221828947627       -1.44645896301084       -1.37689200310338
O            1.54651646649501       -0.13353179826680        0.35977071033192
C            2.16826809611811        0.59163035570914       -0.64202661580156
H           -0.63961965224637        1.23248217218832        0.45739973303767
H           -2.41549257421521        1.27209388290782        0.38394931067869
H           -1.58256145793619        0.79050462942606        1.87962016084088
H           -2.40053599595605       -1.24994644982405        0.72931416944682
H           -1.57013361445314       -0.75011872986319       -0.77481541090743
H            3.26502700623141        0.51901732307675       -0.55692146225661
H            1.85985118526002        0.19180683076718       -1.61878181915687
H            1.88803796568709        1.65715840434135       -0.58295867196829
