15
Coordinates from ORCA-job EMC_anion_cpcm_80_default E -382.908440022154
  C          -2.39926460406572      0.49607722178593      0.59987686886358
  C          -1.51403200865341     -0.73971984935243      0.66351270515284
  O          -0.14282125413793     -0.41252232586661      0.89655691712545
  C           0.67100604433175     -0.39362775270302     -0.30753149299966
  O           0.21728006411288      0.15641896272114     -1.35967590706128
  O           1.92523517470106      0.09007804415346      0.24835932413702
  C           2.92981108158273      0.24279117175900     -0.74411298395279
  H          -2.11654867778611      1.12901350493442     -0.24604978615682
  H          -3.45066186069034      0.20438576183337      0.48450976668585
  H          -2.30808125990333      1.08303382815717      1.52046202711088
  H          -1.83121403947763     -1.38001369657549      1.49837567469968
  H          -1.60596026527981     -1.32503048550461     -0.26220403222752
  H           3.10383668451751     -0.70046498304148     -1.28661466034877
  H           2.67089655535545      1.01820404786648     -1.47744419447600
  H           3.85051834539291      0.53137652983264     -0.22802022655244
