13
Coordinates from ORCA-job AN_m1_shell2_reduced_opt_relaxed E -272.935056837094
  C      -0.519197     -0.744731     -0.683069
  C       0.708632     -0.241560     -0.121607
  N       1.692127      0.160267      0.324750
  H      -0.294951     -1.404807     -1.526348
  H      -1.069960     -1.305646      0.077907
  H      -1.134244      0.090247     -1.031824
  Li      3.333695      0.854665      1.104998
  C       7.024969      2.588653      3.092909
  C       5.859320      2.033396      2.453599
  N       4.927143      1.589178      1.942180
  H       7.071780      2.249537      4.132075
  H       7.925786      2.261030      2.565360
  H       6.971446      3.681248      3.071717
13
Coordinates from ORCA-job AN_m1_shell2_reduced_opt_relaxed E -272.939334970034
  C      -0.524080     -0.754951     -0.696830
  C       0.697462     -0.241051     -0.120854
  N       1.699739      0.168872      0.335132
  H      -0.316891     -1.422739     -1.550335
  H      -1.083229     -1.316909      0.059122
  H      -1.145738      0.076144     -1.045767
  Li      3.330973      0.856558      1.108541
  C       7.040314      2.591929      3.091545
  C       5.866258      2.035216      2.459697
  N       4.913633      1.584601      1.940160
  H       7.092143      2.259356      4.133690
  H       7.962905      2.276064      2.575116
  H       6.987138      3.685690      3.075052
13
Coordinates from ORCA-job AN_m1_shell2_reduced_opt_relaxed E -272.940013791943
  C      -0.514753     -0.760859     -0.697227
  C       0.701175     -0.235731     -0.118745
  N       1.705159      0.177484      0.341767
  H      -0.318850     -1.434072     -1.551277
  H      -1.076118     -1.321401      0.058744
  H      -1.143139      0.064549     -1.049457
  Li      3.327787      0.861125      1.110619
  C       7.040678      2.582177      3.086670
  C       5.860087      2.036159      2.456872
  N       4.901799      1.585420      1.937932
  H       7.091886      2.251563      4.130053
  H       7.971102      2.269351      2.579828
  H       6.996332      3.677078      3.074798
13
Coordinates from ORCA-job AN_m1_shell2_reduced_opt_relaxed E -272.940367837115
  C      -0.503139     -0.756907     -0.703189
  C       0.706408     -0.234486     -0.111398
  N       1.709270      0.180728      0.351587
  H      -0.310083     -1.427554     -1.560432
  H      -1.071887     -1.320561      0.045302
  H      -1.131036      0.069386     -1.055095
  Li      3.324859      0.861227      1.116179
  C       7.037658      2.579547      3.074363
  C       5.852654      2.032076      2.456438
  N       4.891780      1.582494      1.939655
  H       7.097102      2.252719      4.118763
  H       7.970087      2.271288      2.567658
  H       6.993093      3.674741      3.063119
13
Coordinates from ORCA-job AN_m1_shell2_reduced_opt_relaxed E -272.940619120057
  C      -0.491775     -0.763077     -0.701840
  C       0.710652     -0.227929     -0.109013
  N       1.711843      0.188878      0.356477
  H      -0.296674     -1.436730     -1.556715
  H      -1.059506     -1.327179      0.047155
  H      -1.126075      0.056502     -1.058591
  Li      3.321557      0.866535      1.117884
  C       7.036182      2.567872      3.069198
  C       5.845312      2.033378      2.453203
  N       4.882488      1.585214      1.938573
  H       7.094762      2.239869      4.113396
  H       7.968195      2.255294      2.563687
  H       7.001763      3.663647      3.061331
13
Coordinates from ORCA-job AN_m1_shell2_reduced_opt_relaxed E -272.940825397996
  C      -0.481939     -0.759201     -0.709592
  C       0.713961     -0.227653     -0.101875
  N       1.713543      0.190762      0.365691
  H      -0.281977     -1.429294     -1.566553
  H      -1.056978     -1.326949      0.031172
  H      -1.113954      0.061619     -1.067582
  Li      3.318565      0.866209      1.123951
  C       7.035142      2.566831      3.056964
  C       5.839330      2.029778      2.454301
  N       4.874646      1.582927      1.942017
  H       7.102927      2.242560      4.101833
  H       7.964912      2.254521      2.546519
  H       7.000551      3.662616      3.047201
13
Coordinates from ORCA-job AN_m1_shell2_reduced_opt_relaxed E -272.941008789144
  C      -0.472396     -0.767245     -0.708749
  C       0.716252     -0.221242     -0.100478
  N       1.714144      0.198607      0.369369
  H      -0.265874     -1.439136     -1.563103
  H      -1.045011     -1.336749      0.032472
  H      -1.110969      0.046388     -1.071565
  Li      3.315176      0.872039      1.125360
  C       7.035928      2.554988      3.053255
  C       5.833429      2.032556      2.451876
  N       4.867046      1.587088      1.941692
  H       7.103196      2.227775      4.097264
  H       7.962639      2.236243      2.540651
  H       7.012012      3.651064      3.046993
13
Coordinates from ORCA-job AN_m1_shell2_reduced_opt_relaxed E -272.941184054560
  C      -0.464050     -0.763491     -0.718144
  C       0.717932     -0.221856     -0.093576
  N       1.714206      0.199500      0.378255
  H      -0.249792     -1.431891     -1.573646
  H      -1.044457     -1.336277      0.014443
  H      -1.099027      0.051754     -1.083430
  Li      3.312125      0.871352      1.131848
  C       7.036712      2.555295      3.040961
  C       5.828736      2.029322      2.454318
  N       4.860623      1.585154      1.946436
  H       7.113591      2.232643      4.085673
  H       7.959458      2.234699      2.521896
  H       7.012718      3.651301      3.030795
13
Coordinates from ORCA-job AN_m1_shell2_reduced_opt_relaxed E -272.941357397602
  C      -0.455672     -0.773252     -0.717222
  C       0.718859     -0.215455     -0.092987
  N       1.713505      0.207551      0.380660
  H      -0.233184     -1.442593     -1.570152
  H      -1.032190     -1.348814      0.016079
  H      -1.097947      0.034282     -1.086849
  Li      3.308707      0.877815      1.132765
  C       7.039010      2.542945      3.038419
  C       5.823842      2.033197      2.452470
  N       4.854161      1.590455      1.946530
  H       7.115655      2.215474      4.081605
  H       7.957444      2.215763      2.515380
  H       7.025858      3.639092      3.032926
13
Coordinates from ORCA-job AN_m1_shell2_reduced_opt_relaxed E -272.941534278386
  C      -0.448177     -0.768929     -0.728300
  C       0.719413     -0.216717     -0.086260
  N       1.712405      0.207278      0.389791
  H      -0.216616     -1.435187     -1.581475
  H      -1.033567     -1.347020     -0.004057
  H      -1.085415      0.040739     -1.101548
  Li      3.305598      0.876329      1.140063
  C       7.040986      2.544799      3.025313
  C       5.820040      2.030117      2.455953
  N       4.848683      1.588171      1.952774
  H       7.127641      2.223577      4.069594
  H       7.954532      2.214186      2.495530
  H       7.027710      3.640815      3.013566
13
Coordinates from ORCA-job AN_m1_shell2_reduced_opt_relaxed E -272.941715175367
  C      -0.440399     -0.780959     -0.726540
  C       0.719341     -0.210380     -0.086186
  N       1.710638      0.216258      0.390854
  H      -0.199710     -1.446861     -1.577662
  H      -1.019798     -1.363461     -0.001276
  H      -1.086572      0.020121     -1.103044
  Li      3.302080      0.884318      1.139844
  C       7.044328      2.530655      3.024615
  C       5.815910      2.034865      2.454362
  N       4.842995      1.595702      1.952024
  H       7.130316      2.202036      4.066559
  H       7.952883      2.193866      2.489815
  H       7.042563      3.626740      3.019769
13
Coordinates from ORCA-job AN_m1_shell2_reduced_opt_relaxed E -272.942210889359
  C      -0.425094     -0.788857     -0.741758
  C       0.711899     -0.200749     -0.075543
  N       1.703663      0.224213      0.401779
  H      -0.155803     -1.451663     -1.587321
  H      -1.011035     -1.379298     -0.028593
  H      -1.075881      0.001667     -1.132146
  Li      3.296255      0.886795      1.148362
  C       7.049143      2.529333      3.009840
  C       5.813621      2.030069      2.458037
  N       4.837947      1.593313      1.959224
  H       7.145536      2.207129      4.052843
  H       7.951350      2.187222      2.467433
  H       7.048893      3.625235      2.998219
13
Coordinates from ORCA-job AN_m1_shell2_reduced_opt_relaxed E -272.942904003430
  C      -0.416552     -0.793549     -0.743276
  C       0.692337     -0.180450     -0.052278
  N       1.685265      0.245676      0.421416
  H      -0.113610     -1.450457     -1.582224
  H      -1.004011     -1.396576     -0.042672
  H      -1.075724     -0.018153     -1.148235
  Li      3.281490      0.905828      1.158199
  C       7.051117      2.520544      3.004138
  C       5.804468      2.044675      2.456837
  N       4.825253      1.612045      1.962465
  H       7.149455      2.190514      4.044181
  H       7.944019      2.167986      2.453158
  H       7.066988      3.616327      2.998667
13
Coordinates from ORCA-job AN_m1_shell2_reduced_opt_relaxed E -272.943730643049
  C      -0.407103     -0.798201     -0.744944
  C       0.669917     -0.158364     -0.026389
  N       1.664637      0.268373      0.443051
  H      -0.067045     -1.447557     -1.576141
  H      -0.995927     -1.415117     -0.058317
  H      -1.074835     -0.039189     -1.165730
  Li      3.265504      0.925133      1.169020
  C       7.053051      2.511680      2.997383
  C       5.795504      2.058530      2.455485
  N       4.812597      1.630480      1.965995
  H       7.152180      2.173574      4.034421
  H       7.936151      2.147967      2.438054
  H       7.085865      3.607101      2.998487
13
Coordinates from ORCA-job AN_m1_shell2_reduced_opt_relaxed E -272.944667744905
  C      -0.396556     -0.802569     -0.746510
  C       0.645085     -0.135088      0.001347
  N       1.642245      0.291778      0.466068
  H      -0.016819     -1.442295     -1.568394
  H      -0.986433     -1.434525     -0.075150
  H      -1.072504     -0.060999     -1.184131
  Li      3.248393      0.944307      1.180485
  C       7.054620      2.502630      2.989748
  C       5.786568      2.071555      2.453893
  N       4.799901      1.648314      1.969635
  H       7.153899      2.156606      4.023895
  H       7.927317      2.127359      2.422238
  H       7.104779      3.597337      2.997251
13
Coordinates from ORCA-job AN_m1_shell2_reduced_opt_relaxed E -272.945673443493
  C      -0.384946     -0.806434     -0.747763
  C       0.618551     -0.111265      0.030024
  N       1.618777      0.315260      0.489714
  H       0.035809     -1.434508     -1.558787
  H      -0.975432     -1.454219     -0.092625
  H      -1.068425     -0.082914     -1.202857
  Li      3.230468      0.962814      1.192188
  C       7.055606      2.493432      2.981472
  C       5.777660      2.083416      2.452070
  N       4.787264      1.665034      1.973248
  H       7.154782      2.140110      4.012978
  H       7.917516      2.106584      2.406022
  H       7.122866      3.587100      2.994690
13
Coordinates from ORCA-job AN_m1_shell2_reduced_opt_relaxed E -272.946701608142
  C      -0.372431     -0.809638     -0.748580
  C       0.591083     -0.087456      0.058750
  N       1.594920      0.338268      0.513249
  H       0.089430     -1.424332     -1.547351
  H      -0.962896     -1.473611     -0.110146
  H      -1.062591     -0.104387     -1.221379
  Li      3.212086      0.980207      1.203736
  C       7.055891      2.484190      2.972806
  C       5.768829      2.093814      2.450053
  N       4.774827      1.680221      1.976719
  H       7.154959      2.124478      4.001989
  H       7.906906      2.086079      2.389770
  H       7.139483      3.576577      2.990759
13
Coordinates from ORCA-job AN_m1_shell2_reduced_opt_relaxed E -272.948848627058
  C      -0.342065     -0.814154     -0.748454
  C       0.530273     -0.037958      0.120125
  N       1.542980      0.385635      0.563438
  H       0.205873     -1.395595     -1.516741
  H      -0.930205     -1.513508     -0.147195
  H      -1.042639     -0.148172     -1.260407
  Li      3.171348      1.014762      1.228031
  C       7.053610      2.463563      2.952796
  C       5.748765      2.112936      2.444674
  N       4.747705      1.709551      1.983507
  H       7.152882      2.092241      3.977650
  H       7.881408      2.042572      2.354499
  H       7.170562      3.552536      2.978454
13
Coordinates from ORCA-job AN_m1_shell2_reduced_opt_relaxed E -272.950726906217
  C      -0.307615     -0.815439     -0.745890
  C       0.468455      0.008596      0.179644
  N       1.491060      0.429270      0.611665
  H       0.321886     -1.357829     -1.478325
  H      -0.890016     -1.550171     -0.182565
  H      -1.013761     -0.188102     -1.297046
  Li      3.129231      1.044600      1.250577
  C       7.047860      2.442474      2.931481
  C       5.727778      2.127438      2.438095
  N       4.720075      1.733655      1.988948
  H       7.147595      2.062719      3.953082
  H       7.852420      1.999810      2.319517
  H       7.195528      3.527390      2.961194
13
Coordinates from ORCA-job AN_m1_shell2_reduced_opt_relaxed E -272.952684114463
  C      -0.248303     -0.811337     -0.737231
  C       0.375266      0.072759      0.264313
  N       1.413666      0.487514      0.679071
  H       0.494010     -1.285787     -1.405393
  H      -0.815806     -1.597697     -0.231106
  H      -0.953975     -0.240614     -1.347262
  Li      3.063449      1.080565      1.280077
  C       7.032916      2.410035      2.897358
  C       5.693854      2.141107      2.425951
  N       4.677077      1.760594      1.994241
  H       7.134106      2.022263      3.915699
  H       7.802337      1.936886      2.267014
  H       7.221899      3.488124      2.927643
13
Coordinates from ORCA-job AN_m1_shell2_reduced_opt_relaxed E -272.953193235735
  C      -0.182359     -0.800736     -0.723692
  C       0.283900      0.130551      0.341210
  N       1.339105      0.537265      0.738777
  H       0.658654     -1.197761     -1.316117
  H      -0.727077     -1.635902     -0.273115
  H      -0.878723     -0.285209     -1.391620
  Li      2.995652      1.105596      1.303271
  C       7.011935      2.377496      2.862085
  C       5.657743      2.144898      2.412509
  N       4.633390      1.776531      1.996922
  H       7.116668      1.987389      3.879091
  H       7.745645      1.875781      2.215247
  H       7.235961      3.448513      2.885809
13
Coordinates from ORCA-job AN_m1_shell2_reduced_opt_relaxed E -272.953334484405
  C      -0.202899     -0.804289     -0.729405
  C       0.307805      0.118806      0.321234
  N       1.360764      0.524969      0.722980
  H       0.615705     -1.221921     -1.338933
  H      -0.756105     -1.625939     -0.264310
  H      -0.902208     -0.275548     -1.383992
  Li      3.013008      1.095652      1.297046
  C       7.019291      2.388100      2.872826
  C       5.669263      2.139345      2.419900
  N       4.647209      1.767904      1.999509
  H       7.127248      2.001224      3.890739
  H       7.761074      1.894301      2.228313
  H       7.230341      3.461805      2.894469
13
Coordinates from ORCA-job AN_m1_shell2_reduced_opt_relaxed E -272.953450860245
  C      -0.212034     -0.804529     -0.732734
  C       0.315697      0.118494      0.313189
  N       1.370523      0.519816      0.715579
  H       0.601268     -1.229051     -1.343819
  H      -0.769739     -1.619698     -0.261705
  H      -0.911266     -0.272121     -1.384392
  Li      3.017372      1.085108      1.293472
  C       7.022638      2.394063      2.877728
  C       5.675028      2.128342      2.427317
  N       4.654467      1.755894      2.004325
  H       7.138066      2.013861      3.897287
  H       7.766492      1.904209      2.232532
  H       7.221981      3.470023      2.891596
13
Coordinates from ORCA-job AN_m1_shell2_reduced_opt_relaxed E -272.953634258638
  C      -0.222447     -0.801021     -0.737808
  C       0.320388      0.126650      0.304601
  N       1.382920      0.512192      0.705243
  H       0.591284     -1.233568     -1.341198
  H      -0.788490     -1.605995     -0.259640
  H      -0.917468     -0.266138     -1.391597
  Li      3.017026      1.058813      1.287796
  C       7.026081      2.403874      2.883393
  C       5.683293      2.096827      2.445238
  N       4.665877      1.723313      2.017893
  H       7.163311      2.043893      3.907428
  H       7.771815      1.921071      2.235373
  H       7.196903      3.484501      2.873655
13
Coordinates from ORCA-job AN_m1_shell2_reduced_opt_relaxed E -272.953701456978
  C      -0.222465     -0.796805     -0.738776
  C       0.315951      0.133813      0.305106
  N       1.384149      0.508942      0.702857
  H       0.595344     -1.232196     -1.334390
  H      -0.792827     -1.598446     -0.260222
  H      -0.912366     -0.262145     -1.398007
  Li      3.012715      1.044176      1.286227
  C       7.025795      2.407000      2.883469
  C       5.685273      2.078084      2.454587
  N       4.669454      1.704285      2.025571
  H       7.176268      2.060061      3.910068
  H       7.772826      1.927896      2.234575
  H       7.180380      3.489746      2.859311
13
Coordinates from ORCA-job AN_m1_shell2_reduced_opt_relaxed E -272.953740982101
  C      -0.221357     -0.792416     -0.738635
  C       0.310563      0.137730      0.307032
  N       1.383738      0.504258      0.701207
  H       0.597600     -1.233088     -1.329239
  H      -0.796895     -1.591205     -0.261351
  H      -0.904899     -0.256266     -1.403310
  Li      3.010015      1.032232      1.285427
  C       7.025266      2.409129      2.882880
  C       5.686689      2.063912      2.461254
  N       4.672290      1.689384      2.030843
  H       7.185775      2.073180      3.911576
  H       7.775473      1.934109      2.234970
  H       7.166238      3.493451      2.847721
13
Coordinates from ORCA-job AN_m1_shell2_reduced_opt_relaxed E -272.953754507218
  C      -0.222962     -0.790604     -0.738654
  C       0.310085      0.135678      0.307158
  N       1.385385      0.498860      0.699118
  H       0.592233     -1.237819     -1.330039
  H      -0.803492     -1.586502     -0.262348
  H      -0.902331     -0.250775     -1.404790
  Li      3.012250      1.026432      1.284890
  C       7.025905      2.411143      2.883563
  C       5.688645      2.059371      2.463728
  N       4.675209      1.683581      2.032297
  H       7.189493      2.079946      3.913323
  H       7.779484      1.938880      2.237599
  H       7.160592      3.496220      2.844531
13
Coordinates from ORCA-job AN_m1_shell2_reduced_opt_relaxed E -272.953762152145
  C      -0.226707     -0.789734     -0.739134
  C       0.312165      0.131170      0.306571
  N       1.389162      0.491931      0.696225
  H       0.582873     -1.244576     -1.332734
  H      -0.813685     -1.581742     -0.264019
  H      -0.901900     -0.244608     -1.405404
  Li      3.017091      1.021170      1.284121
  C       7.027288      2.414043      2.885218
  C       5.691488      2.057145      2.465671
  N       4.679193      1.679487      2.032968
  H       7.192275      2.086325      3.915886
  H       7.784090      1.944109      2.241282
  H       7.157161      3.499691      2.843725
13
Coordinates from ORCA-job AN_m1_shell2_reduced_opt_relaxed E -272.953767775688
  C      -0.231165     -0.789326     -0.739821
  C       0.315022      0.126033      0.306446
  N       1.393872      0.484353      0.693243
  H       0.573409     -1.251193     -1.334883
  H      -0.825507     -1.577023     -0.266586
  H      -0.901734     -0.238247     -1.406027
  Li      3.022660      1.015837      1.283163
  C       7.028781      2.417352      2.887139
  C       5.694393      2.055773      2.467491
  N       4.683419      1.675904      2.033344
  H       7.194634      2.092485      3.918586
  H       7.787925      1.949057      2.244705
  H       7.154785      3.503406      2.843576
13
Coordinates from ORCA-job AN_m1_shell2_reduced_opt_relaxed E -272.953774005361
  C      -0.237024     -0.788933     -0.740699
  C       0.318878      0.119249      0.307210
  N       1.400618      0.473839      0.689317
  H       0.562423     -1.258958     -1.336175
  H      -0.841732     -1.570608     -0.270627
  H      -0.900634     -0.229381     -1.406953
  Li      3.029970      1.008266      1.281547
  C       7.030428      2.421876      2.889595
  C       5.697792      2.054114      2.469850
  N       4.688838      1.671031      2.033573
  H       7.197350      2.100491      3.921969
  H       7.791717      1.955096      2.248523
  H       7.151871      3.508330      2.843246
13
Coordinates from ORCA-job AN_m1_shell2_reduced_opt_relaxed E -272.953778811881
  C      -0.241000     -0.788744     -0.741145
  C       0.321702      0.114278      0.308677
  N       1.405982      0.465719      0.686401
  H       0.556081     -1.263645     -1.335691
  H      -0.853565     -1.565835     -0.273842
  H      -0.898712     -0.222248     -1.407403
  Li      3.035167      1.002425      1.279920
  C       7.031139      2.425124      2.891187
  C       5.699564      2.053375      2.471259
  N       4.692340      1.667624      2.033221
  H       7.198544      2.105756      3.924089
  H       7.793219      1.958849      2.250660
  H       7.150034      3.511733      2.843040
13
Coordinates from ORCA-job AN_m1_shell2_reduced_opt_relaxed E -272.953783092455
  C      -0.244517     -0.788490     -0.741270
  C       0.324838      0.109204      0.310658
  N       1.411976      0.457212      0.683222
  H       0.550787     -1.267736     -1.334439
  H      -0.864782     -1.560804     -0.276523
  H      -0.895766     -0.214224     -1.407198
  Li      3.040252      0.996308      1.277667
  C       7.031210      2.428172      2.892551
  C       5.700505      2.053110      2.472216
  N       4.695302      1.664360      2.032171
  H       7.198702      2.110307      3.925884
  H       7.793833      1.962115      2.252476
  H       7.148155      3.514875      2.842960
13
Coordinates from ORCA-job AN_m1_shell2_reduced_opt_relaxed E -272.953785520873
  C      -0.245637     -0.788323     -0.741007
  C       0.326740      0.106915      0.311694
  N       1.415303      0.453328      0.681538
  H       0.548890     -1.269246     -1.333762
  H      -0.868841     -1.558517     -0.276868
  H      -0.893978     -0.210124     -1.406325
  Li      3.042463      0.993658      1.276105
  C       7.030689      2.429238      2.892980
  C       5.700151      2.053698      2.472157
  N       4.696041      1.663334      2.031022
  H       7.197719      2.111419      3.926390
  H       7.793477      1.963100      2.253148
  H       7.147479      3.515931      2.843304
13
Coordinates from ORCA-job AN_m1_shell2_reduced_opt_relaxed E -272.953787855610
  C      -0.245737     -0.788178     -0.740446
  C       0.328705      0.105762      0.312082
  N       1.418138      0.451314      0.680150
  H       0.547861     -1.269871     -1.333822
  H      -0.869602     -1.557376     -0.275667
  H      -0.893043     -0.207640     -1.404691
  Li      3.043750      0.992569      1.274528
  C       7.029758      2.429396      2.893065
  C       5.699003      2.055124      2.471573
  N       4.695719      1.663548      2.029570
  H       7.195848      2.110723      3.926360
  H       7.792594      1.963020      2.253451
  H       7.147503      3.516020      2.844222
13
Coordinates from ORCA-job AN_m1_shell2_reduced_opt_relaxed E -272.953789817643
  C      -0.246612     -0.787832     -0.739973
  C       0.331476      0.104124      0.311830
  N       1.421958      0.448411      0.677963
  H       0.544420     -1.271749     -1.335028
  H      -0.871778     -1.555426     -0.274315
  H      -0.892992     -0.204835     -1.402965
  Li      3.046042      0.990670      1.272659
  C       7.029130      2.430071      2.893618
  C       5.698455      2.056066      2.471620
  N       4.696249      1.663020      2.028359
  H       7.194682      2.111255      3.926966
  H       7.792544      1.963915      2.254506
  H       7.146920      3.516721      2.845136
