13
Coordinates from ORCA-job AN_m1_shell2_oxidized_opt_relaxed E -272.278320809194
  C      -0.519197     -0.744731     -0.683069
  C       0.708632     -0.241560     -0.121607
  N       1.692127      0.160267      0.324750
  H      -0.294951     -1.404807     -1.526348
  H      -1.069960     -1.305646      0.077907
  H      -1.134244      0.090247     -1.031824
  Li      3.333695      0.854665      1.104998
  C       7.024969      2.588653      3.092909
  C       5.859320      2.033396      2.453599
  N       4.927143      1.589178      1.942180
  H       7.071780      2.249537      4.132075
  H       7.925786      2.261030      2.565360
  H       6.971446      3.681248      3.071717
13
Coordinates from ORCA-job AN_m1_shell2_oxidized_opt_relaxed E -272.283256900009
  C      -0.532639     -0.750480     -0.685309
  C       0.681166     -0.254246     -0.134286
  N       1.681641      0.154750      0.318275
  H      -0.306313     -1.405310     -1.553187
  H      -1.087290     -1.315495      0.074827
  H      -1.145898      0.095173     -1.058303
  Li      3.334614      0.854776      1.103048
  C       7.035438      2.592219      3.103050
  C       5.886326      2.045953      2.467269
  N       4.939019      1.594256      1.946290
  H       7.084751      2.253334      4.145779
  H       7.948450      2.276408      2.556490
  H       6.991413      3.700382      3.063611
13
Coordinates from ORCA-job AN_m1_shell2_oxidized_opt_relaxed E -272.284316679993
  C      -0.541090     -0.755213     -0.689382
  C       0.666836     -0.260662     -0.140647
  N       1.669236      0.149891      0.313412
  H      -0.314908     -1.399341     -1.568106
  H      -1.101583     -1.324083      0.063985
  H      -1.149426      0.089380     -1.078041
  Li      3.334170      0.855082      1.103607
  C       7.044548      2.595026      3.107626
  C       5.900122      2.051948      2.475047
  N       4.950173      1.599674      1.953080
  H       7.102266      2.260026      4.151488
  H       7.958217      2.291613      2.550956
  H       7.009516      3.704987      3.055443
13
Coordinates from ORCA-job AN_m1_shell2_oxidized_opt_relaxed E -272.284915515432
  C      -0.549234     -0.760001     -0.694071
  C       0.655776     -0.265555     -0.145551
  N       1.657733      0.145688      0.309250
  H      -0.323117     -1.395979     -1.579645
  H      -1.114413     -1.331634      0.053115
  H      -1.154091      0.082664     -1.093781
  Li      3.333535      0.855521      1.104389
  C       7.053920      2.597871      3.111654
  C       5.910756      2.056596      2.481024
  N       4.960137      1.604788      1.959468
  H       7.118800      2.266351      4.155810
  H       7.967170      2.303367      2.548224
  H       7.025914      3.708214      3.050758
13
Coordinates from ORCA-job AN_m1_shell2_oxidized_opt_relaxed E -272.285309651823
  C      -0.557269     -0.764716     -0.699006
  C       0.645994     -0.269844     -0.149945
  N       1.647239      0.141962      0.305560
  H      -0.330868     -1.394809     -1.589299
  H      -1.126023     -1.338405      0.043335
  H      -1.159749      0.076347     -1.106619
  Li      3.332883      0.855973      1.105190
  C       7.063327      2.600816      3.115443
  C       5.920178      2.060745      2.486248
  N       4.969123      1.609503      1.965326
  H       7.133788      2.271953      4.159695
  H       7.975997      2.312460      2.547069
  H       7.040507      3.711329      3.048440
13
Coordinates from ORCA-job AN_m1_shell2_oxidized_opt_relaxed E -272.285584810008
  C      -0.564827     -0.769174     -0.703837
  C       0.637174     -0.273687     -0.153962
  N       1.637695      0.138645      0.302242
  H      -0.337843     -1.395013     -1.597385
  H      -1.136246     -1.344406      0.034842
  H      -1.165660      0.070661     -1.117091
  Li      3.332218      0.856428      1.105937
  C       7.072309      2.603651      3.118899
  C       5.928705      2.064528      2.490923
  N       4.977220      1.613838      1.970666
  H       7.147016      2.276740      4.163177
  H       7.984317      2.319417      2.546801
  H       7.053286      3.714250      3.047553
13
Coordinates from ORCA-job AN_m1_shell2_oxidized_opt_relaxed E -272.285785038632
  C      -0.571806     -0.773315     -0.708400
  C       0.629191     -0.277160     -0.157656
  N       1.629040      0.135681      0.299226
  H      -0.344083     -1.396081     -1.604175
  H      -1.145177     -1.349697      0.027552
  H      -1.171506      0.065594     -1.125661
  Li      3.331557      0.856887      1.106603
  C       7.080698      2.606289      3.122017
  C       5.936452      2.067989      2.495139
  N       4.984514      1.617831      1.975530
  H       7.158606      2.280795      4.166286
  H       7.992007      2.324720      2.547082
  H       7.064482      3.716925      3.047564
13
Coordinates from ORCA-job AN_m1_shell2_oxidized_opt_relaxed E -272.285935579343
  C      -0.578195     -0.777117     -0.712652
  C       0.621952     -0.280310     -0.161052
  N       1.621197      0.133015      0.296483
  H      -0.349667     -1.397645     -1.609947
  H      -1.153002     -1.354366      0.021263
  H      -1.177121      0.061096     -1.132763
  Li      3.330921      0.857330      1.107206
  C       7.088446      2.608719      3.124809
  C       5.943494      2.071153      2.498948
  N       4.991097      1.621495      1.979969
  H       7.168793      2.284250      4.169048
  H       7.999050      2.328813      2.547683
  H       7.074317      3.719359      3.048133
13
Coordinates from ORCA-job AN_m1_shell2_oxidized_opt_relaxed E -272.286051524038
  C      -0.584037     -0.780582     -0.716587
  C       0.615388     -0.283175     -0.164177
  N       1.614085      0.130594      0.293975
  H      -0.354705     -1.399475     -1.614897
  H      -1.159916     -1.358482      0.015803
  H      -1.182434      0.057107     -1.138701
  Li      3.330306      0.857730      1.107754
  C       7.095583      2.610961      3.127310
  C       5.949909      2.074050      2.502406
  N       4.997036      1.624846      1.984027
  H       7.177825      2.287230      4.171514
  H       8.005495      2.332039      2.548451
  H       7.083012      3.721590      3.049048
13
Coordinates from ORCA-job AN_m1_shell2_oxidized_opt_relaxed E -272.286142353382
  C      -0.589362     -0.783753     -0.720223
  C       0.609431     -0.285779     -0.167045
  N       1.607631      0.128406      0.291691
  H      -0.359237     -1.401454     -1.619196
  H      -1.166048     -1.362158      0.011013
  H      -1.187416      0.053530     -1.143762
  Li      3.329717      0.858117      1.108267
  C       7.102147      2.612999      3.129535
  C       5.955743      2.076698      2.505547
  N       5.002386      1.627928      1.987756
  H       7.185899      2.289800      4.173701
  H       8.011383      2.334581      2.549272
  H       7.090782      3.723610      3.050142
13
Coordinates from ORCA-job AN_m1_shell2_oxidized_opt_relaxed E -272.286214206778
  C      -0.594212     -0.786638     -0.723542
  C       0.604033     -0.288149     -0.169677
  N       1.601793      0.126424      0.289601
  H      -0.363360     -1.403453     -1.622953
  H      -1.171496     -1.365433      0.006822
  H      -1.192065      0.050333     -1.148076
  Li      3.329186      0.858490      1.108737
  C       7.108139      2.614852      3.131531
  C       5.961036      2.079106      2.508389
  N       5.007220      1.630748      1.991160
  H       7.193079      2.292050      4.175660
  H       8.016741      2.336613      2.550145
  H       7.097719      3.725434      3.051320
13
Coordinates from ORCA-job AN_m1_shell2_oxidized_opt_relaxed E -272.286271446953
  C      -0.598627     -0.789257     -0.726567
  C       0.599145     -0.290304     -0.172085
  N       1.596506      0.124622      0.287686
  H      -0.367113     -1.405415     -1.626249
  H      -1.176361     -1.368353      0.003134
  H      -1.196367      0.047465     -1.151796
  Li      3.328696      0.858838      1.109163
  C       7.113610      2.616539      3.133326
  C       5.965846      2.081298      2.510968
  N       5.011578      1.633322      1.994266
  H       7.199509      2.294028      4.177419
  H       8.021626      2.338272      2.551021
  H       7.103945      3.727093      3.052529
13
Coordinates from ORCA-job AN_m1_shell2_oxidized_opt_relaxed E -272.286317195631
  C      -0.602627     -0.791636     -0.729324
  C       0.594723     -0.292261     -0.174283
  N       1.591722      0.122990      0.285945
  H      -0.370514     -1.407297     -1.629166
  H      -1.180714     -1.370951     -0.000130
  H      -1.200318      0.044892     -1.155038
  Li      3.328250      0.859171      1.109566
  C       7.118590      2.618061      3.134925
  C       5.970203      2.083287      2.513301
  N       5.015503      1.635673      1.997107
  H       7.205285      2.295760      4.178981
  H       8.026061      2.339638      2.551846
  H       7.109537      3.728588      3.053709
13
Coordinates from ORCA-job AN_m1_shell2_oxidized_opt_relaxed E -272.286353805978
  C      -0.606250     -0.793795     -0.731834
  C       0.590727     -0.294035     -0.176284
  N       1.587396      0.121515      0.284364
  H      -0.373595     -1.409072     -1.631763
  H      -1.184616     -1.373282     -0.003038
  H      -1.203936      0.042574     -1.157882
  Li      3.327839      0.859484      1.109942
  C       7.123123      2.619436      3.136353
  C       5.974150      2.085090      2.515412
  N       5.019031      1.637813      1.999699
  H       7.210486      2.297296      4.180377
  H       8.030090      2.340776      2.552619
  H       7.114579      3.729937      3.054833
13
Coordinates from ORCA-job AN_m1_shell2_oxidized_opt_relaxed E -272.286383111353
  C      -0.609519     -0.795757     -0.734118
  C       0.587118     -0.295642     -0.178103
  N       1.583490      0.120189      0.282940
  H      -0.376371     -1.410728     -1.634091
  H      -1.188111     -1.375377     -0.005639
  H      -1.207234      0.040480     -1.160398
  Li      3.327469      0.859791      1.110302
  C       7.127238      2.620665      3.137617
  C       5.977712      2.086718      2.517316
  N       5.022197      1.639767      2.002067
  H       7.215171      2.298650      4.181611
  H       8.033733      2.341713      2.553321
  H       7.119131      3.731139      3.055874
13
Coordinates from ORCA-job AN_m1_shell2_oxidized_opt_relaxed E -272.286406554317
  C      -0.612481     -0.797517     -0.736161
  C       0.583871     -0.297094     -0.179753
  N       1.579978      0.118982      0.281632
  H      -0.378918     -1.412249     -1.636148
  H      -1.191249     -1.377232     -0.007922
  H      -1.210238      0.038616     -1.162587
  Li      3.327144      0.860065      1.110615
  C       7.130945      2.621785      3.138769
  C       5.980931      2.088185      2.519030
  N       5.025051      1.641525      2.004197
  H       7.219346      2.299868      4.182737
  H       8.037029      2.342536      2.554007
  H       7.123197      3.732234      3.056863
13
Coordinates from ORCA-job AN_m1_shell2_oxidized_opt_relaxed E -272.286425289078
  C      -0.615140     -0.799110     -0.738009
  C       0.580950     -0.298404     -0.181243
  N       1.576814      0.117901      0.280457
  H      -0.381202     -1.413641     -1.637990
  H      -1.194058     -1.378890     -0.009961
  H      -1.212954      0.036939     -1.164527
  Li      3.326847      0.860328      1.110907
  C       7.134293      2.622783      3.139789
  C       5.983829      2.089504      2.520570
  N       5.027605      1.643121      2.006132
  H       7.223097      2.300944      4.183735
  H       8.040001      2.343226      2.554623
  H       7.126856      3.733211      3.057760
13
Coordinates from ORCA-job AN_m1_shell2_oxidized_opt_relaxed E -272.286440244869
  C      -0.617538     -0.800546     -0.739667
  C       0.578326     -0.299584     -0.182590
  N       1.573975      0.116930      0.279393
  H      -0.383276     -1.414912     -1.639636
  H      -1.196580     -1.380370     -0.011768
  H      -1.215416      0.035432     -1.166240
  Li      3.326586      0.860576      1.111169
  C       7.137308      2.623678      3.140707
  C       5.986436      2.090687      2.521953
  N       5.029896      1.644562      2.007877
  H       7.226454      2.301905      4.184634
  H       8.042680      2.343822      2.555197
  H       7.130143      3.734085      3.058585
13
Coordinates from ORCA-job AN_m1_shell2_oxidized_opt_relaxed E -272.286452190160
  C      -0.619682     -0.801849     -0.741177
  C       0.575968     -0.300646     -0.183803
  N       1.571412      0.116062      0.278445
  H      -0.385118     -1.416066     -1.641124
  H      -1.198837     -1.381704     -0.013408
  H      -1.217628      0.034066     -1.167778
  Li      3.326336      0.860811      1.111423
  C       7.140041      2.624473      3.141511
  C       5.988782      2.091752      2.523199
  N       5.031934      1.645869      2.009469
  H       7.229499      2.302759      4.185421
  H       8.045099      2.344325      2.555686
  H       7.133120      3.734863      3.059314
13
Coordinates from ORCA-job AN_m1_shell2_oxidized_opt_relaxed E -272.286461705511
  C      -0.621610     -0.803015     -0.742522
  C       0.573855     -0.301600     -0.184895
  N       1.569122      0.115282      0.277587
  H      -0.386790     -1.417105     -1.642450
  H      -1.200860     -1.382887     -0.014854
  H      -1.219624      0.032851     -1.169131
  Li      3.326123      0.861027      1.111649
  C       7.142484      2.625188      3.142235
  C       5.990886      2.092703      2.524310
  N       5.033765      1.647042      2.010895
  H       7.232204      2.303526      4.186132
  H       8.047267      2.344771      2.556145
  H       7.135770      3.735561      3.059978
13
Coordinates from ORCA-job AN_m1_shell2_oxidized_opt_relaxed E -272.286469287165
  C      -0.623324     -0.804074     -0.743739
  C       0.571965     -0.302456     -0.185876
  N       1.567061      0.114592      0.276824
  H      -0.388266     -1.418044     -1.643643
  H      -1.202665     -1.383946     -0.016153
  H      -1.221409      0.031751     -1.170343
  Li      3.325918      0.861238      1.111861
  C       7.144689      2.625815      3.142866
  C       5.992772      2.093555      2.525309
  N       5.035386      1.648106      2.012192
  H       7.234647      2.304198      4.186752
  H       8.049215      2.345137      2.556533
  H       7.138168      3.736173      3.060560
13
Coordinates from ORCA-job AN_m1_shell2_oxidized_opt_relaxed E -272.286475317238
  C      -0.624879     -0.805011     -0.744809
  C       0.570271     -0.303224     -0.186758
  N       1.565231      0.113964      0.276124
  H      -0.389638     -1.418884     -1.644698
  H      -1.204293     -1.384875     -0.017284
  H      -1.223027      0.030782     -1.171397
  Li      3.325756      0.861421      1.112038
  C       7.146648      2.626389      3.143451
  C       5.994464      2.094313      2.526198
  N       5.036852      1.649051      2.013339
  H       7.236797      2.304816      4.187329
  H       8.050960      2.345489      2.556924
  H       7.140282      3.736733      3.061106
13
Coordinates from ORCA-job AN_m1_shell2_oxidized_opt_relaxed E -272.286480112105
  C      -0.626252     -0.805863     -0.745777
  C       0.568759     -0.303912     -0.187549
  N       1.563585      0.113412      0.275506
  H      -0.390836     -1.419637     -1.645650
  H      -1.205739     -1.385706     -0.018301
  H      -1.224467      0.029905     -1.172341
  Li      3.325600      0.861605      1.112209
  C       7.148413      2.626886      3.143955
  C       5.995974      2.094990      2.526994
  N       5.038145      1.649908      2.014383
  H       7.238737      2.305355      4.187826
  H       8.052521      2.345769      2.557249
  H       7.142193      3.737217      3.061574
13
Coordinates from ORCA-job AN_m1_shell2_oxidized_opt_relaxed E -272.286483924677
  C      -0.627480     -0.806633     -0.746650
  C       0.567408     -0.304527     -0.188257
  N       1.562109      0.112922      0.274955
  H      -0.391908     -1.420315     -1.646513
  H      -1.207036     -1.386455     -0.019216
  H      -1.225759      0.029111     -1.173188
  Li      3.325454      0.861777      1.112366
  C       7.150003      2.627328      3.144401
  C       5.997328      2.095595      2.527707
  N       5.039293      1.650680      2.015324
  H       7.240485      2.305839      4.188269
  H       8.053928      2.346010      2.557531
  H       7.143920      3.737649      3.061987
13
Coordinates from ORCA-job AN_m1_shell2_oxidized_opt_relaxed E -272.286486949324
  C      -0.628576     -0.807318     -0.747417
  C       0.566204     -0.305077     -0.188890
  N       1.560798      0.112484      0.274455
  H      -0.392876     -1.420916     -1.647271
  H      -1.208186     -1.387114     -0.020014
  H      -1.226915      0.028407     -1.173921
  Li      3.325331      0.861936      1.112500
  C       7.151410      2.627721      3.144804
  C       5.998534      2.096131      2.528340
  N       5.040320      1.651369      2.016160
  H       7.242020      2.306273      4.188671
  H       8.055179      2.346222      2.557801
  H       7.145444      3.738033      3.062357
13
Coordinates from ORCA-job AN_m1_shell2_oxidized_opt_relaxed E -272.286489354729
  C      -0.629544     -0.807949     -0.748125
  C       0.565125     -0.305570     -0.189458
  N       1.559616      0.112103      0.274023
  H      -0.393712     -1.421459     -1.647974
  H      -1.209217     -1.387713     -0.020750
  H      -1.227947      0.027762     -1.174599
  Li      3.325212      0.862098      1.112641
  C       7.152691      2.628057      3.145142
  C       5.999612      2.096610      2.528909
  N       5.041220      1.651999      2.016930
  H       7.243429      2.306652      4.189008
  H       8.056301      2.346382      2.558005
  H       7.146840      3.738360      3.062665
13
Coordinates from ORCA-job AN_m1_shell2_oxidized_opt_relaxed E -272.286491258182
  C      -0.630429     -0.808487     -0.748711
  C       0.564171     -0.306008     -0.189966
  N       1.558585      0.111748      0.273605
  H      -0.394524     -1.421933     -1.648562
  H      -1.210140     -1.388216     -0.021343
  H      -1.228882      0.027214     -1.175144
  Li      3.325130      0.862227      1.112729
  C       7.153797      2.628378      3.145482
  C       6.000575      2.097031      2.529409
  N       5.042045      1.652540      2.017581
  H       7.244613      2.307012      4.189350
  H       8.057299      2.346565      2.558262
  H       7.148028      3.738672      3.062977
13
Coordinates from ORCA-job AN_m1_shell2_oxidized_opt_relaxed E -272.286492776324
  C      -0.631192     -0.808998     -0.749276
  C       0.563317     -0.306400     -0.190420
  N       1.557640      0.111450      0.273260
  H      -0.395186     -1.422361     -1.649124
  H      -1.210959     -1.388687     -0.021924
  H      -1.229705      0.026694     -1.175672
  Li      3.325024      0.862368      1.112841
  C       7.154825      2.628638      3.145743
  C       6.001435      2.097411      2.529864
  N       5.042749      1.653048      2.018203
  H       7.245740      2.307314      4.189615
  H       8.058198      2.346675      2.558416
  H       7.149151      3.738926      3.063210
13
Coordinates from ORCA-job AN_m1_shell2_oxidized_opt_relaxed E -272.286493973585
  C      -0.631895     -0.809432     -0.749737
  C       0.562560     -0.306749     -0.190825
  N       1.556823      0.111172      0.272923
  H      -0.395838     -1.422738     -1.649590
  H      -1.211691     -1.389082     -0.022383
  H      -1.230454      0.026255     -1.176092
  Li      3.324959      0.862482      1.112908
  C       7.155703      2.628888      3.146014
  C       6.002200      2.097741      2.530261
  N       5.043402      1.653482      2.018722
  H       7.246673      2.307603      4.189891
  H       8.058993      2.346813      2.558627
  H       7.150096      3.739171      3.063454
13
Coordinates from ORCA-job AN_m1_shell2_oxidized_opt_relaxed E -272.286494930970
  C      -0.632496     -0.809851     -0.750192
  C       0.561879     -0.307062     -0.191188
  N       1.556071      0.110943      0.272652
  H      -0.396358     -1.423080     -1.650049
  H      -1.212342     -1.389459     -0.022847
  H      -1.231113      0.025831     -1.176510
  Li      3.324877      0.862615      1.113006
  C       7.156528      2.629084      3.146211
  C       6.002880      2.098040      2.530622
  N       5.043953      1.653896      2.019229
  H       7.247577      2.307843      4.190094
  H       8.059709      2.346879      2.558738
  H       7.151003      3.739362      3.063623
