13
Coordinates from ORCA-job AN_m1_shell2_reduced_opt_relaxed E -272.953789817643
  C          -0.24661162733497     -0.78783220299295     -0.73997288743843
  C           0.33147581857104      0.10412433225393      0.31183020150056
  N           1.42195827250567      0.44841144168154      0.67796266017339
  H           0.54441985284008     -1.27174910534409     -1.33502835192065
  H          -0.87177750078655     -1.55542585969886     -0.27431504451332
  H          -0.89299212608249     -0.20483538059243     -1.40296546308173
  Li          3.04604236423328      0.99066985041231      1.27265879441608
  C           7.02913015957368      2.43007071283233      2.89361822297195
  C           5.69845484018078      2.05606607878956      2.47162034339854
  N           4.69624938222445      1.66302009168573      2.02835908991488
  H           7.19468161003752      2.11125498284457      3.92696557221817
  H           7.79254380433362      1.96391487245168      2.25450630891354
  H           7.14692036441869      3.51672077105630      2.84513610403782
