13
Coordinates from ORCA-job AN_m1_shell2_oxidized_opt_relaxed E -272.286494930970
  C          -0.63249620941905     -0.80985086306214     -0.75019244393276
  C           0.56187883336905     -0.30706247018801     -0.19118822236515
  N           1.55607128963890      0.11094268171399      0.27265212033494
  H          -0.39635792820849     -1.42308011649207     -1.65004941102809
  H          -1.21234166002368     -1.38945946985474     -0.02284746764706
  H          -1.23111262566657      0.02583080425497     -1.17651008848158
  Li          3.32487716670982      0.86261473195417      1.11300635412405
  C           7.15652814487334      2.62908384295526      3.14621089904247
  C           6.00288028971433      2.09803965534113      2.53062210494453
  N           5.04395300075809      1.65389634524112      2.01922870867392
  H           7.24757739642109      2.30784277770843      4.19009418120466
  H           8.05970880969757      2.34687913290237      2.55873765876066
  H           7.15100284426828      3.73936156649653      3.06362271857434
