15
 energy: -24.979293432409 gnorm: 0.000850807956 xtb: 6.7.1pre (5071a88)
C           -1.55726261971886        0.74518683734164        0.78611508165016
C           -1.53499628893869       -0.71360064619933        0.32983733877022
O           -0.37041089672931       -1.40177605419339        0.75266332088544
C            0.74202457396192       -1.29889568039820       -0.12157242556656
O            0.59075951685298       -1.44049081206145       -1.37494159173155
O            1.54039740079820       -0.11874717495494        0.35972086858925
C            2.17663762868112        0.59207545152853       -0.64231850747956
H           -0.64643018762600        1.23030664955369        0.44803798342367
H           -2.42244933568239        1.26656085987486        0.37301577762515
H           -1.58977161128481        0.79857096476907        1.87310569694532
H           -2.39859918260857       -1.25503060964975        0.74525684653016
H           -1.58036022703603       -0.76327932748417       -0.76858862693278
H            3.27221818149250        0.50122280973721       -0.55597488234540
H            1.86383051404894        0.19588521045715       -1.61900223294805
H            1.91441251378905        1.66201150167931       -0.58535464741462
