17
 energy: -29.400135472921 gnorm: 0.000790485416 xtb: 6.7.1pre (5071a88)
C            2.23290185761258       -1.15326854191227        0.11939680900302
O            0.88492603576459       -0.90629775111383        0.37015674613661
P           -0.00061551435686        0.01815980430076       -0.62745857247680
O            0.68578315510457        0.50302822043340       -1.80244571200851
O           -1.28942298841715       -0.86605763199321       -0.86167389262726
C           -2.13104204815812       -1.40242097190255        0.12661497260183
O           -0.51937571805028        1.14424399623273        0.41322969092455
C           -0.18712571395655        2.48956396688450        0.24461793392247
H            2.84638231045630       -0.67449941224304        0.89762072772642
H            2.53174148345431       -0.79592948223587       -0.86929389629014
H            2.40534437118993       -2.23316564186541        0.22923519893702
H           -2.08610348391997       -2.49788467683579        0.06373887232159
H           -3.16203573895907       -1.12200099828841       -0.12807745305228
H           -1.87283581194649       -1.06229306179911        1.12916443746600
H            0.52543316184067        2.79806063789490        1.02377100696914
H           -1.09676949738265        3.08088455658141        0.41761572325731
H            0.23281412972474        2.67987699786179       -0.74621260281110
