17
Coordinates from ORCA-job TMP_cation_cpcm_5_moread E -761.692432412384
  C           2.14812279428718     -1.28156394448836      0.14250413697288
  O           1.35837009123488     -0.06189276404166      0.16322917074632
  P           0.02470842893154      0.17498541225732     -0.68949897724097
  O           0.62538912297103      0.58853419526625     -2.03200446028318
  O          -0.83245445291928     -1.11346067820070     -0.81501491307349
  C          -1.93681864126256     -1.47346762226925      0.09772643590881
  O          -0.81509346619099      1.22845940581243      0.08551841380915
  C          -0.32894014620284      2.59600058378540      0.36451647196247
  H           3.18055494300769     -0.98007466568393     -0.04241581125975
  H           1.77310010234395     -1.98585532926798     -0.60202207200491
  H           2.06220895435537     -1.70126204859550      1.15329228525032
  H          -2.23062147104578     -2.47471008035250     -0.20964409640952
  H          -2.75007574035522     -0.76037137726668     -0.04278482422812
  H          -1.57278448542294     -1.46429207626744      1.12676339492467
  H           0.43867223987880      2.53892389256147      1.13784480146463
  H          -1.20534931858661      3.13487728075782      0.71753881487918
  H           0.06101103497581      3.03516982599313     -0.55554878141856
