10
 energy: -20.117657526138 gnorm: 0.000654431568 xtb: 6.7.1pre (5071a88)
C           -0.20932059928462       -0.94412634127274       -0.09923024510210
C           -0.87330467295527        0.42304599436643       -0.05868208681524
O            0.15305518537366        1.29765001198258        0.20580386434664
C            1.36473881910406        0.65627144998495        0.21957164846491
O            2.41536342636658        1.16502901396047        0.26839896216193
O            1.11855834578506       -0.69051994007996        0.14701781250594
H           -0.33756041418056       -1.48387203054831       -1.06164452362694
H           -0.57587455284593       -1.67521005965380        0.65461496171951
H           -1.39917827198265        0.70158738916997       -0.99669222377580
H           -1.65647726538034        0.55014451209041        0.72084184012118
