10
Coordinates from ORCA-job EC_optfreq E -342.353441833827
  C          -0.23885655340875     -0.96990182675204     -0.10976361115196
  C          -0.91203084764020      0.41631987052728     -0.06870113192012
  O           0.17868387153390      1.32755763269984      0.13559865972031
  C           1.35782488404665      0.65318783029989      0.21042015370290
  O           2.42117750193702      1.16478419026068      0.37548182869310
  O           1.15684025193872     -0.68512616003833      0.07124442040050
  H          -0.36871253834688     -1.47863762677260     -1.06961529007169
  H          -0.56794201260708     -1.62756592024005      0.70032376485243
  H          -1.41124180763043      0.67563379092021     -1.00708263235674
  H          -1.61574274982295      0.52374821909512      0.76209384813128
