10
Coordinates from ORCA-job EC_optfreq E -342.352335926385
  C      -0.228298     -0.965635     -0.108228
  C      -0.902100      0.421840     -0.067018
  O       0.176233      1.313822      0.133428
  C       1.340608      0.644793      0.207428
  O       2.397095      1.153182      0.371781
  O       1.144204     -0.678482      0.071371
  H      -0.359577     -1.472810     -1.067700
  H      -0.560210     -1.622113      0.700299
  H      -1.402428      0.678085     -1.004464
  H      -1.605527      0.527318      0.763103
10
Coordinates from ORCA-job EC_optfreq E -342.353331253098
  C      -0.233923     -0.969738     -0.109210
  C      -0.908838      0.420052     -0.067926
  O       0.179557      1.322334      0.134981
  C       1.355781      0.652094      0.210677
  O       2.419311      1.163871      0.374487
  O       1.153111     -0.681181      0.071783
  H      -0.368898     -1.478074     -1.069333
  H      -0.568790     -1.627387      0.699400
  H      -1.411602      0.674710     -1.006459
  H      -1.615709      0.523319      0.761601
10
Coordinates from ORCA-job EC_optfreq E -342.353423662431
  C      -0.236493     -0.970442     -0.109532
  C      -0.910999      0.418495     -0.068334
  O       0.179213      1.326664      0.135121
  C       1.358579      0.653537      0.209114
  O       2.422249      1.165260      0.376696
  O       1.156359     -0.684176      0.071663
  H      -0.369915     -1.478981     -1.069254
  H      -0.569534     -1.627946      0.699389
  H      -1.412909      0.674575     -1.006444
  H      -1.616550      0.523014      0.761579
10
Coordinates from ORCA-job EC_optfreq E -342.353432631215
  C      -0.238134     -0.970213     -0.109760
  C      -0.911835      0.417082     -0.068651
  O       0.178753      1.328182      0.135567
  C       1.358229      0.653255      0.213716
  O       2.422436      1.165487      0.372940
  O       1.157294     -0.685519      0.071986
  H      -0.369227     -1.478354     -1.069766
  H      -0.569184     -1.628043      0.699384
  H      -1.411956      0.674797     -1.007003
  H      -1.616376      0.523326      0.761586
10
Coordinates from ORCA-job EC_optfreq E -342.353440533786
  C      -0.238858     -0.969912     -0.109761
  C      -0.912045      0.416326     -0.068697
  O       0.178606      1.328244      0.135276
  C       1.358233      0.653400      0.209774
  O       2.421309      1.164844      0.376064
  O       1.157260     -0.685656      0.071555
  H      -0.368835     -1.478432     -1.069661
  H      -0.568465     -1.627485      0.700126
  H      -1.411655      0.675196     -1.006931
  H      -1.615551      0.523474      0.762256
10
Coordinates from ORCA-job EC_optfreq E -342.353441684889
  C      -0.238722     -0.969906     -0.109749
  C      -0.911952      0.416428     -0.068676
  O       0.178684      1.327677      0.135427
  C       1.357940      0.653241      0.210326
  O       2.421231      1.164813      0.375538
  O       1.156887     -0.685224      0.071465
  H      -0.368727     -1.478505     -1.069661
  H      -0.568234     -1.627564      0.700176
  H      -1.411440      0.675412     -1.007005
  H      -1.615667      0.523627      0.762157
10
Coordinates from ORCA-job EC_optfreq E -342.353441833827
  C      -0.238857     -0.969902     -0.109764
  C      -0.912031      0.416320     -0.068701
  O       0.178684      1.327558      0.135599
  C       1.357825      0.653188      0.210420
  O       2.421178      1.164784      0.375482
  O       1.156840     -0.685126      0.071244
  H      -0.368713     -1.478638     -1.069615
  H      -0.567942     -1.627566      0.700324
  H      -1.411242      0.675634     -1.007083
  H      -1.615743      0.523748      0.762094
