33
Coordinates from ORCA-job DME_m1_shell2_cation_opt E -625.006947666194
  C           2.34435994706535      0.04614369675862     -1.91858467521427
  O           0.91952833305988      0.16996400536911     -1.78049978806324
  C           0.43585055353548     -0.36596139623320     -0.54013798146331
  C          -1.06917319238960     -0.26495190333932     -0.56533085608948
  O          -1.39889801100213      1.10159597482523     -0.86562408136275
  C          -2.81114798685826      1.35239066696907     -0.83204668090915
  H           2.60926371790898      0.47185309831882     -2.88816538317943
  H           2.86126082272785      0.59226286755914     -1.11891588461788
  H           2.63819058694673     -1.00969236627755     -1.89446597574496
  H           0.85352947333715      0.20967186008455      0.30077665893583
  H           0.73553306818661     -1.41801925523402     -0.43247248717277
  H          -1.49451314713489     -0.92457996466913     -1.33701087522139
  H          -1.47904996222951     -0.55144417365870      0.41337847650767
  H          -3.33771949375905      0.71968799268180     -1.55865477538598
  H          -3.20913225729254      1.16416616917760      0.17215851522334
  H          -2.95663106850425      2.40427447569282     -1.08708519206552
  Li         -0.09577339264285      1.78924612020636     -2.12867750531804
  C          -1.62405870009162      2.19750524762147     -4.75834559217665
  O          -0.58553583543319      2.57141604599693     -3.84117979554721
  C          -0.32263042525671      3.98305527456290     -3.83244079797258
  C           0.87986995565405      4.18582972287850     -2.93394313008614
  O           0.67061558793659      3.53663517587521     -1.66680803748351
  C           0.04548482799205      4.37600107348851     -0.68099305849033
  H          -1.74641122663343      1.11540968795321     -4.68115688244956
  H          -2.56754644310669      2.69711771833367     -4.50193914061242
  H          -1.34004074434119      2.45739910611615     -5.78485347991289
  H          -1.20954496180561      4.52297948451599     -3.46531338399429
  H          -0.09630227259339      4.33848115511211     -4.84827627074837
  H           1.76142933466940      3.70992306795887     -3.37835657369822
  H           1.09222441470999      5.25382852870126     -2.79811980640882
  H           0.70345639410146      5.21560622764260     -0.42919938827846
  H          -0.92114624613738      4.76080835505392     -1.03189456482149
  H          -0.11200031541929      3.75776183955744      0.20482514022239
