33
Coordinates from ORCA-job DME_m1_shell2_cation_opt E -625.000165321878
  C       2.338362      0.184179     -1.968302
  O       0.946468      0.360391     -1.802996
  C       0.466259     -0.202281     -0.600666
  C      -1.049443     -0.227904     -0.663750
  O      -1.500050      1.070865     -0.984415
  C      -2.902830      1.199666     -0.878847
  H       2.603906      0.610430     -2.931449
  H       2.896534      0.691601     -1.176964
  H       2.595306     -0.879579     -1.963876
  H       0.795162      0.404435      0.252125
  H       0.842896     -1.225337     -0.479954
  H      -1.377864     -0.935524     -1.436019
  H      -1.452220     -0.543838      0.306758
  H      -3.413474      0.514302     -1.561430
  H      -3.233691      0.996606      0.144531
  H      -3.152715      2.223941     -1.140418
  Li     -0.179054      1.820108     -2.064681
  C      -1.717411      2.239637     -4.672883
  O      -0.725475      2.527488     -3.709454
  C      -0.250181      3.854984     -3.786983
  C       0.928296      3.954723     -2.827801
  O       0.574210      3.477775     -1.548180
  C       0.093174      4.478829     -0.671012
  H      -2.005628      1.201673     -4.534898
  H      -2.592581      2.882808     -4.540396
  H      -1.325041      2.374307     -5.685252
  H      -1.047256      4.555101     -3.503266
  H       0.078999      4.088806     -4.807105
  H       1.725119      3.300447     -3.188959
  H       1.300327      4.982333     -2.777422
  H       0.864004      5.234999     -0.494512
  H      -0.805245      4.964174     -1.058174
  H      -0.145521      3.986219      0.267295
33
Coordinates from ORCA-job DME_m1_shell2_cation_opt E -625.003361345604
  C       2.355698      0.180933     -1.975527
  O       0.949034      0.349603     -1.801788
  C       0.465292     -0.220834     -0.585153
  C      -1.047776     -0.247962     -0.650507
  O      -1.500116      1.066807     -0.977912
  C      -2.916148      1.207909     -0.879427
  H       2.619049      0.612244     -2.943232
  H       2.916513      0.691920     -1.181123
  H       2.619031     -0.883941     -1.975714
  H       0.800334      0.384395      0.273225
  H       0.839324     -1.247079     -0.462368
  H      -1.380986     -0.960909     -1.421643
  H      -1.448475     -0.564675      0.323244
  H      -3.429841      0.519799     -1.564453
  H      -3.253971      1.011398      0.145828
  H      -3.161965      2.237344     -1.147795
  Li     -0.177028      1.818770     -2.065563
  C      -1.730608      2.235688     -4.681624
  O      -0.722685      2.531443     -3.716486
  C      -0.240278      3.872659     -3.795832
  C       0.940675      3.965331     -2.841013
  O       0.579459      3.482013     -1.547190
  C       0.084165      4.485423     -0.658345
  H      -2.023871      1.193903     -4.538158
  H      -2.606687      2.884188     -4.546460
  H      -1.342904      2.363907     -5.699981
  H      -1.038651      4.578304     -3.514493
  H       0.090856      4.108726     -4.818009
  H       1.742809      3.310305     -3.205199
  H       1.319473      4.994050     -2.792826
  H       0.852455      5.246206     -0.474156
  H      -0.818810      4.970745     -1.051759
  H      -0.160023      3.987751      0.282087
33
Coordinates from ORCA-job DME_m1_shell2_cation_opt E -625.004402806357
  C       2.364260      0.173631     -1.969349
  O       0.947972      0.332537     -1.799093
  C       0.463524     -0.241388     -0.572867
  C      -1.046526     -0.268642     -0.639636
  O      -1.496769      1.058064     -0.966057
  C      -2.920421      1.203991     -0.876417
  H       2.625711      0.610323     -2.936039
  H       2.916365      0.687778     -1.170341
  H       2.632136     -0.889947     -1.972577
  H       0.807284      0.362178      0.283460
  H       0.836680     -1.268221     -0.451174
  H      -1.387868     -0.977308     -1.410885
  H      -1.446971     -0.585323      0.334224
  H      -3.429598      0.513755     -1.563249
  H      -3.262312      1.013075      0.148418
  H      -3.159844      2.234177     -1.150980
  Li     -0.175511      1.816798     -2.066833
  C      -1.740155      2.244983     -4.686577
  O      -0.718146      2.540474     -3.724937
  C      -0.235476      3.891663     -3.802178
  C       0.948756      3.978601     -2.855286
  O       0.589046      3.487967     -1.551923
  C       0.078508      4.494257     -0.663274
  H      -2.036571      1.204197     -4.536279
  H      -2.610924      2.899372     -4.543814
  H      -1.357135      2.367603     -5.707390
  H      -1.036768      4.593416     -3.520165
  H       0.091684      4.130559     -4.825314
  H       1.754594      3.327187     -3.218720
  H       1.330828      5.006607     -2.806309
  H       0.843080      5.257309     -0.473691
  H      -0.823573      4.973493     -1.068441
  H      -0.172521      3.993199      0.274340
33
Coordinates from ORCA-job DME_m1_shell2_cation_opt E -625.005114128284
  C       2.367888      0.163921     -1.953645
  O       0.944071      0.308385     -1.794810
  C       0.460946     -0.266568     -0.561868
  C      -1.045989     -0.290884     -0.627602
  O      -1.490626      1.045427     -0.948377
  C      -2.919111      1.192668     -0.870789
  H       2.628692      0.607123     -2.917323
  H       2.904192      0.682727     -1.147744
  H       2.642645     -0.897347     -1.958614
  H       0.815010      0.335848      0.289868
  H       0.833991     -1.293787     -0.443748
  H      -1.397755     -0.990694     -1.400843
  H      -1.447845     -0.606744      0.345706
  H      -3.419861      0.499663     -1.560169
  H      -3.265936      1.006950      0.152776
  H      -3.151322      2.222506     -1.152153
  Li     -0.174230      1.814122     -2.068859
  C      -1.747989      2.263509     -4.690244
  O      -0.711523      2.554008     -3.736267
  C      -0.233030      3.912633     -3.809274
  C       0.955126      3.995654     -2.872759
  O       0.603417      3.496382     -1.562772
  C       0.075104      4.503551     -0.678499
  H      -2.047097      1.224751     -4.532775
  H      -2.611046      2.924623     -4.536256
  H      -1.371107      2.381895     -5.713277
  H      -1.038833      4.606189     -3.523355
  H       0.086248      4.155096     -4.833900
  H       1.764422      3.349813     -3.236228
  H       1.337728      5.023299     -2.820015
  H       0.834231      5.270107     -0.484395
  H      -0.825778      4.973036     -1.096449
  H      -0.181290      3.998502      0.255308
33
Coordinates from ORCA-job DME_m1_shell2_cation_opt E -625.005764963352
  C       2.366554      0.153267     -1.929506
  O       0.936937      0.275844     -1.788228
  C       0.457413     -0.298147     -0.551321
  C      -1.046909     -0.314773     -0.612219
  O      -1.481733      1.029008     -0.923645
  C      -2.912620      1.176503     -0.862545
  H       2.627968      0.603239     -2.889252
  H       2.881159      0.679806     -1.115664
  H       2.653942     -0.904123     -1.933797
  H       0.822467      0.303179      0.295233
  H       0.829889     -1.326112     -0.438818
  H      -1.410600     -1.003032     -1.389014
  H      -1.451191     -0.629363      0.360256
  H      -3.402660      0.481111     -1.556031
  H      -3.267720      0.994992      0.158368
  H      -3.137139      2.205691     -1.150513
  Li     -0.173386      1.810767     -2.071996
  C      -1.753631      2.289255     -4.694024
  O      -0.702318      2.572407     -3.751879
  C      -0.232250      3.936022     -3.819453
  C       0.960650      4.018220     -2.894795
  O       0.623234      3.508263     -1.581581
  C       0.074276      4.510593     -0.701079
  H      -2.054093      1.252342     -4.530854
  H      -2.608804      2.955986     -4.525751
  H      -1.385930      2.406371     -5.719929
  H      -1.043437      4.618895     -3.526253
  H       0.075834      4.183402     -4.846061
  H       1.773115      3.379979     -3.261747
  H       1.340112      5.046510     -2.834845
  H       0.824433      5.284159     -0.503111
  H      -0.828133      4.966668     -1.128162
  H      -0.182087      3.999435      0.228862
33
Coordinates from ORCA-job DME_m1_shell2_cation_opt E -625.006287082447
  C       2.360168      0.146081     -1.905079
  O       0.928124      0.242784     -1.779925
  C       0.453563     -0.329174     -0.543123
  C      -1.050065     -0.333890     -0.596067
  O      -1.472659      1.013521     -0.897321
  C      -2.902824      1.163387     -0.853236
  H       2.622398      0.599917     -2.862261
  H       2.854647      0.683187     -1.086358
  H       2.665601     -0.906062     -1.904960
  H       0.826608      0.270353      0.300708
  H       0.823470     -1.358583     -0.436295
  H      -1.423344     -1.012159     -1.376730
  H      -1.456299     -0.648104      0.375536
  H      -3.384809      0.469012     -1.552697
  H      -3.269383      0.982477      0.163507
  H      -3.120695      2.192868     -1.143670
  Li     -0.173487      1.807669     -2.075520
  C      -1.753844      2.312255     -4.698651
  O      -0.692243      2.590885     -3.768735
  C      -0.233313      3.956089     -3.831789
  C       0.964382      4.042214     -2.916366
  O       0.643519      3.521301     -1.605127
  C       0.076755      4.510414     -0.722144
  H      -2.051790      1.275184     -4.535041
  H      -2.606029      2.978836     -4.517342
  H      -1.397134      2.433673     -5.727662
  H      -1.048768      4.629567     -3.529648
  H       0.063671      4.209538     -4.859990
  H       1.778925      3.412415     -3.291473
  H       1.336274      5.072537     -2.847573
  H       0.814618      5.294811     -0.521759
  H      -0.832440      4.952413     -1.147830
  H      -0.170255      3.990948      0.205270
33
Coordinates from ORCA-job DME_m1_shell2_cation_opt E -625.006611728950
  C       2.351639      0.144488     -1.890748
  O       0.920431      0.218995     -1.771590
  C       0.450240     -0.351536     -0.537994
  C      -1.054917     -0.343773     -0.583107
  O      -1.466680      1.003904     -0.876921
  C      -2.893915      1.160819     -0.844283
  H       2.612564      0.597316     -2.848668
  H       2.835864      0.692851     -1.073216
  H       2.675577     -0.902301     -1.883631
  H       0.826359      0.244950      0.307109
  H       0.815007     -1.383115     -0.434646
  H      -1.432857     -1.017209     -1.366351
  H      -1.461165     -0.659466      0.387980
  H      -3.374928      0.473017     -1.551050
  H      -3.271810      0.975622      0.167717
  H      -3.106484      2.192629     -1.130087
  Li     -0.174588      1.805704     -2.078092
  C      -1.747048      2.322453     -4.704864
  O      -0.683493      2.603777     -3.782077
  C      -0.235630      3.968405     -3.842894
  C       0.965791      4.062146     -2.931076
  O       0.657927      3.531664     -1.625880
  C       0.080745      4.502214     -0.733255
  H      -2.036920      1.282271     -4.547297
  H      -2.604321      2.980639     -4.515980
  H      -1.399653      2.453642     -5.736029
  H      -1.053204      4.636567     -3.533279
  H       0.054215      4.228196     -4.871520
  H       1.781544      3.440430     -3.316881
  H       1.327004      5.095668     -2.855132
  H       0.805327      5.298855     -0.531556
  H      -0.839216      4.932814     -1.147206
  H      -0.150064      3.973729      0.193151
33
Coordinates from ORCA-job DME_m1_shell2_cation_opt E -625.006729538489
  C       2.346144      0.146645     -1.889302
  O       0.916579      0.210188     -1.766648
  C       0.448090     -0.360600     -0.536081
  C      -1.059077     -0.345150     -0.577527
  O      -1.464932      1.002175     -0.868247
  C      -2.889594      1.168202     -0.838093
  H       2.603911      0.595603     -2.850140
  H       2.830580      0.702765     -1.076553
  H       2.681427     -0.896868     -1.876426
  H       0.823898      0.232347      0.312398
  H       0.807269     -1.394278     -0.433474
  H      -1.437563     -1.018485     -1.361377
  H      -1.463754     -0.663288      0.393489
  H      -3.375430      0.489924     -1.551347
  H      -3.273943      0.976213      0.170563
  H      -3.097879      2.203618     -1.114661
  Li     -0.175571      1.804970     -2.079019
  C      -1.737854      2.318904     -4.710351
  O      -0.678211      2.607813     -3.787879
  C      -0.238002      3.972378     -3.848198
  C       0.965475      4.072722     -2.935919
  O       0.663613      3.535450     -1.636007
  C       0.083154      4.491970     -0.733674
  H      -2.017173      1.274450     -4.560721
  H      -2.604178      2.965239     -4.519547
  H      -1.395161      2.460179     -5.742105
  H      -1.056115      4.638881     -3.534653
  H       0.049615      4.237110     -4.876277
  H       1.782350      3.457176     -3.329989
  H       1.317446      5.109239     -2.857258
  H       0.798258      5.297427     -0.531189
  H      -0.845574      4.916193     -1.135720
  H      -0.134455      3.957255      0.192577
33
Coordinates from ORCA-job DME_m1_shell2_cation_opt E -625.006766677482
  C       2.343969      0.149065     -1.892266
  O       0.915173      0.209653     -1.765333
  C       0.446714     -0.361852     -0.535962
  C      -1.061433     -0.343382     -0.577013
  O      -1.464866      1.004385     -0.866880
  C      -2.888388      1.176871     -0.834967
  H       2.599026      0.594552     -2.855645
  H       2.831126      0.709112     -1.083443
  H       2.683494     -0.893219     -1.876028
  H       0.822151      0.228495      0.314868
  H       0.802125     -1.396897     -0.433136
  H      -1.439746     -1.017521     -1.360596
  H      -1.464720     -0.663182      0.394112
  H      -3.378902      0.506485     -1.552861
  H      -3.274712      0.978791      0.171935
  H      -3.093413      2.215343     -1.103064
  Li     -0.175879      1.804732     -2.079298
  C      -1.731206      2.311514     -4.713407
  O      -0.675526      2.607082     -3.788862
  C      -0.239865      3.972734     -3.848973
  C       0.964703      4.076614     -2.936096
  O       0.665115      3.534582     -1.638624
  C       0.083955      4.484445     -0.730698
  H      -2.001755      1.263790     -4.569220
  H      -2.604556      2.948620     -4.522278
  H      -1.390015      2.459657     -5.744876
  H      -1.058445      4.638245     -3.533740
  H       0.047290      4.240424     -4.876462
  H       1.783017      3.465503     -3.334548
  H       1.310859      5.115124     -2.857169
  H       0.794251      5.294307     -0.527898
  H      -0.849283      4.905716     -1.126420
  H      -0.126917      3.946578      0.195497
33
Coordinates from ORCA-job DME_m1_shell2_cation_opt E -625.006792091909
  C       2.342296      0.151681     -1.894826
  O       0.913712      0.210269     -1.765316
  C       0.444905     -0.361907     -0.536479
  C      -1.063639     -0.340764     -0.577727
  O      -1.464427      1.008217     -0.866657
  C      -2.887247      1.186601     -0.832369
  H       2.595066      0.593581     -2.860599
  H       2.830944      0.715590     -1.089350
  H       2.684724     -0.889692     -1.874989
  H       0.821054      0.225848      0.315974
  H       0.796824     -1.398255     -0.433794
  H      -1.442769     -1.014856     -1.361049
  H      -1.466001     -0.661617      0.393499
  H      -3.381801      0.524791     -1.555657
  H      -3.274639      0.981361      0.172771
  H      -3.088387      2.228365     -1.090931
  Li     -0.175743      1.804335     -2.079986
  C      -1.724751      2.302964     -4.715778
  O      -0.672406      2.605164     -3.789261
  C      -0.242296      3.972884     -3.848615
  C       0.963587      4.080061     -2.936348
  O       0.667170      3.531873     -1.640659
  C       0.084830      4.475975     -0.727543
  H      -1.985390      1.251913     -4.576586
  H      -2.604785      2.930532     -4.523111
  H      -1.385027      2.458196     -5.746774
  H      -1.062258      4.635827     -3.531337
  H       0.043507      4.243666     -4.875675
  H       1.784302      3.474747     -3.338830
  H       1.303540      5.120612     -2.856808
  H       0.790743      5.289719     -0.524567
  H      -0.852339      4.893933     -1.118194
  H      -0.119959      3.934752      0.198217
33
Coordinates from ORCA-job DME_m1_shell2_cation_opt E -625.006818831991
  C       2.340288      0.154908     -1.896083
  O       0.911442      0.210575     -1.766260
  C       0.442184     -0.362029     -0.537614
  C      -1.066341     -0.336893     -0.578723
  O      -1.463002      1.014097     -0.866222
  C      -2.885247      1.198700     -0.829809
  H       2.591212      0.592569     -2.864329
  H       2.828188      0.723953     -1.093694
  H       2.685814     -0.885355     -1.871277
  H       0.820602      0.222837      0.315796
  H       0.790282     -1.399853     -0.435850
  H      -1.447925     -1.009632     -1.361958
  H      -1.468428     -0.657978      0.392582
  H      -3.383174      0.547379     -1.560346
  H      -3.273827      0.984173      0.172923
  H      -3.081289      2.244346     -1.076559
  Li     -0.175062      1.803521     -2.081605
  C      -1.717208      2.292781     -4.717908
  O      -0.667475      2.602301     -3.790257
  C      -0.245904      3.973247     -3.847837
  C       0.961834      4.084912     -2.937829
  O       0.671344      3.527421     -1.644220
  C       0.086436      4.464000     -0.724515
  H      -1.965149      1.237872     -4.584264
  H      -2.604459      2.908885     -4.521336
  H      -1.380137      2.456946     -5.748383
  H      -1.068799      4.630830     -3.527133
  H       0.036538      4.248206     -4.874684
  H       1.786549      3.488577     -3.345333
  H       1.293264      5.128050     -2.855876
  H       0.786885      5.282341     -0.521199
  H      -0.855413      4.876951     -1.109571
  H      -0.110680      3.917729      0.200022
33
Coordinates from ORCA-job DME_m1_shell2_cation_opt E -625.006848673114
  C       2.337817      0.158691     -1.895474
  O       0.908229      0.210026     -1.768282
  C       0.438561     -0.362299     -0.539402
  C      -1.069557     -0.331122     -0.579382
  O      -1.460257      1.022518     -0.865195
  C      -2.882034      1.213215     -0.827910
  H       2.587828      0.591587     -2.866067
  H       2.822002      0.734313     -1.095628
  H       2.686809     -0.880184     -1.864162
  H       0.821021      0.219792      0.313960
  H       0.782662     -1.401681     -0.439381
  H      -1.455518     -1.001069     -1.362715
  H      -1.472330     -0.651043      0.392012
  H      -3.381903      0.573478     -1.567233
  H      -3.272404      0.987990      0.171684
  H      -3.072144      2.262921     -1.061592
  Li     -0.173548      1.802135     -2.084572
  C      -1.708691      2.281355     -4.719482
  O      -0.659971      2.598268     -3.792546
  C      -0.250794      3.973561     -3.846894
  C       0.959258      4.091678     -2.940991
  O       0.678428      3.521196     -1.650201
  C       0.089081      4.447309     -0.721865
  H      -1.941652      1.222301     -4.591868
  H      -2.603115      2.884517     -4.515837
  H      -1.376332      2.456313     -5.749626
  H      -1.078546      4.622217     -3.520884
  H       0.025513      4.254197     -4.873804
  H       1.789865      3.508340     -3.354867
  H       1.279106      5.137974     -2.853438
  H       0.782698      5.271046     -0.517455
  H      -0.858373      4.853298     -1.100453
  H      -0.098371      3.893530      0.200197
33
Coordinates from ORCA-job DME_m1_shell2_cation_opt E -625.006871413705
  C       2.335775      0.161364     -1.893360
  O       0.905331      0.208569     -1.770683
  C       0.435484     -0.362300     -0.541062
  C      -1.072101     -0.324801     -0.578967
  O      -1.457052      1.030991     -0.863837
  C      -2.878599      1.225333     -0.827981
  H       2.586395      0.590819     -2.865218
  H       2.814736      0.742476     -1.094557
  H       2.687313     -0.876371     -1.856465
  H       0.822159      0.218601      0.311066
  H       0.776839     -1.402699     -0.442582
  H      -1.462700     -0.991767     -1.362433
  H      -1.476325     -0.642244      0.392558
  H      -3.378039      0.593001     -1.573777
  H      -3.271073      0.993064      0.169056
  H      -3.064505      2.277492     -1.053473
  Li     -0.171397      1.800600     -2.088162
  C      -1.702163      2.272682     -4.719937
  O      -0.651933      2.594124     -3.795985
  C      -0.255346      3.973374     -3.846274
  C       0.956552      4.098303     -2.944744
  O       0.686288      3.515533     -1.656825
  C       0.091977      4.430884     -0.720234
  H      -1.923712      1.210731     -4.596812
  H      -2.600939      2.866316     -4.508163
  H      -1.375583      2.456545     -5.750267
  H      -1.088368      4.612207     -3.514575
  H       0.013783      4.259789     -4.873419
  H       1.792975      3.527910     -3.364467
  H       1.265193      5.147242     -2.849387
  H       0.779631      5.258898     -0.513583
  H      -0.860135      4.830576     -1.093365
  H      -0.087118      3.869121      0.198561
33
Coordinates from ORCA-job DME_m1_shell2_cation_opt E -625.006882765392
  C       2.334567      0.162052     -1.891375
  O       0.903553      0.206660     -1.772606
  C       0.433597     -0.361759     -0.541924
  C      -1.073668     -0.319098     -0.577654
  O      -1.454303      1.037929     -0.862611
  C      -2.875702      1.234047     -0.829613
  H       2.586603      0.589751     -2.863547
  H       2.809394      0.746378     -1.092615
  H       2.687395     -0.875044     -1.851029
  H       0.823219      0.219581      0.308529
  H       0.773315     -1.402631     -0.443731
  H      -1.467680     -0.984122     -1.361057
  H      -1.479274     -0.633819      0.394078
  H      -3.373752      0.603910     -1.578072
  H      -3.270303      1.000105      0.166122
  H      -3.059490      2.286901     -1.053270
  Li     -0.168930      1.799315     -2.091611
  C      -1.697847      2.267098     -4.720091
  O      -0.644825      2.590531     -3.800103
  C      -0.259060      3.972828     -3.846012
  C       0.954046      4.103865     -2.947857
  O       0.692986      3.511820     -1.662349
  C       0.094451      4.417637     -0.718921
  H      -1.912688      1.203504     -4.599905
  H      -2.598582      2.855092     -4.501236
  H      -1.376996      2.457127     -5.751043
  H      -1.096608      4.603017     -3.509170
  H       0.003580      4.264834     -4.873221
  H       1.794952      3.543865     -3.372371
  H       1.253441      5.154695     -2.844762
  H       0.777722      5.248388     -0.508964
  H      -0.860883      4.813148     -1.087884
  H      -0.078888      3.848761      0.196521
33
Coordinates from ORCA-job DME_m1_shell2_cation_opt E -625.006888652663
  C       2.335045      0.160141     -1.891864
  O       0.904082      0.206356     -1.773188
  C       0.434160     -0.359974     -0.541518
  C      -1.073150     -0.316945     -0.576662
  O      -1.453946      1.039695     -0.862967
  C      -2.875461      1.234518     -0.831863
  H       2.587936      0.588689     -2.863417
  H       2.810291      0.743101     -1.092383
  H       2.686366     -0.877497     -1.852598
  H       0.823783      0.223220      0.307703
  H       0.774328     -1.400500     -0.441944
  H      -1.467208     -0.982511     -1.359641
  H      -1.479060     -0.630375      0.395322
  H      -3.372299      0.600030     -1.577444
  H      -3.270367      1.005172      0.164834
  H      -3.060469      2.285971     -1.061010
  Li     -0.167595      1.799079     -2.092706
  C      -1.698113      2.267192     -4.719781
  O      -0.643063      2.589127     -3.801804
  C      -0.259528      3.971936     -3.845691
  C       0.953323      4.104419     -2.947712
  O       0.693998      3.511620     -1.662378
  C       0.094440      4.415750     -0.718137
  H      -1.914616      1.204006     -4.599179
  H      -2.597562      2.856662     -4.499451
  H      -1.378875      2.456974     -5.751282
  H      -1.098228      4.600076     -3.507674
  H       0.001705      4.265852     -4.872717
  H       1.795012      3.545954     -3.372714
  H       1.250986      5.155471     -2.842232
  H       0.777871      5.245803     -0.505881
  H      -0.860377      4.812107     -1.087426
  H      -0.080069      3.845249      0.196051
33
Coordinates from ORCA-job DME_m1_shell2_cation_opt E -625.006894576752
  C       2.335581      0.156115     -1.894029
  O       0.904939      0.205783     -1.773846
  C       0.435094     -0.356773     -0.540409
  C      -1.072373     -0.313473     -0.574962
  O      -1.453491      1.042533     -0.863597
  C      -2.875005      1.236452     -0.834702
  H       2.589036      0.585709     -2.864986
  H       2.813166      0.736597     -1.094104
  H       2.684275     -0.882498     -1.856743
  H       0.824535      0.229278      0.307008
  H       0.775312     -1.396931     -0.437801
  H      -1.466254     -0.980482     -1.356878
  H      -1.478122     -0.625210      0.397614
  H      -3.371149      0.595416     -1.575170
  H      -3.270274      1.014982      0.163682
  H      -3.061304      2.285753     -1.072609
  Li     -0.165305      1.798735     -2.094511
  C      -1.697165      2.266216     -4.720406
  O      -0.639953      2.587006     -3.804760
  C      -0.260655      3.970988     -3.844844
  C       0.951980      4.105924     -2.946929
  O       0.695134      3.511535     -1.661915
  C       0.093754      4.412575     -0.716212
  H      -1.914571      1.203167     -4.600215
  H      -2.595856      2.856172     -4.497960
  H      -1.380459      2.456844     -5.752565
  H      -1.101234      4.595657     -3.504741
  H      -0.001311      4.268870     -4.871223
  H       1.794940      3.550196     -3.373057
  H       1.246225      5.157635     -2.838679
  H       0.776947      5.241801     -0.499740
  H      -0.860284      4.810425     -1.085967
  H      -0.082813      3.839367      0.195903
33
Coordinates from ORCA-job DME_m1_shell2_cation_opt E -625.006898569749
  C       2.335626      0.151880     -1.896751
  O       0.905363      0.204976     -1.774409
  C       0.435598     -0.354010     -0.539302
  C      -1.071976     -0.310166     -0.573370
  O      -1.452846      1.045490     -0.864040
  C      -2.874188      1.240106     -0.836052
  H       2.588947      0.581749     -2.867651
  H       2.816056      0.730470     -1.097108
  H       2.681975     -0.887586     -1.860808
  H       0.825333      0.234102      0.306598
  H       0.775051     -1.394126     -0.433759
  H      -1.466134     -0.978526     -1.354013
  H      -1.477143     -0.620430      0.399938
  H      -3.370947      0.594845     -1.572473
  H      -3.269551      1.024825      0.163692
  H      -3.060450      2.288004     -1.080240
  Li     -0.163078      1.798339     -2.096435
  C      -1.694409      2.263788     -4.722224
  O      -0.636446      2.585241     -3.807744
  C      -0.262415      3.970819     -3.843747
  C       0.950284      4.108420     -2.946102
  O       0.696146      3.511285     -1.661680
  C       0.092663      4.408661     -0.714047
  H      -1.909509      1.200033     -4.603970
  H      -2.594194      2.851258     -4.497380
  H      -1.380112      2.457348     -5.754601
  H      -1.105115      4.591408     -3.501264
  H      -0.004926      4.273196     -4.869302
  H       1.794842      3.556340     -3.373794
  H       1.240311      5.161101     -2.835959
  H       0.774732      5.237829     -0.493628
  H      -0.861167      4.807178     -1.083773
  H      -0.084980      3.832520      0.196046
33
Coordinates from ORCA-job DME_m1_shell2_cation_opt E -625.006903141815
  C       2.335190      0.145188     -1.900940
  O       0.905487      0.203354     -1.775281
  C       0.435863     -0.350620     -0.537847
  C      -1.071766     -0.305327     -0.570973
  O      -1.451472      1.050090     -0.864459
  C      -2.872403      1.247223     -0.836401
  H       2.587908      0.574668     -2.872203
  H       2.819873      0.721606     -1.102238
  H       2.678155     -0.895467     -1.866178
  H       0.826854      0.239679      0.305968
  H       0.773463     -1.390985     -0.428425
  H      -1.467168     -0.975407     -1.349485
  H      -1.475817     -0.613238      0.403596
  H      -3.371238      0.598113     -1.568060
  H      -3.267410      1.039171      0.165055
  H      -3.057286      2.293842     -1.087212
  Li     -0.159744      1.797650     -2.099623
  C      -1.688426      2.258968     -4.726245
  O      -0.630697      2.583095     -3.812383
  C      -0.265782      3.971420     -3.841989
  C       0.947111      4.113328     -2.944982
  O       0.697484      3.510815     -1.661863
  C       0.090572      4.402071     -0.710774
  H      -1.896552      1.193299     -4.612596
  H      -2.591664      2.839538     -4.497162
  H      -1.377659      2.459315     -5.758413
  H      -1.112076      4.584982     -3.495663
  H      -0.011219      4.280854     -4.866197
  H       1.794541      3.567804     -3.375306
  H       1.230096      5.167689     -2.832536
  H       0.770086      5.231957     -0.485037
  H      -0.863656      4.800451     -1.079837
  H      -0.087307      3.821239      0.196335
33
Coordinates from ORCA-job DME_m1_shell2_cation_opt E -625.006906769752
  C       2.334529      0.138613     -1.904483
  O       0.905294      0.201507     -1.776075
  C       0.435794     -0.348479     -0.536817
  C      -1.071777     -0.301218     -0.568748
  O      -1.449797      1.054147     -0.864691
  C      -2.870254      1.254441     -0.835205
  H       2.586666      0.567181     -2.876307
  H       2.822829      0.713451     -1.106829
  H       2.674256     -0.903125     -1.870162
  H       0.828656      0.242989      0.305286
  H       0.771350     -1.389273     -0.424701
  H      -1.469083     -0.972538     -1.345170
  H      -1.474782     -0.606662      0.407075
  H      -3.371765      0.603725     -1.563599
  H      -3.264247      1.051128      0.167633
  H      -3.053076      2.300543     -1.089721
  Li     -0.156724      1.796976     -2.102785
  C      -1.681819      2.254248     -4.730956
  O      -0.625370      2.581782     -3.816692
  C      -0.269276      3.972653     -3.840562
  C       0.943569      4.118571     -2.944045
  O       0.698052      3.510650     -1.662446
  C       0.088088      4.396266     -0.707982
  H      -1.881143      1.186320     -4.622782
  H      -2.589365      2.826339     -4.497581
  H      -1.374009      2.462507     -5.762433
  H      -1.119095      4.579374     -3.490896
  H      -0.017262      4.288233     -4.863535
  H       1.793905      3.579437     -3.376589
  H       1.220160      5.174460     -2.829848
  H       0.764877      5.227316     -0.478373
  H      -0.867044      4.793569     -1.075968
  H      -0.088795      3.811236      0.196635
33
Coordinates from ORCA-job DME_m1_shell2_cation_opt E -625.006911066848
  C       2.333711      0.129581     -1.908427
  O       0.905027      0.198871     -1.777031
  C       0.435620     -0.346856     -0.535876
  C      -1.071793     -0.296384     -0.565928
  O      -1.447156      1.058987     -0.865003
  C      -2.866948      1.263652     -0.832386
  H       2.585447      0.556629     -2.881004
  H       2.826252      0.702525     -1.112037
  H       2.668866     -0.913636     -1.874231
  H       0.831401      0.245337      0.304305
  H       0.768478     -1.388321     -0.421442
  H      -1.472135     -0.968966     -1.339632
  H      -1.473666     -0.598268      0.411511
  H      -3.372362      0.612286     -1.557460
  H      -3.258834      1.064723      0.172144
  H      -3.046868      2.309569     -1.089704
  Li     -0.152807      1.796091     -2.107040
  C      -1.672948      2.248645     -4.737671
  O      -0.618833      2.580767     -3.822180
  C      -0.273829      3.974642     -3.839225
  C       0.938396      4.125609     -2.942833
  O       0.697557      3.511045     -1.663430
  C       0.084107      4.389930     -0.704779
  H      -1.859836      1.177718     -4.637294
  H      -2.586430      2.808798     -4.498657
  H      -1.368601      2.467972     -5.767847
  H      -1.128220      4.572722     -3.485933
  H      -0.024665      4.297244     -4.860705
  H       1.792541      3.594409     -3.377604
  H       1.207474      5.183230     -2.826470
  H       0.757453      5.222720     -0.471502
  H      -0.872567      4.785103     -1.071061
  H      -0.090491      3.799990      0.197079
33
Coordinates from ORCA-job DME_m1_shell2_cation_opt E -625.006915916648
  C       2.333130      0.118398     -1.912257
  O       0.905062      0.195683     -1.777971
  C       0.435585     -0.346126     -0.535144
  C      -1.071606     -0.291290     -0.562884
  O      -1.443519      1.064132     -0.865565
  C      -2.862502      1.273778     -0.828250
  H       2.585011      0.543569     -2.885579
  H       2.830287      0.688965     -1.117078
  H       2.662371     -0.926683     -1.878059
  H       0.834896      0.246240      0.303198
  H       0.765398     -1.388424     -0.419227
  H      -1.475710     -0.965027     -1.333582
  H      -1.472592     -0.588784      0.416286
  H      -3.372675      0.622521     -1.550030
  H      -3.251214      1.078609      0.178226
  H      -3.039294      2.319752     -1.087424
  Li     -0.148051      1.795047     -2.112070
  C      -1.663040      2.243136     -4.745595
  O      -0.611813      2.580099     -3.828374
  C      -0.278828      3.976997     -3.838408
  C       0.931895      4.133631     -2.941284
  O       0.695295      3.512364     -1.664501
  C       0.078455      4.384401     -0.701523
  H      -1.835914      1.169065     -4.654353
  H      -2.583023      2.789710     -4.500300
  H      -1.362425      2.475177     -5.774034
  H      -1.138367      4.565743     -3.481997
  H      -0.032286      4.306514     -4.858298
  H       1.790341      3.610780     -3.377707
  H       1.193340      5.192893     -2.822235
  H       0.748214      5.219201     -0.465320
  H      -0.880167      4.776699     -1.065729
  H      -0.092912      3.789592      0.197717
33
Coordinates from ORCA-job DME_m1_shell2_cation_opt E -625.006918225969
  C       2.331829      0.086790     -1.922517
  O       0.905751      0.186913     -1.780733
  C       0.435801     -0.344220     -0.533482
  C      -1.070781     -0.276049     -0.554889
  O      -1.432346      1.079664     -0.867480
  C      -2.848839      1.303224     -0.817678
  H       2.584969      0.506767     -2.897676
  H       2.841692      0.650332     -1.130488
  H       2.644047     -0.963465     -1.888302
  H       0.844670      0.248499      0.299930
  H       0.756874     -1.388842     -0.413874
  H      -1.485237     -0.952533     -1.317613
  H      -1.469902     -0.561218      0.428723
  H      -3.372049      0.652191     -1.530171
  H      -3.229025      1.118693      0.194013
  H      -3.017376      2.349157     -1.082357
  Li     -0.133778      1.792043     -2.126254
  C      -1.635603      2.227806     -4.766540
  O      -0.591457      2.577541     -3.845699
  C      -0.292966      3.982262     -3.836499
  C       0.912962      4.155894     -2.936799
  O       0.688433      3.516253     -1.667532
  C       0.062111      4.368321     -0.692413
  H      -1.771261      1.146652     -4.699992
  H      -2.571870      2.737499     -4.504221
  H      -1.347096      2.493774     -5.790128
  H      -1.166823      4.544361     -3.471896
  H      -0.054606      4.330919     -4.851909
  H       1.783421      3.657077     -3.377672
  H       1.152068      5.219365     -2.808319
  H       0.721615      5.208697     -0.447650
  H      -0.902142      4.752253     -1.050493
  H      -0.099743      3.759747      0.199256
33
Coordinates from ORCA-job DME_m1_shell2_cation_opt E -625.006924595714
  C       2.333346      0.093960     -1.918701
  O       0.906667      0.189055     -1.779434
  C       0.436294     -0.346881     -0.534362
  C      -1.070488     -0.281652     -0.557907
  O      -1.434320      1.074213     -0.867417
  C      -2.851470      1.293934     -0.819347
  H       2.587051      0.515415     -2.893097
  H       2.839812      0.658801     -1.125397
  H       2.649195     -0.955222     -1.884761
  H       0.842271      0.244628      0.301341
  H       0.759803     -1.391013     -0.417619
  H      -1.481980     -0.956896     -1.323386
  H      -1.470967     -0.570323      0.424089
  H      -3.371689      0.643967     -1.535029
  H      -3.233038      1.104775      0.190974
  H      -3.022698      2.340290     -1.080628
  Li     -0.137069      1.792760     -2.122267
  C      -1.644653      2.233719     -4.760506
  O      -0.598538      2.578918     -3.840331
  C      -0.288177      3.980981     -3.838322
  C       0.917777      4.149253     -2.937546
  O       0.686838      3.516903     -1.665866
  C       0.064226      4.377018     -0.695672
  H      -1.793001      1.154735     -4.686128
  H      -2.575694      2.755877     -4.504059
  H      -1.351512      2.488796     -5.785577
  H      -1.157763      4.552583     -3.478219
  H      -0.045606      4.322142     -4.855285
  H       1.784625      3.641468     -3.375376
  H       1.165207      5.211097     -2.811705
  H       0.727564      5.215676     -0.455321
  H      -0.898322      4.763240     -1.055864
  H      -0.100348      3.774147      0.199371
33
Coordinates from ORCA-job DME_m1_shell2_cation_opt E -625.006929422402
  C       2.335467      0.096692     -1.915366
  O       0.908413      0.189657     -1.778212
  C       0.436941     -0.350606     -0.535347
  C      -1.069937     -0.285586     -0.560874
  O      -1.433615      1.071041     -0.867628
  C      -2.850980      1.289376     -0.819922
  H       2.590424      0.519245     -2.888990
  H       2.839863      0.661720     -1.120854
  H       2.652819     -0.952049     -1.881902
  H       0.841022      0.238923      0.302686
  H       0.761211     -1.394782     -0.421859
  H      -1.479681     -0.959033     -1.328938
  H      -1.472320     -0.576776      0.419543
  H      -3.370028      0.641623     -1.538507
  H      -3.233339      1.095948      0.189301
  H      -3.023453      2.336501     -1.077318
  Li     -0.137512      1.792772     -2.120114
  C      -1.651082      2.237717     -4.755852
  O      -0.602954      2.579636     -3.836920
  C      -0.285078      3.979948     -3.840462
  C       0.919914      4.145597     -2.937804
  O       0.683278      3.518577     -1.664547
  C       0.063134      4.384446     -0.698207
  H      -1.809249      1.160556     -4.675418
  H      -2.577895      2.769355     -4.503449
  H      -1.355317      2.484440     -5.782254
  H      -1.152224      4.557901     -3.484510
  H      -0.039209      4.315488     -4.858505
  H       1.784829      3.631870     -3.372641
  H       1.172376      5.206285     -2.812763
  H       0.728997      5.222105     -0.461250
  H      -0.898375      4.771855     -1.059929
  H      -0.103099      3.785921      0.199460
33
Coordinates from ORCA-job DME_m1_shell2_cation_opt E -625.006932181917
  C       2.336730      0.091839     -1.915480
  O       0.909894      0.187929     -1.778096
  C       0.437297     -0.352549     -0.535703
  C      -1.069512     -0.284326     -0.561550
  O      -1.430214      1.073220     -0.868016
  C      -2.847063      1.294440     -0.818996
  H       2.592708      0.514332     -2.888878
  H       2.842495      0.655352     -1.120751
  H       2.651802     -0.957612     -1.882623
  H       0.842145      0.235682      0.302868
  H       0.759609     -1.397403     -0.423209
  H      -1.480291     -0.956706     -1.330026
  H      -1.472937     -0.574976      0.418577
  H      -3.368102      0.648351     -1.537667
  H      -3.229098      1.100981      0.190355
  H      -3.017854      2.342103     -1.075398
  Li     -0.134029      1.791916     -2.121789
  C      -1.649300      2.235801     -4.756455
  O      -0.600787      2.578870     -3.838449
  C      -0.286606      3.980039     -3.841111
  C       0.917055      4.148450     -2.937134
  O       0.680170      3.520124     -1.664458
  C       0.059086      4.384493     -0.697599
  H      -1.806136      1.158398     -4.676532
  H      -2.576663      2.766025     -4.502966
  H      -1.355143      2.483559     -5.783089
  H      -1.155557      4.555573     -3.485544
  H      -0.041065      4.316796     -4.858831
  H       1.783636      3.637079     -3.371443
  H       1.166495      5.209581     -2.810159
  H       0.724016      5.222689     -0.459836
  H      -0.902864      4.771172     -1.059002
  H      -0.106578      3.785145      0.199636
33
Coordinates from ORCA-job DME_m1_shell2_cation_opt E -625.006936443351
  C       2.338777      0.078469     -1.917510
  O       0.912695      0.183083     -1.778619
  C       0.437660     -0.355493     -0.536268
  C      -1.068860     -0.278774     -0.561987
  O      -1.421700      1.080892     -0.868667
  C      -2.837020      1.310753     -0.817131
  H       2.596643      0.500548     -2.890617
  H       2.848843      0.637968     -1.122666
  H       2.647661     -0.972881     -1.886136
  H       0.845576      0.230330      0.302465
  H       0.754241     -1.402129     -0.424430
  H      -1.483287     -0.948993     -1.330417
  H      -1.473954     -0.567033      0.418140
  H      -3.363538      0.667947     -1.534812
  H      -3.218635      1.119701      0.192862
  H      -3.002159      2.359436     -1.073242
  Li     -0.124668      1.789710     -2.126973
  C      -1.641241      2.227848     -4.759900
  O      -0.592866      2.576376     -3.843848
  C      -0.292744      3.980704     -3.841200
  C       0.908359      4.157866     -2.935424
  O       0.674791      3.522909     -1.665036
  C       0.049970      4.379871     -0.694419
  H      -1.789189      1.148888     -4.683804
  H      -2.572335      2.749352     -4.501763
  H      -1.352706      2.482072     -5.786578
  H      -1.167629      4.546197     -3.483951
  H      -0.050348      4.323869     -4.857543
  H       1.780262      3.656216     -3.370353
  H       1.146769      5.220815     -2.803221
  H       0.711107      5.219830     -0.452178
  H      -0.913576      4.764359     -1.054090
  H      -0.113556      3.775661      0.199964
33
Coordinates from ORCA-job DME_m1_shell2_cation_opt E -625.006937175120
  C       2.341027      0.053816     -1.922616
  O       0.916564      0.174394     -1.780351
  C       0.437714     -0.358966     -0.537133
  C      -1.068124     -0.266955     -0.561362
  O      -1.407036      1.095992     -0.869459
  C      -2.819375      1.341939     -0.813793
  H       2.601760      0.474873     -2.895405
  H       2.859345      0.605819     -1.127855
  H       2.638146     -1.001009     -1.893818
  H       0.852296      0.223151      0.300884
  H       0.743683     -1.408751     -0.425217
  H      -1.490149     -0.933913     -1.328499
  H      -1.475079     -0.549830      0.419561
  H      -3.355848      0.704115     -1.528591
  H      -3.200105      1.157126      0.197723
  H      -2.973498      2.392027     -1.071256
  Li     -0.108072      1.786197     -2.136628
  C      -1.623299      2.211423     -4.768346
  O      -0.577216      2.572231     -3.854424
  C      -0.305877      3.982432     -3.839901
  C       0.891175      4.176258     -2.932237
  O       0.667247      3.527199     -1.666708
  C       0.035220      4.368225     -0.687354
  H      -1.749596      1.129063     -4.701902
  H      -2.563302      2.711848     -4.500685
  H      -1.345671      2.481060     -5.794099
  H      -1.192065      4.526778     -3.477555
  H      -0.071118      4.339312     -4.853318
  H       1.772999      3.694785     -3.369865
  H       1.107982      5.242593     -2.791016
  H       0.688616      5.211602     -0.435921
  H      -0.931762      4.748216     -1.042877
  H      -0.123240      3.753318      0.200670
33
Coordinates from ORCA-job DME_m1_shell2_cation_opt E -625.006939870701
  C       2.340381      0.061898     -1.920898
  O       0.915332      0.176794     -1.780025
  C       0.437434     -0.358166     -0.537213
  C      -1.068552     -0.270568     -0.562014
  O      -1.411221      1.091686     -0.868722
  C      -2.824450      1.333279     -0.816233
  H       2.600212      0.483986     -2.893476
  H       2.855754      0.615935     -1.125643
  H       2.641671     -0.991734     -1.891858
  H       0.850196      0.224737      0.301159
  H       0.746228     -1.407153     -0.425294
  H      -1.488407     -0.937853     -1.330040
  H      -1.474969     -0.555731      0.418484
  H      -3.357248      0.693980     -1.532445
  H      -3.206891      1.146978      0.194357
  H      -2.981033      2.382963     -1.073767
  Li     -0.112812      1.787365     -2.133068
  C      -1.629023      2.215020     -4.764841
  O      -0.582679      2.573443     -3.850287
  C      -0.302908      3.981998     -3.839576
  C       0.896089      4.170978     -2.933382
  O       0.670345      3.525969     -1.666135
  C       0.040940      4.371673     -0.688978
  H      -1.761779      1.133726     -4.693842
  H      -2.566523      2.722188     -4.501238
  H      -1.347514      2.478455     -5.791146
  H      -1.185600      4.532594     -3.478220
  H      -0.066370      4.334818     -4.854010
  H       1.774780      3.683556     -3.370712
  H       1.119202      5.236487     -2.795540
  H       0.697147      5.213470     -0.439628
  H      -0.924638      4.754021     -1.045700
  H      -0.119754      3.759574      0.200579
33
Coordinates from ORCA-job DME_m1_shell2_cation_opt E -625.006942243581
  C       2.340287      0.069065     -1.918704
  O       0.914601      0.178363     -1.779930
  C       0.436935     -0.358699     -0.538006
  C      -1.069072     -0.273879     -0.563462
  O      -1.413826      1.088344     -0.867554
  C      -2.827723      1.327154     -0.820097
  H       2.599755      0.492926     -2.890594
  H       2.852315      0.624375     -1.122195
  H       2.645565     -0.983428     -1.890080
  H       0.848506      0.223815      0.301210
  H       0.747430     -1.407308     -0.426872
  H      -1.487448     -0.940229     -1.333087
  H      -1.475415     -0.561794      0.416282
  H      -3.356532      0.687516     -1.538944
  H      -3.213518      1.139078      0.188875
  H      -2.985048      2.376815     -1.077203
  Li     -0.115961      1.788447     -2.129114
  C      -1.634525      2.216607     -4.760279
  O      -0.588568      2.574569     -3.845153
  C      -0.301830      3.981644     -3.838633
  C       0.899323      4.166879     -2.934539
  O       0.673055      3.525513     -1.665556
  C       0.046781      4.375486     -0.689938
  H      -1.773038      1.136467     -4.683087
  H      -2.569867      2.730311     -4.501876
  H      -1.348812      2.472406     -5.787350
  H      -1.181377      4.537582     -3.477921
  H      -0.064250      4.330453     -4.854220
  H       1.775157      3.674400     -3.371911
  H       1.127832      5.231744     -2.800382
  H       0.706166      5.215259     -0.442231
  H      -0.917246      4.760808     -1.047551
  H      -0.116310      3.765677      0.200746
33
Coordinates from ORCA-job DME_m1_shell2_cation_opt E -625.006943605956
  C       2.340906      0.068066     -1.918086
  O       0.915109      0.177368     -1.780222
  C       0.436632     -0.360231     -0.538848
  C      -1.069222     -0.273587     -0.564315
  O      -1.412095      1.089388     -0.866857
  C      -2.825828      1.329770     -0.822467
  H       2.601030      0.492993     -2.889320
  H       2.852373      0.622384     -1.120542
  H       2.646012     -0.984498     -1.890395
  H       0.848997      0.220929      0.300901
  H       0.745855     -1.409325     -0.428599
  H      -1.488432     -0.938438     -1.334785
  H      -1.476032     -0.562147      0.415054
  H      -3.353696      0.691144     -1.542895
  H      -3.214100      1.141550      0.185520
  H      -2.981164      2.379773     -1.079351
  Li     -0.114082      1.788533     -2.128265
  C      -1.634485      2.214012     -4.758826
  O      -0.589659      2.574555     -3.843457
  C      -0.304464      3.981851     -3.837598
  C       0.897278      4.168323     -2.934623
  O       0.672940      3.526668     -1.665496
  C       0.047682      4.376343     -0.688903
  H      -1.772176      1.133940     -4.679326
  H      -2.570392      2.727610     -4.502335
  H      -1.347850      2.467751     -5.786145
  H      -1.184303      4.536911     -3.476271
  H      -0.067896      4.330601     -4.853446
  H       1.773246      3.676692     -3.372691
  H       1.125062      5.233452     -2.801257
  H       0.707916      5.215281     -0.440692
  H      -0.916025      4.762839     -1.046051
  H      -0.115798      3.765864      0.201236
33
Coordinates from ORCA-job DME_m1_shell2_cation_opt E -625.006945099636
  C       2.342236      0.061462     -1.918121
  O       0.916598      0.174388     -1.780818
  C       0.436296     -0.362955     -0.539992
  C      -1.069230     -0.270851     -0.565069
  O      -1.406993      1.093646     -0.866104
  C      -2.820040      1.338701     -0.825439
  H       2.603990      0.487406     -2.888454
  H       2.854661      0.612964     -1.119260
  H       2.644402     -0.991986     -1.892039
  H       0.850986      0.215720      0.300308
  H       0.741880     -1.413247     -0.431045
  H      -1.491034     -0.933261     -1.336246
  H      -1.477053     -0.559002      0.414005
  H      -3.348009      0.702275     -1.547737
  H      -3.211684      1.151157      0.181363
  H      -2.970965      2.389395     -1.082121
  Li     -0.108129      1.788195     -2.128719
  C      -1.631061      2.207687     -4.758498
  O      -0.588461      2.573767     -3.842825
  C      -0.310801      3.982439     -3.835879
  C       0.890993      4.173927     -2.934161
  O       0.671327      3.529510     -1.665790
  C       0.046372      4.375910     -0.686092
  H      -1.763527      1.127021     -4.678191
  H      -2.569501      2.717016     -4.502799
  H      -1.344986      2.462014     -5.785821
  H      -1.193109      4.532379     -3.472736
  H      -0.077206      4.333493     -4.851620
  H       1.768915      3.687270     -3.373926
  H       1.113957      5.240004     -2.800219
  H       0.706462      5.214373     -0.435985
  H      -0.917716      4.762938     -1.041568
  H      -0.116231      3.762609      0.202245
33
Coordinates from ORCA-job DME_m1_shell2_cation_opt E -625.006945889373
  C       2.343138      0.055445     -1.918488
  O       0.917754      0.172181     -1.781091
  C       0.436134     -0.364544     -0.540441
  C      -1.069162     -0.268285     -0.565215
  O      -1.403162      1.097197     -0.865795
  C      -2.815701      1.345539     -0.827277
  H       2.606121      0.481598     -2.888385
  H       2.856990      0.604788     -1.119068
  H       2.642344     -0.998864     -1.893344
  H       0.852496      0.212619      0.300070
  H       0.738984     -1.415684     -0.432168
  H      -1.492879     -0.929301     -1.336557
  H      -1.477724     -0.555645      0.413782
  H      -3.343977      0.710629     -1.550688
  H      -3.209402      1.158503      0.178820
  H      -2.963746      2.396696     -1.083768
  Li     -0.103301      1.788015     -2.129445
  C      -1.627786      2.203139     -4.758925
  O      -0.586735      2.572922     -3.842984
  C      -0.315538      3.982815     -3.834733
  C       0.886103      4.178661     -2.933766
  O       0.670145      3.531811     -1.666175
  C       0.044937      4.375126     -0.683925
  H      -1.755699      1.121863     -4.679470
  H      -2.568361      2.708315     -4.502826
  H      -1.342800      2.459484     -5.786046
  H      -1.200022      4.528291     -3.470085
  H      -0.084485      4.336083     -4.850281
  H       1.765784      3.696472     -3.375012
  H       1.104705      5.245514     -2.798800
  H       0.704310      5.213737     -0.432450
  H      -0.919868      4.761768     -1.037853
  H      -0.116257      3.759478      0.203036
33
Coordinates from ORCA-job DME_m1_shell2_cation_opt E -625.006946707139
  C       2.343783      0.050640     -1.918685
  O       0.918649      0.170797     -1.781018
  C       0.436033     -0.365424     -0.540457
  C      -1.069105     -0.266397     -0.565196
  O      -1.400647      1.099689     -0.865658
  C      -2.812951      1.349751     -0.829245
  H       2.607742      0.476668     -2.888376
  H       2.859043      0.598350     -1.119049
  H       2.640373     -1.004417     -1.894101
  H       0.853344      0.210854      0.300189
  H       0.737074     -1.417094     -0.432552
  H      -1.493950     -0.926630     -1.336611
  H      -1.478262     -0.553153      0.413730
  H      -3.340820      0.715885     -1.553879
  H      -3.208520      1.162596      0.176104
  H      -2.959394      2.401240     -1.085327
  Li     -0.099509      1.788295     -2.129518
  C      -1.625575      2.200081     -4.758998
  O      -0.585753      2.572186     -3.842589
  C      -0.319145      3.982996     -3.833715
  C       0.882648      4.182313     -2.933650
  O       0.669822      3.533976     -1.666490
  C       0.044545      4.375099     -0.682337
  H      -1.750371      1.118355     -4.680637
  H      -2.567701      2.702228     -4.502594
  H      -1.341266      2.458271     -5.785850
  H      -1.205074      4.525352     -3.467858
  H      -0.090301      4.337664     -4.849265
  H       1.763462      3.703461     -3.376318
  H       1.098003      5.249737     -2.798036
  H       0.703286      5.214033     -0.430314
  H      -0.921032      4.761067     -1.034871
  H      -0.115091      3.757895      0.203818
33
Coordinates from ORCA-job DME_m1_shell2_cation_opt E -625.006947666194
  C       2.344360      0.046144     -1.918585
  O       0.919528      0.169964     -1.780500
  C       0.435851     -0.365961     -0.540138
  C      -1.069173     -0.264952     -0.565331
  O      -1.398898      1.101596     -0.865624
  C      -2.811148      1.352391     -0.832047
  H       2.609264      0.471853     -2.888165
  H       2.861261      0.592263     -1.118916
  H       2.638191     -1.009692     -1.894466
  H       0.853529      0.209672      0.300777
  H       0.735533     -1.418019     -0.432472
  H      -1.494513     -0.924580     -1.337011
  H      -1.479050     -0.551444      0.413378
  H      -3.337719      0.719688     -1.558655
  H      -3.209132      1.164166      0.172159
  H      -2.956631      2.404274     -1.087085
  Li     -0.095773      1.789246     -2.128678
  C      -1.624059      2.197505     -4.758346
  O      -0.585536      2.571416     -3.841180
  C      -0.322630      3.983055     -3.832441
  C       0.879870      4.185830     -2.933943
  O       0.670616      3.536635     -1.666808
  C       0.045485      4.376001     -0.680993
  H      -1.746411      1.115410     -4.681157
  H      -2.567546      2.697118     -4.501939
  H      -1.340041      2.457399     -5.784853
  H      -1.209545      4.522979     -3.465313
  H      -0.096302      4.338481     -4.848276
  H       1.761429      3.709923     -3.378357
  H       1.092224      5.253829     -2.798120
  H       0.703456      5.215606     -0.429199
  H      -0.921146      4.760808     -1.031895
  H      -0.112000      3.757762      0.204825
