16
Coordinates from ORCA-job DME_cation_opt E -308.451795357001
  C       2.329871      0.814952     -0.577476
  O       1.209717     -0.000868     -0.867333
  C       0.534036     -0.412854      0.305302
  C      -0.658533     -1.268981     -0.078385
  O      -1.628046     -0.625956     -0.888073
  C      -2.275750      0.461752     -0.252461
  H       2.785510      1.090889     -1.531639
  H       2.034210      1.732535     -0.042689
  H       3.074219      0.278900      0.034215
  H       0.221363      0.464123      0.900598
  H       1.197169     -1.019801      0.950390
  H      -0.310407     -2.126391     -0.664572
  H      -1.120040     -1.646530      0.853332
  H      -2.676833      0.173965      0.733908
  H      -1.610459      1.328700     -0.125386
  H      -3.106027      0.755567     -0.899745
16
Coordinates from ORCA-job DME_cation_opt E -308.455720221539
  C       2.404990      0.776756     -0.602020
  O       1.199405      0.065602     -0.839663
  C       0.522677     -0.343430      0.334621
  C      -0.634320     -1.235963     -0.080970
  O      -1.603187     -0.579439     -0.886045
  C      -2.363416      0.428853     -0.241317
  H       2.831839      1.029082     -1.573721
  H       2.206758      1.694724     -0.027832
  H       3.122215      0.161142     -0.033274
  H       0.171330      0.533252      0.906983
  H       1.200177     -0.914068      0.993653
  H      -0.256276     -2.066334     -0.685444
  H      -1.103794     -1.642267      0.830746
  H      -2.808533      0.053460      0.692156
  H      -1.739423      1.307627     -0.003382
  H      -3.150443      0.731006     -0.934504
16
Coordinates from ORCA-job DME_cation_opt E -308.458138461202
  C       2.447019      0.743910     -0.625033
  O       1.172605      0.137309     -0.807377
  C       0.511441     -0.282563      0.366948
  C      -0.615341     -1.211777     -0.077845
  O      -1.567586     -0.541140     -0.884667
  C      -2.409611      0.398321     -0.239272
  H       2.828900      0.994221     -1.613725
  H       2.343552      1.643143      0.000166
  H       3.134038      0.048546     -0.114983
  H       0.110390      0.589022      0.914044
  H       1.208522     -0.809615      1.037876
  H      -0.211763     -2.018874     -0.694231
  H      -1.098743     -1.631498      0.817997
  H      -2.892972     -0.051797      0.639355
  H      -1.814145      1.265751      0.102372
  H      -3.146306      0.727043     -0.971638
16
Coordinates from ORCA-job DME_cation_opt E -308.459696189514
  C       2.496083      0.704024     -0.640231
  O       1.163855      0.215572     -0.786758
  C       0.510210     -0.213155      0.382322
  C      -0.600468     -1.173271     -0.077753
  O      -1.544520     -0.502524     -0.884635
  C      -2.464009      0.358505     -0.233526
  H       2.849062      0.962402     -1.636777
  H       2.491054      1.575920      0.030181
  H       3.134281     -0.072031     -0.187591
  H       0.061672      0.652614      0.901933
  H       1.214659     -0.703491      1.070529
  H      -0.175340     -1.963882     -0.699746
  H      -1.084196     -1.600687      0.813566
  H      -2.974355     -0.167729      0.584992
  H      -1.916503      1.215297      0.204459
  H      -3.161485      0.712437     -0.990979
16
Coordinates from ORCA-job DME_cation_opt E -308.461648904635
  C       2.564762      0.638174     -0.655895
  O       1.166278      0.350541     -0.757146
  C       0.513332     -0.098666      0.393948
  C      -0.580992     -1.102857     -0.080098
  O      -1.523430     -0.448751     -0.884390
  C      -2.541439      0.291072     -0.225578
  H       2.892934      0.924615     -1.652829
  H       2.713468      1.444411      0.076747
  H       3.101703     -0.254201     -0.298438
  H      -0.002752      0.750204      0.878401
  H       1.214805     -0.550731      1.107688
  H      -0.123219     -1.874379     -0.702912
  H      -1.049326     -1.535971      0.815784
  H      -3.070060     -0.339826      0.501555
  H      -2.076192      1.126448      0.333244
  H      -3.199871      0.679919     -1.000094
16
Coordinates from ORCA-job DME_cation_opt E -308.463991660230
  C       2.635398      0.543386     -0.672190
  O       1.198395      0.546454     -0.702657
  C       0.524822      0.065263      0.405240
  C      -0.556889     -0.994789     -0.085555
  O      -1.504840     -0.377065     -0.881413
  C      -2.630259      0.194663     -0.219107
  H       2.956847      0.881721     -1.654958
  H       2.978523      1.214718      0.126943
  H       2.995531     -0.472547     -0.453728
  H      -0.060692      0.888057      0.852026
  H       1.200246     -0.367535      1.151958
  H      -0.052744     -1.743507     -0.701964
  H      -0.989129     -1.428334      0.827503
  H      -3.152644     -0.562136      0.379989
  H      -2.281684      0.985700      0.472072
  H      -3.260882      0.625954     -0.994173
16
Coordinates from ORCA-job DME_cation_opt E -308.465991947763
  C       2.654116      0.457551     -0.694961
  O       1.242697      0.743803     -0.611088
  C       0.541197      0.217013      0.435741
  C      -0.528964     -0.900279     -0.079729
  O      -1.477013     -0.329451     -0.876057
  C      -2.677408      0.111962     -0.229523
  H       2.983340      0.868987     -1.647169
  H       3.167487      0.936958      0.148302
  H       2.813603     -0.628101     -0.642930
  H      -0.101728      1.005198      0.857113
  H       1.176464     -0.229559      1.208781
  H       0.034494     -1.625979     -0.675225
  H      -0.924276     -1.322125      0.855274
  H      -3.185218     -0.732160      0.252603
  H      -2.428088      0.852390      0.549996
  H      -3.290705      0.573796     -1.001142
16
Coordinates from ORCA-job DME_cation_opt E -308.467167354454
  C       2.610443      0.394700     -0.727589
  O       1.274894      0.895827     -0.498341
  C       0.553396      0.330454      0.499441
  C      -0.483296     -0.837879     -0.056281
  O      -1.426853     -0.310742     -0.870803
  C      -2.674974      0.062249     -0.259043
  H       2.955075      0.874433     -1.641971
  H       3.246431      0.669719      0.122642
  H       2.585559     -0.697923     -0.830288
  H      -0.135190      1.082163      0.908133
  H       1.155782     -0.149693      1.280784
  H       0.144557     -1.531913     -0.626920
  H      -0.866130     -1.261357      0.883122
  H      -3.168651     -0.824777      0.154960
  H      -2.496451      0.781524      0.554279
  H      -3.274591      0.523216     -1.042142
16
Coordinates from ORCA-job DME_cation_opt E -308.467653264161
  C       2.573955      0.382735     -0.734677
  O       1.270469      0.939221     -0.465348
  C       0.548459      0.361585      0.525847
  C      -0.457789     -0.830473     -0.047351
  O      -1.409768     -0.327812     -0.872495
  C      -2.659930      0.059939     -0.270927
  H       2.933948      0.875776     -1.636216
  H       3.238039      0.593562      0.112636
  H       2.496830     -0.702309     -0.883362
  H      -0.143209      1.099103      0.949825
  H       1.150495     -0.150082      1.290275
  H       0.199685     -1.501779     -0.611777
  H      -0.839768     -1.272431      0.883828
  H      -3.150707     -0.822116      0.157526
  H      -2.487629      0.802812      0.520025
  H      -3.263080      0.492273     -1.067823
16
Coordinates from ORCA-job DME_cation_opt E -308.467788263109
  C       2.561135      0.387759     -0.735293
  O       1.255099      0.933760     -0.466651
  C       0.539175      0.358138      0.534699
  C      -0.450437     -0.838839     -0.043203
  O      -1.405605     -0.340733     -0.871649
  C      -2.649374      0.068401     -0.273996
  H       2.920270      0.880129     -1.637482
  H       3.223229      0.600543      0.113152
  H       2.492894     -0.698036     -0.885956
  H      -0.144985      1.096006      0.968552
  H       1.150488     -0.161863      1.285598
  H       0.210278     -1.502283     -0.610978
  H      -0.840873     -1.295698      0.876899
  H      -3.141314     -0.800836      0.178802
  H      -2.465447      0.830663      0.496129
  H      -3.254532      0.482892     -1.078637
16
Coordinates from ORCA-job DME_cation_opt E -308.467813961550
  C       2.555560      0.382482     -0.738777
  O       1.258398      0.941205     -0.455740
  C       0.538257      0.367355      0.543221
  C      -0.444280     -0.833347     -0.040006
  O      -1.398612     -0.337018     -0.869236
  C      -2.647501      0.063922     -0.276759
  H       2.916646      0.883000     -1.635594
  H       3.223489      0.571996      0.110418
  H       2.471819     -0.700036     -0.906081
  H      -0.145869      1.107484      0.971667
  H       1.146973     -0.153025      1.295388
  H       0.219233     -1.492898     -0.608657
  H      -0.838932     -1.295834      0.875586
  H      -3.135236     -0.807733      0.175650
  H      -2.468871      0.827727      0.493220
  H      -3.251074      0.474722     -1.084314
16
Coordinates from ORCA-job DME_cation_opt E -308.467827869842
  C       2.560413      0.381376     -0.736442
  O       1.262114      0.938503     -0.458793
  C       0.537044      0.368565      0.539414
  C      -0.444654     -0.831134     -0.042850
  O      -1.402349     -0.333845     -0.868557
  C      -2.651560      0.061930     -0.273336
  H       2.926283      0.886307     -1.628775
  H       3.222921      0.564407      0.118367
  H       2.477415     -0.700353     -0.910620
  H      -0.142704      1.114786      0.963590
  H       1.143662     -0.149890      1.294893
  H       0.216182     -1.490017     -0.615605
  H      -0.839244     -1.297977      0.870818
  H      -3.132577     -0.809443      0.186578
  H      -2.473190      0.830557      0.491970
  H      -3.259756      0.466231     -1.080666
16
Coordinates from ORCA-job DME_cation_opt E -308.467835627732
  C       2.562575      0.378622     -0.735185
  O       1.266420      0.940358     -0.458734
  C       0.536385      0.371903      0.537054
  C      -0.443674     -0.827743     -0.044891
  O      -1.403743     -0.330289     -0.868477
  C      -2.653988      0.059185     -0.271041
  H       2.935531      0.890725     -1.620457
  H       3.221873      0.547351      0.125028
  H       2.473947     -0.700740     -0.921817
  H      -0.142503      1.121437      0.957002
  H       1.139858     -0.144605      1.296647
  H       0.216929     -1.485097     -0.619918
  H      -0.836723     -1.297269      0.867995
  H      -3.127320     -0.812695      0.195662
  H      -2.478315      0.833216      0.489561
  H      -3.267253      0.455643     -1.078442
16
Coordinates from ORCA-job DME_cation_opt E -308.467844429521
  C       2.563790      0.375752     -0.733622
  O       1.270047      0.942713     -0.459032
  C       0.534887      0.374751      0.534160
  C      -0.442039     -0.824446     -0.046995
  O      -1.404881     -0.326991     -0.868774
  C      -2.655428      0.056823     -0.268491
  H       2.948510      0.900704     -1.606248
  H       3.217301      0.521361      0.135185
  H       2.467820     -0.699213     -0.941927
  H      -0.143642      1.126954      0.950303
  H       1.135471     -0.138864      1.298254
  H       0.218641     -1.479751     -0.624470
  H      -0.833074     -1.297170      0.864911
  H      -3.116704     -0.812879      0.213878
  H      -2.483113      0.843591      0.479977
  H      -3.277584      0.436670     -1.077122
16
Coordinates from ORCA-job DME_cation_opt E -308.467852888595
  C       2.562473      0.374037     -0.733131
  O       1.271308      0.945482     -0.457651
  C       0.533420      0.376031      0.533550
  C      -0.439886     -0.822656     -0.047230
  O      -1.404207     -0.325940     -0.868949
  C      -2.654655      0.055791     -0.267723
  H       2.959894      0.915706     -1.589727
  H       3.210004      0.491245      0.144341
  H       2.458449     -0.694582     -0.969356
  H      -0.145571      1.128609      0.948489
  H       1.133029     -0.135284      1.300066
  H       0.221368     -1.476554     -0.625757
  H      -0.830079     -1.297580      0.863724
  H      -3.103103     -0.807911      0.236800
  H      -2.485928      0.861045      0.461950
  H      -3.286516      0.412563     -1.079410
16
Coordinates from ORCA-job DME_cation_opt E -308.467866305086
  C       2.557983      0.373360     -0.733963
  O       1.270703      0.949748     -0.452745
  C       0.531840      0.375731      0.536075
  C      -0.436498     -0.822287     -0.044950
  O      -1.401241     -0.327743     -0.868666
  C      -2.651315      0.055909     -0.269076
  H       2.974576      0.944632     -1.561797
  H       3.196236      0.441400      0.155210
  H       2.441567     -0.682012     -1.019916
  H      -0.148453      1.126400      0.952487
  H       1.132282     -0.133608      1.303310
  H       0.225953     -1.475435     -0.623087
  H      -0.827184     -1.298868      0.864786
  H      -3.080069     -0.792326      0.276716
  H      -2.488454      0.895502      0.422673
  H      -3.297928      0.369598     -1.087071
16
Coordinates from ORCA-job DME_cation_opt E -308.467887001447
  C       2.548198      0.374130     -0.737394
  O       1.267970      0.957093     -0.440160
  C       0.530450      0.373623      0.544851
  C      -0.430933     -0.824464     -0.038040
  O      -1.394272     -0.334979     -0.867061
  C      -2.643881      0.057571     -0.274146
  H       2.995712      0.996298     -1.510789
  H       3.170360      0.353173      0.164995
  H       2.411069     -0.650687     -1.112720
  H      -0.152666      1.118964      0.966191
  H       1.133837     -0.134848      1.310330
  H       0.234238     -1.477759     -0.613064
  H      -0.824173     -1.301688      0.870176
  H      -3.040880     -0.754520      0.344986
  H      -2.492116      0.956022      0.342768
  H      -3.312913      0.292073     -1.100939
16
Coordinates from ORCA-job DME_cation_opt E -308.467912979127
  C       2.535867      0.376728     -0.743106
  O       1.263439      0.964410     -0.422971
  C       0.530179      0.370592      0.558409
  C      -0.425612     -0.830449     -0.028013
  O      -1.385266     -0.347645     -0.864138
  C      -2.634218      0.060842     -0.282010
  H       3.011783      1.047311     -1.457151
  H       3.142111      0.263719      0.162703
  H       2.378271     -0.607400     -1.209002
  H      -0.157118      1.108502      0.985794
  H       1.137431     -0.139454      1.319683
  H       0.243766     -1.484875     -0.596947
  H      -0.822685     -1.305586      0.879721
  H      -3.003906     -0.704336      0.408815
  H      -2.492462      1.012912      0.251428
  H      -3.321577      0.214731     -1.113229
16
Coordinates from ORCA-job DME_cation_opt E -308.467963989801
  C       2.521969      0.383411     -0.750490
  O       1.254586      0.967816     -0.403738
  C       0.530531      0.363700      0.575779
  C      -0.422499     -0.844041     -0.015802
  O      -1.376191     -0.369131     -0.860028
  C      -2.621779      0.068181     -0.292246
  H       3.018986      1.098182     -1.405479
  H       3.114163      0.186927      0.149618
  H       2.349534     -0.553961     -1.299961
  H      -0.162105      1.091877      1.010765
  H       1.143460     -0.150782      1.329311
  H       0.252065     -1.500845     -0.575613
  H      -0.824213     -1.313311      0.893237
  H      -2.971379     -0.638105      0.467532
  H      -2.482706      1.066309      0.149395
  H      -3.324423      0.143774     -1.122293
16
Coordinates from ORCA-job DME_cation_opt E -308.468013844309
  C       2.515010      0.389427     -0.754055
  O       1.247528      0.965866     -0.393353
  C       0.529575      0.357193      0.585366
  C      -0.422769     -0.857725     -0.010187
  O      -1.373694     -0.388095     -0.857583
  C      -2.613365      0.075347     -0.297036
  H       3.024940      1.134430     -1.364426
  H       3.093980      0.138735      0.140694
  H       2.339387     -0.512046     -1.359513
  H      -0.166579      1.080398      1.022712
  H       1.144913     -0.160279      1.334877
  H       0.255321     -1.514986     -0.564765
  H      -0.825611     -1.322581      0.900913
  H      -2.946446     -0.581341      0.512755
  H      -2.472380      1.101988      0.072453
  H      -3.329811      0.093672     -1.118863
16
Coordinates from ORCA-job DME_cation_opt E -308.468042023303
  C       2.510891      0.392356     -0.755985
  O       1.243339      0.964265     -0.387054
  C       0.528289      0.354396      0.590998
  C      -0.423190     -0.867521     -0.008285
  O      -1.372838     -0.401130     -0.856626
  C      -2.607590      0.080066     -0.299021
  H       3.031354      1.157449     -1.332136
  H       3.078264      0.102484      0.134080
  H       2.333804     -0.481397     -1.400098
  H      -0.171374      1.075035      1.026774
  H       1.143269     -0.164430      1.339821
  H       0.258342     -1.523154     -0.560015
  H      -0.825226     -1.329321      0.904823
  H      -2.926393     -0.540806      0.543981
  H      -2.465651      1.123149      0.019931
  H      -3.335290      0.058561     -1.111201
16
Coordinates from ORCA-job DME_cation_opt E -308.468060592648
  C       2.500100      0.394813     -0.760640
  O       1.238617      0.968274     -0.373520
  C       0.528429      0.351416      0.602835
  C      -0.419560     -0.873749      0.000495
  O      -1.365740     -0.412433     -0.853219
  C      -2.598834      0.083743     -0.305988
  H       3.042949      1.183035     -1.282903
  H       3.051183      0.036425      0.114085
  H       2.311465     -0.429405     -1.464175
  H      -0.174437      1.065630      1.043764
  H       1.147189     -0.169284      1.347128
  H       0.265326     -1.530245     -0.546077
  H      -0.824781     -1.333213      0.913486
  H      -2.896823     -0.484860      0.579836
  H      -2.466419      1.147850     -0.061293
  H      -3.338665      0.002006     -1.103826
16
Coordinates from ORCA-job DME_cation_opt E -308.468033294149
  C       2.504035      0.386909     -0.755909
  O       1.239412      0.963571     -0.381420
  C       0.521376      0.363841      0.596735
  C      -0.420660     -0.883071     -0.015003
  O      -1.373660     -0.421781     -0.858327
  C      -2.597419      0.085187     -0.294254
  H       3.083638      1.198668     -1.197643
  H       3.009056     -0.045213      0.113688
  H       2.325142     -0.381033     -1.521704
  H      -0.190366      1.083416      1.013540
  H       1.126715     -0.151816      1.355441
  H       0.274490     -1.520953     -0.568748
  H      -0.812230     -1.344344      0.902639
  H      -2.846949     -0.431846      0.637142
  H      -2.476839      1.163542     -0.121268
  H      -3.365739     -0.065075     -1.054924
16
Coordinates from ORCA-job DME_cation_opt E -308.468083184068
  C       2.494870      0.390219     -0.762156
  O       1.238719      0.970929     -0.368234
  C       0.525874      0.357624      0.607403
  C      -0.416242     -0.877128      0.000187
  O      -1.362820     -0.417950     -0.853093
  C      -2.593959      0.084357     -0.305399
  H       3.073726      1.198572     -1.211042
  H       3.012132     -0.048134      0.096625
  H       2.300940     -0.372247     -1.530410
  H      -0.181589      1.071684      1.040705
  H       1.140695     -0.160993      1.356427
  H       0.274570     -1.526874     -0.546355
  H      -0.819063     -1.336847      0.913964
  H      -2.856871     -0.432804      0.622061
  H      -2.479123      1.164222     -0.133867
  H      -3.351861     -0.064628     -1.076828
16
Coordinates from ORCA-job DME_cation_opt E -308.468087987182
  C       2.494522      0.388629     -0.762737
  O       1.240300      0.972388     -0.368157
  C       0.526114      0.359068      0.607146
  C      -0.415033     -0.873971      0.001417
  O      -1.361372     -0.414330     -0.852724
  C      -2.594752      0.082800     -0.305730
  H       3.077556      1.196108     -1.207988
  H       3.009683     -0.054469      0.094892
  H       2.298811     -0.370505     -1.533841
  H      -0.179968      1.074237      1.040846
  H       1.141051     -0.158745      1.356724
  H       0.275096     -1.524793     -0.544836
  H      -0.819132     -1.334134      0.914365
  H      -2.857333     -0.437970      0.619866
  H      -2.484089      1.162592     -0.130997
  H      -3.351455     -0.066903     -1.078260
16
Coordinates from ORCA-job DME_cation_opt E -308.468092077889
  C       2.492178      0.385357     -0.764438
  O       1.242323      0.975019     -0.366219
  C       0.525455      0.362415      0.608164
  C      -0.412268     -0.871098      0.003803
  O      -1.358418     -0.412016     -0.851754
  C      -2.594060      0.081052     -0.306238
  H       3.091024      1.196412     -1.181983
  H       2.994188     -0.087566      0.085027
  H       2.293500     -0.349048     -1.558325
  H      -0.179918      1.079241      1.040177
  H       1.139466     -0.153353      1.360093
  H       0.278628     -1.521879     -0.541547
  H      -0.817438     -1.331651      0.915962
  H      -2.847365     -0.429018      0.627930
  H      -2.493850      1.164379     -0.148377
  H      -3.353446     -0.088244     -1.072290
16
Coordinates from ORCA-job DME_cation_opt E -308.468092696600
  C       2.493412      0.384623     -0.763994
  O       1.242689      0.974151     -0.368554
  C       0.524758      0.363181      0.606187
  C      -0.412474     -0.870838      0.002887
  O      -1.359539     -0.411811     -0.851972
  C      -2.594823      0.080655     -0.304920
  H       3.093424      1.196046     -1.179291
  H       2.993257     -0.088493      0.086698
  H       2.296914     -0.349412     -1.558688
  H      -0.180334      1.081349      1.036502
  H       1.137998     -0.151346      1.359657
  H       0.278294     -1.521267     -0.542996
  H      -0.816720     -1.331496      0.915376
  H      -2.847619     -0.431456      0.628325
  H      -2.494552      1.163555     -0.144491
  H      -3.354685     -0.087441     -1.070739
