16
Coordinates from ORCA-job DME_cation_opt E -308.468092696600
  C           2.49341188147183      0.38462291418656     -0.76399432082791
  O           1.24268885569347      0.97415091112889     -0.36855436514782
  C           0.52475751915305      0.36318053557983      0.60618703861802
  C          -0.41247367584938     -0.87083817849365      0.00288733094808
  O          -1.35953853689737     -0.41181052039744     -0.85197204704027
  C          -2.59482329725905      0.08065530109820     -0.30491960896487
  H           3.09342384719462      1.19604607890577     -1.17929085497340
  H           2.99325745598146     -0.08849265990679      0.08669842885574
  H           2.29691446089327     -0.34941180839614     -1.55868839805455
  H          -0.18033401600997      1.08134908079794      1.03650150887277
  H           1.13799819322783     -0.15134554865009      1.35965686245050
  H           0.27829350688218     -1.52126679581518     -0.54299617772050
  H          -0.81672015213820     -1.33149576583351      0.91537643395855
  H          -2.84761872288352     -0.43145589544235      0.62832480094743
  H          -2.49455219516945      1.16355503417037     -0.14449146316096
  H          -3.35468512429077     -0.08744068293241     -1.07073916876081
