13
 energy: -23.973933466970 gnorm: 0.000498984008 xtb: 6.7.1pre (5071a88)
C            1.41528235203633       -0.38890003699984       -0.09455266072919
C            0.04140927992451       -0.44875267432524        0.58021441062400
C           -0.64836126725280        0.94790942462078        0.59130680665395
O           -1.73845465348188        0.83265321769436       -0.26271459811794
C           -1.53554968030868       -0.37955439253262       -1.08005525062124
O           -1.09298878542231       -0.26168912416775       -2.25986498601983
O           -0.84675232735230       -1.25708498937872       -0.12899847447851
H            2.07047604156394        0.31898227349852        0.41463053415356
H            1.26586980033005       -0.08233405109451       -1.12753320456454
H            1.87403669955104       -1.37653061305290       -0.08759149470963
H            0.14081125674214       -0.84904858743149        1.60431640186851
H            0.05454081092792        1.72812468027081        0.24943297482790
H           -1.00031951725810        1.21622488289871        1.60140953111305
