17
 energy: -29.400150304468 gnorm: 0.000555291227 xtb: 6.7.1pre (5071a88)
C            2.26037443549082       -1.06754123091977       -0.21543135719202
O            1.29272055250292       -0.15955442588265        0.21759861852540
P           -0.07429744751418        0.06759087979147       -0.61899191956854
O           -0.16723850511729       -0.61573538738496       -1.88818349147264
O           -1.16862836757778       -0.37130707959604        0.49594324313816
C           -2.08230779518545       -1.39341499363199        0.24733785416555
O           -0.21736820381834        1.64190925458833       -0.63756534254130
C           -0.12313276313471        2.50596624394041        0.46547879106300
H            3.23933462106991       -0.57426710588195       -0.13981000988910
H            2.06387376883006       -1.41086760391291       -1.23395026488155
H            2.30108528381848       -1.92329810571239        0.47401008083621
H           -1.86578106122705       -2.24993561611706        0.90368401747225
H           -2.06240983627596       -1.70654706008328       -0.79974564553308
H           -3.07830054769497       -1.03630410204332        0.54447845556651
H            0.12865130700168        1.98475396741258        1.38838963581321
H           -1.07750716975095        3.03966450017215        0.56718451244618
H            0.63093171858293        3.26888787526141        0.22957281205169
