17
 energy: -30.065158986534 gnorm: 0.000856326368 xtb: 6.7.1pre (5071a88)
C            2.08799947273122       -1.52976160831314       -0.27109537733217
O            0.99025491620606       -1.39402565120163        0.53475831963180
P            0.03030225793469        0.26606625201959        0.33931574490949
O            0.10406287339855        0.48043086696309       -1.13113884183118
O           -1.38830232111655       -0.47483690666491        0.76185893933812
C           -1.74358323467622       -1.61443767716606        0.04046051018529
O           -0.69316256106280        1.84070125831998        0.99058242016777
C           -0.32841022136650        2.98288571470283        0.32010743473050
H            3.02975030269371       -1.39140234243718        0.28921768683789
H            2.06639104860082       -0.80353319153137       -1.09461768422007
H            2.10095908275789       -2.54046889991481       -0.71203717251824
H           -1.28667930935244       -2.51269705815459        0.46841503636073
H           -1.42617624817346       -1.52987740862113       -1.00458088876993
H           -2.83526051344636       -1.70724234278548        0.08112948926940
H            0.41036714208807        3.57314172288823        0.88943191279901
H           -1.21797291850338        3.61093208807520        0.16040423668594
H            0.09946022128671        2.74412519382114       -0.66221177624472
