17
 energy: -29.402037482980 gnorm: 0.000493003229 xtb: 6.7.1pre (5071a88)
C            2.34449669273044       -1.18343110647729       -0.15151532797087
O            1.28791189075424       -0.71016517699622        0.62902284127668
P           -0.00008678324606        0.00020711510737       -0.00278810705411
O           -0.04810185259817        0.14915989678207       -1.44432931784270
O           -1.16254368818914       -0.85000509925592        0.69621380211972
C           -2.20229412448715       -1.43853703751284       -0.02636151317989
O           -0.05176628034229        1.33160470783103        0.88461140363059
C           -0.13736081745711        2.60701456574210        0.32283872417065
H            3.26966988989596       -0.68377233202658        0.16998003897567
H            2.16797696776765       -1.02324471515728       -1.21809782214438
H            2.49093850492267       -2.25043390106690        0.06883875450326
H           -2.19157003864622       -2.52168610499819        0.16218354409115
H           -2.12483337322026       -1.23056950739579       -1.09647752963067
H           -3.15778471314855       -1.07584052350621        0.37837567383683
H            0.70509403285835        3.20883518497620        0.69251277586087
H           -1.04388992028771        3.09852853610304        0.70446551112865
H           -0.14585639730661        2.57233550785123       -0.76947346177155
