17

C   2.32388787 -1.06737132 -0.08615703
O   1.47389808 -0.07953000  0.45821995
P  -0.00565936  0.01754191 -0.16976447
O  -0.05524151  0.17121554 -1.65721343
O  -0.73919688 -1.29502342  0.40641395
C  -2.08355785 -1.48513945  0.01755341
O  -0.68375159  1.21663093  0.66405306
C  -0.23029007  2.52139612  0.36973888
H   3.27336648 -1.05036298  0.45473797
H   2.51546690 -0.85820543 -1.14201868
H   1.87416909 -2.05812168  0.02113514
H  -2.46737289 -2.38297405  0.50842301
H  -2.14606374 -1.62099176 -1.06546793
H  -2.69253971 -0.62927936  0.32084840
H   0.84764411  2.59668923  0.53625556
H  -0.73957929  3.22741874  1.03044156
H  -0.46517965  2.77610699 -0.66719936
