14
EA_cation_moread_smd_acetonitrile
C           -2.22066857149516        0.60413201113166       -0.06148448355566
C           -1.14803801497110       -0.40145339586314        0.31133517842500
O            0.13056664142246        0.19229090193968        0.07487408091743
C            1.19893090057113       -0.56094059536853        0.35187166872562
C            2.47456513074704        0.18443428680559        0.05783755198878
O            1.12946025421116       -1.68293354121022        0.77866565075838
H           -2.13088172537198        0.87614933533553       -1.10964848226858
H           -2.11678927717676        1.50289545002054        0.54029308567802
H           -3.20176905910495        0.17151296076384        0.11122976902900
H           -1.22931339941227       -1.31437639005548       -0.28940255307425
H           -1.21515829764638       -0.68487721030973        1.36778475322031
H            2.50822770026378        1.09238243211426        0.65464583864079
H            2.49416294066584        0.46702220785771       -0.99165903686116
H            3.32670478729717       -0.44623844316171        0.29012311837634
