37
Coordinates from ORCA-job TEGDME_anion_cpcm_20_default E -770.135747145599
  C       5.774851      1.228589      2.111082
  O       6.091665      0.401239      1.018047
  C       5.079890      0.298388      0.047002
  C       3.878755     -0.554644      0.501861
  O       3.056781     -0.958734     -0.564011
  C       2.276725      0.067464     -1.135245
  C       1.125117     -0.565870     -1.909485
  O       0.090122     -0.875393     -1.009651
  C      -0.976222     -1.568493     -1.609330
  C      -2.082253     -1.760374     -0.578498
  O      -2.871382     -0.595043     -0.531429
  C      -3.849864     -0.634914      0.478411
  C      -4.616419      0.682454      0.456521
  O      -5.600564      0.644068      1.462031
  C      -6.361369      1.823163      1.524406
  H       4.996566      0.792596      2.746104
  H       5.446161      2.219560      1.774220
  H       6.690992      1.330496      2.689759
  H       5.547272     -0.191996     -0.811022
  H       4.740860      1.301571     -0.254495
  H       4.257167     -1.477985      0.948434
  H       3.284295     -0.010036      1.250634
  H       1.855899      0.711683     -0.351834
  H       2.882759      0.680147     -1.818068
  H       0.761706      0.133714     -2.678687
  H       1.491080     -1.476338     -2.405372
  H      -1.377820     -0.996639     -2.458549
  H      -0.631269     -2.548451     -1.974567
  H      -1.622322     -1.953632      0.400478
  H      -2.705297     -2.625837     -0.853384
  H      -3.386889     -0.771830      1.466487
  H      -4.548982     -1.468528      0.312273
  H      -3.916445      1.513719      0.627030
  H      -5.076061      0.822231     -0.533340
  H      -7.080142      1.686689      2.329577
  H      -5.729877      2.693839      1.740615
  H      -6.895487      2.003128      0.583083
37
Coordinates from ORCA-job TEGDME_anion_cpcm_20_default E -770.146564533444
  C       5.715620      1.297263      2.111227
  O       6.069550      0.403769      1.065119
  C       5.078113      0.260533      0.062975
  C       3.864839     -0.555206      0.537949
  O       3.048928     -0.986939     -0.537146
  C       2.297265      0.046902     -1.161529
  C       1.153152     -0.580483     -1.935475
  O       0.107617     -0.900740     -1.033938
  C      -0.962308     -1.596157     -1.653908
  C      -2.075671     -1.797412     -0.642275
  O      -2.840781     -0.599509     -0.542260
  C      -3.859126     -0.660671      0.473602
  C      -4.584492      0.679187      0.494224
  O      -5.618497      0.645029      1.502027
  C      -6.366224      1.879005      1.597473
  H       4.908792      0.900052      2.742945
  H       5.401861      2.273344      1.709749
  H       6.609679      1.433582      2.725109
  H       5.555013     -0.276859     -0.765730
  H       4.755533      1.252291     -0.296752
  H       4.227668     -1.463876      1.033205
  H       3.266507      0.026257      1.258284
  H       1.878024      0.726832     -0.402273
  H       2.924809      0.632286     -1.851112
  H       0.797191      0.124064     -2.705944
  H       1.521694     -1.487640     -2.444204
  H      -1.352035     -1.016640     -2.507634
  H      -0.614201     -2.574585     -2.030381
  H      -1.629395     -2.051894      0.334245
  H      -2.720636     -2.635229     -0.960010
  H      -3.410043     -0.863452      1.461574
  H      -4.574067     -1.474498      0.256767
  H      -3.863785      1.491882      0.716273
  H      -5.031234      0.879281     -0.500654
  H      -7.113317      1.748672      2.386388
  H      -5.693606      2.720639      1.855901
  H      -6.872436      2.100924      0.637277
37
Coordinates from ORCA-job TEGDME_anion_cpcm_20_default E -770.157249732999
  C       5.738497      1.352406      2.066086
  O       6.114892      0.384434      1.076863
  C       5.123764      0.204402      0.061917
  C       3.905887     -0.566170      0.575993
  O       3.082326     -1.030478     -0.497640
  C       2.353377      0.016839     -1.158051
  C       1.212785     -0.596260     -1.924506
  O       0.150553     -0.909538     -1.021015
  C      -0.925522     -1.594782     -1.676570
  C      -2.058014     -1.801258     -0.703471
  O      -2.820083     -0.570474     -0.560727
  C      -3.928910     -0.669429      0.462142
  C      -4.630010      0.662167      0.534029
  O      -5.757437      0.616403      1.542554
  C      -6.512333      1.937901      1.664477
  H       4.911127      1.001658      2.700836
  H       5.441760      2.303656      1.594531
  H       6.615016      1.526662      2.698864
  H       5.593456     -0.380246     -0.740279
  H       4.822414      1.182487     -0.350488
  H       4.255024     -1.455879      1.116372
  H       3.311306      0.050734      1.269485
  H       1.953872      0.726025     -0.411947
  H       2.996078      0.576598     -1.855027
  H       0.872743      0.113099     -2.698513
  H       1.567307     -1.506475     -2.442678
  H      -1.278255     -1.000760     -2.538239
  H      -0.569234     -2.569837     -2.066106
  H      -1.648419     -2.109828      0.277057
  H      -2.714732     -2.611627     -1.072181
  H      -3.497863     -0.950727      1.440613
  H      -4.627501     -1.473097      0.162903
  H      -3.922275      1.464529      0.834950
  H      -5.060134      0.933049     -0.454293
  H      -7.298913      1.803667      2.417371
  H      -5.813065      2.737163      1.979236
  H      -6.959486      2.202988      0.686538
37
Coordinates from ORCA-job TEGDME_anion_cpcm_20_default E -770.160683007836
  C       5.715065      1.402664      2.051708
  O       6.096907      0.375556      1.123755
  C       5.122791      0.170082      0.092892
  C       3.881139     -0.553457      0.612711
  O       3.068376     -1.046289     -0.460597
  C       2.372024     -0.006306     -1.172206
  C       1.238198     -0.622887     -1.942778
  O       0.163600     -0.921151     -1.047460
  C      -0.907593     -1.608932     -1.715969
  C      -2.051539     -1.800858     -0.760321
  O      -2.784934     -0.551704     -0.596476
  C      -3.939315     -0.662823      0.441872
  C      -4.620764      0.652780      0.554681
  O      -5.779501      0.597246      1.581955
  C      -6.533257      1.965195      1.736578
  H       4.865013      1.101061      2.680102
  H       5.452082      2.331810      1.522161
  H       6.578039      1.591548      2.697586
  H       5.599145     -0.457887     -0.670831
  H       4.856390      1.135007     -0.368943
  H       4.199568     -1.427559      1.194679
  H       3.281552      0.098012      1.267657
  H       1.977926      0.734906     -0.456445
  H       3.041072      0.517160     -1.871980
  H       0.909536      0.078388     -2.728770
  H       1.588507     -1.540403     -2.448815
  H      -1.237447     -1.020707     -2.589890
  H      -0.544642     -2.585546     -2.092231
  H      -1.666034     -2.139316      0.218456
  H      -2.726523     -2.582441     -1.152737
  H      -3.499484     -0.986529      1.399403
  H      -4.625480     -1.454560      0.097907
  H      -3.922767      1.443006      0.891025
  H      -5.062481      0.961834     -0.411946
  H      -7.323023      1.828084      2.481012
  H      -5.817281      2.733961      2.069634
  H      -6.964868      2.251056      0.763708
37
Coordinates from ORCA-job TEGDME_anion_cpcm_20_default E -770.163707214973
  C       5.625025      1.496440      2.048227
  O       6.009194      0.380790      1.234559
  C       5.083607      0.127712      0.170818
  C       3.792422     -0.516035      0.672660
  O       3.014178     -1.056323     -0.402043
  C       2.385008     -0.047935     -1.211763
  C       1.269689     -0.683457     -1.995999
  O       0.172672     -0.949693     -1.123401
  C      -0.886920     -1.647286     -1.799346
  C      -2.051372     -1.803888     -0.863348
  O      -2.717154     -0.535290     -0.668722
  C      -3.922896     -0.650235      0.402325
  C      -4.564961      0.653252      0.580218
  O      -5.738873      0.583353      1.647482
  C      -6.469567      1.995099      1.874796
  H       4.732169      1.281210      2.650154
  H       5.432818      2.383996      1.427744
  H       6.461315      1.702883      2.721230
  H       5.580505     -0.571081     -0.512705
  H       4.882331      1.062571     -0.375510
  H       4.047845     -1.360082      1.324065
  H       3.181949      0.194017      1.250773
  H       1.986851      0.750344     -0.565278
  H       3.105190      0.405077     -1.909538
  H       0.963211     -0.003744     -2.809247
  H       1.624532     -1.617029     -2.465513
  H      -1.187767     -1.080830     -2.696572
  H      -0.518090     -2.633440     -2.137897
  H      -1.698266     -2.190868      0.108267
  H      -2.759339     -2.537404     -1.287616
  H      -3.458628     -1.033102      1.321253
  H      -4.602419     -1.414335      0.000531
  H      -3.867212      1.416777      0.957590
  H      -5.034738      1.018134     -0.346443
  H      -7.248688      1.845612      2.623709
  H      -5.722898      2.716328      2.224724
  H      -6.900723      2.318466      0.920901
37
Coordinates from ORCA-job TEGDME_anion_cpcm_20_default E -770.167273152415
  C       5.589396      1.560547      2.026290
  O       5.943403      0.359974      1.337774
  C       5.066322      0.063414      0.248295
  C       3.717862     -0.476195      0.722258
  O       2.965276     -1.055615     -0.345284
  C       2.420112     -0.088427     -1.252733
  C       1.315167     -0.737530     -2.044813
  O       0.194068     -0.945903     -1.196564
  C      -0.861829     -1.649721     -1.864825
  C      -2.045932     -1.755436     -0.941465
  O      -2.654791     -0.485415     -0.740431
  C      -3.920450     -0.611691      0.382453
  C      -4.558794      0.666152      0.602078
  O      -5.739186      0.559543      1.717192
  C      -6.478515      1.974998      1.992128
  H       4.655198      1.450039      2.590936
  H       5.488405      2.397665      1.321742
  H       6.401602      1.772635      2.724888
  H       5.566506     -0.712103     -0.342619
  H       4.947218      0.957909     -0.381780
  H       3.893151     -1.283833      1.441507
  H       3.116148      0.301948      1.214959
  H       2.029733      0.771368     -0.687459
  H       3.193472      0.277694     -1.944546
  H       1.042542     -0.085002     -2.891756
  H       1.663505     -1.696397     -2.463585
  H      -1.136955     -1.114854     -2.788490
  H      -0.498311     -2.652204     -2.153706
  H      -1.717017     -2.173569      0.026619
  H      -2.772729     -2.462312     -1.382538
  H      -3.412005     -1.021056      1.261361
  H      -4.570197     -1.369620     -0.066904
  H      -3.883215      1.427928      1.008208
  H      -5.072470      1.054895     -0.284716
  H      -7.237385      1.796477      2.751774
  H      -5.723700      2.679986      2.341406
  H      -6.925605      2.303712      1.053431
37
Coordinates from ORCA-job TEGDME_anion_cpcm_20_default E -770.173002795337
  C       5.622913      1.573461      2.002050
  O       5.930627      0.328871      1.391375
  C       5.082823      0.011835      0.292767
  C       3.694310     -0.447317      0.740111
  O       2.953074     -1.048252     -0.313040
  C       2.470382     -0.124035     -1.285093
  C       1.365350     -0.785804     -2.075252
  O       0.228422     -0.922672     -1.249435
  C      -0.832372     -1.628086     -1.892020
  C      -2.034004     -1.660763     -0.974082
  O      -2.604236     -0.408348     -0.816393
  C      -3.947664     -0.545219      0.380724
  C      -4.617546      0.692353      0.611773
  O      -5.797835      0.533947      1.781864
  C      -6.574147      1.917650      2.064698
  H       4.668553      1.538767      2.539749
  H       5.590306      2.375718      1.253775
  H       6.425284      1.772844      2.713381
  H       5.573873     -0.813505     -0.232828
  H       5.026727      0.875140     -0.386363
  H       3.807959     -1.226100      1.500860
  H       3.109770      0.378755      1.171092
  H       2.093222      0.779792     -0.786190
  H       3.278447      0.169662     -1.971795
  H       1.126426     -0.166338     -2.956556
  H       1.697790     -1.772673     -2.435106
  H      -1.085538     -1.136125     -2.844387
  H      -0.487652     -2.651625     -2.118323
  H      -1.715540     -2.069185      0.003850
  H      -2.763059     -2.377756     -1.402258
  H      -3.377818     -0.940928      1.221873
  H      -4.541853     -1.321309     -0.101981
  H      -3.990138      1.480261      1.029891
  H      -5.192055      1.062967     -0.237176
  H      -7.303875      1.702122      2.838913
  H      -5.833400      2.637453      2.395779
  H      -7.047528      2.214443      1.134841
37
Coordinates from ORCA-job TEGDME_anion_cpcm_20_default E -770.179759724364
  C       5.644179      1.566304      1.998973
  O       5.927023      0.316890      1.405948
  C       5.094533     -0.004478      0.307312
  C       3.688115     -0.434775      0.737042
  O       2.954333     -1.040009     -0.306466
  C       2.497869     -0.145257     -1.304379
  C       1.388722     -0.817156     -2.089809
  O       0.246982     -0.908848     -1.278891
  C      -0.818983     -1.610965     -1.895121
  C      -2.032627     -1.589650     -0.976646
  O      -2.582522     -0.358883     -0.863986
  C      -3.968913     -0.496288      0.386908
  C      -4.667161      0.726002      0.618936
  O      -5.827286      0.529963      1.811260
  C      -6.604622      1.852227      2.079377
  H       4.685175      1.557700      2.528747
  H       5.636284      2.363065      1.244498
  H       6.445949      1.750594      2.713928
  H       5.582146     -0.846047     -0.194288
  H       5.059485      0.847647     -0.387512
  H       3.776518     -1.201694      1.512513
  H       3.114237      0.411555      1.143537
  H       2.122473      0.777892     -0.841622
  H       3.318179      0.114800     -1.990588
  H       1.169718     -0.221611     -2.992616
  H       1.713366     -1.820082     -2.409515
  H      -1.065609     -1.148563     -2.863689
  H      -0.495619     -2.649582     -2.080149
  H      -1.707151     -1.976358      0.011550
  H      -2.756237     -2.331560     -1.381410
  H      -3.366756     -0.871429      1.212907
  H      -4.536725     -1.287776     -0.099183
  H      -4.065011      1.534641      1.031042
  H      -5.274521      1.073366     -0.214744
  H      -7.314669      1.614113      2.864540
  H      -5.881175      2.594627      2.397342
  H      -7.099699      2.129625      1.155340
37
Coordinates from ORCA-job TEGDME_anion_cpcm_20_default E -770.190273740610
  C       5.671586      1.569295      1.988126
  O       5.925675      0.303879      1.425732
  C       5.109614     -0.031676      0.327344
  C       3.683191     -0.420215      0.742424
  O       2.955102     -1.032142     -0.291874
  C       2.531903     -0.169107     -1.322157
  C       1.417308     -0.845352     -2.101791
  O       0.266690     -0.895308     -1.306534
  C      -0.805303     -1.590011     -1.903504
  C      -2.037559     -1.518442     -0.991476
  O      -2.569854     -0.298198     -0.904740
  C      -4.018611     -0.453201      0.409018
  C      -4.744275      0.762344      0.654515
  O      -5.881358      0.532617      1.839701
  C      -6.603088      1.760741      2.075207
  H       4.705417      1.602183      2.506813
  H       5.693787      2.354074      1.218951
  H       6.469705      1.748478      2.709940
  H       5.586503     -0.898118     -0.143177
  H       5.095734      0.800461     -0.394639
  H       3.743801     -1.166717      1.541532
  H       3.131030      0.455856      1.119167
  H       2.159791      0.777896     -0.902718
  H       3.364236      0.052408     -2.008742
  H       1.223459     -0.270310     -3.024145
  H       1.736630     -1.861818     -2.388060
  H      -1.045091     -1.148940     -2.885461
  H      -0.508894     -2.644462     -2.056575
  H      -1.702713     -1.907721      0.002220
  H      -2.750213     -2.287653     -1.387671
  H      -3.394702     -0.818133      1.224146
  H      -4.568935     -1.251410     -0.087789
  H      -4.153859      1.582434      1.069727
  H      -5.362416      1.105427     -0.177303
  H      -7.314043      1.521855      2.864602
  H      -5.897029      2.528527      2.394907
  H      -7.113218      2.050460      1.155371
37
Coordinates from ORCA-job TEGDME_anion_cpcm_20_default E -770.197829681575
  C       5.753530      1.608825      1.913430
  O       5.952311      0.278706      1.476257
  C       5.150260     -0.110582      0.380234
  C       3.696356     -0.391010      0.785428
  O       2.960165     -1.035456     -0.229374
  C       2.604263     -0.217768     -1.326378
  C       1.484557     -0.887201     -2.098600
  O       0.311254     -0.872717     -1.326991
  C      -0.773709     -1.548263     -1.934805
  C      -2.031472     -1.419230     -1.055262
  O      -2.526573     -0.183219     -0.954851
  C      -4.123513     -0.419008      0.420348
  C      -4.866347      0.759775      0.717231
  O      -6.039522      0.486354      1.889449
  C      -6.711208      1.680920      2.123787
  H       4.773215      1.747900      2.389424
  H       5.846624      2.318802      1.077559
  H       6.535394      1.815864      2.647716
  H       5.591446     -1.037146     -0.005527
  H       5.194000      0.656783     -0.410741
  H       3.700388     -1.078868      1.639207
  H       3.189493      0.540440      1.087952
  H       2.264775      0.771825     -0.978703
  H       3.461324     -0.075724     -2.004524
  H       1.334098     -0.337571     -3.045097
  H       1.780523     -1.922705     -2.345834
  H      -0.977324     -1.118336     -2.932182
  H      -0.512432     -2.617522     -2.061078
  H      -1.727996     -1.870022     -0.067646
  H      -2.740684     -2.179665     -1.493915
  H      -3.459616     -0.805043      1.189305
  H      -4.613507     -1.189723     -0.168925
  H      -4.307603      1.566394      1.199596
  H      -5.490243      1.143964     -0.093433
  H      -7.454532      1.458682      2.896089
  H      -6.015973      2.452423      2.482179
  H      -7.211722      2.029123      1.209761
37
Coordinates from ORCA-job TEGDME_anion_cpcm_20_default E -770.202834741547
  C       5.761472      1.622710      1.885885
  O       5.985287      0.275676      1.473690
  C       5.176448     -0.132409      0.376343
  C       3.732087     -0.416681      0.801518
  O       2.988167     -1.065659     -0.221069
  C       2.628427     -0.223768     -1.314645
  C       1.509200     -0.874929     -2.089622
  O       0.326394     -0.867934     -1.310407
  C      -0.760797     -1.539689     -1.946556
  C      -2.022500     -1.429015     -1.080283
  O      -2.526672     -0.165020     -0.965599
  C      -4.162424     -0.446127      0.456429
  C      -4.915100      0.739840      0.752128
  O      -6.098879      0.486692      1.904965
  C      -6.759312      1.693874      2.122367
  H       4.775953      1.760049      2.353901
  H       5.846037      2.317091      1.034814
  H       6.534515      1.865644      2.620707
  H       5.617243     -1.059612     -0.011148
  H       5.205446      0.628210     -0.422082
  H       3.749300     -1.101695      1.658566
  H       3.226728      0.513143      1.110587
  H       2.296624      0.763223     -0.948355
  H       3.479570     -0.070760     -1.997362
  H       1.364359     -0.310328     -3.028048
  H       1.800071     -1.907557     -2.358186
  H      -0.950989     -1.089898     -2.939445
  H      -0.503374     -2.607197     -2.093615
  H      -1.734049     -1.905835     -0.100091
  H      -2.721620     -2.181969     -1.545103
  H      -3.472727     -0.818550      1.210694
  H      -4.632902     -1.215094     -0.153470
  H      -4.351847      1.545846      1.240364
  H      -5.521029      1.133328     -0.073880
  H      -7.530305      1.519704      2.889090
  H      -6.079440      2.489619      2.489294
  H      -7.259364      2.075080      1.208710
37
Coordinates from ORCA-job TEGDME_anion_cpcm_20_default E -770.205891951617
  C       5.745272      1.645814      1.863257
  O       5.996378      0.288637      1.479443
  C       5.188468     -0.141593      0.380918
  C       3.751885     -0.440645      0.814726
  O       3.008779     -1.096425     -0.214515
  C       2.642141     -0.235866     -1.301655
  C       1.524948     -0.877509     -2.081464
  O       0.334748     -0.869982     -1.301738
  C      -0.752994     -1.532618     -1.963895
  C      -2.017109     -1.427788     -1.113246
  O      -2.507230     -0.149173     -0.992551
  C      -4.197674     -0.474780      0.492316
  C      -4.938094      0.718629      0.784212
  O      -6.124283      0.484701      1.912576
  C      -6.770067      1.708147      2.126636
  H       4.753541      1.775968      2.318707
  H       5.826223      2.321767      0.997981
  H       6.506358      1.918815      2.599976
  H       5.640305     -1.065067     -0.002176
  H       5.206759      0.612352     -0.422765
  H       3.778320     -1.126188      1.670651
  H       3.236267      0.481244      1.126673
  H       2.314211      0.744434     -0.916628
  H       3.490461     -0.069611     -1.983832
  H       1.384647     -0.308215     -3.017194
  H       1.807535     -1.909623     -2.356957
  H      -0.923652     -1.067926     -2.952629
  H      -0.501229     -2.597735     -2.123200
  H      -1.756218     -1.917960     -0.138105
  H      -2.720128     -2.156595     -1.597750
  H      -3.480260     -0.835701      1.222615
  H      -4.650575     -1.229354     -0.144426
  H      -4.361083      1.513080      1.274272
  H      -5.522020      1.121663     -0.052559
  H      -7.559498      1.571427      2.882763
  H      -6.094962      2.506451      2.503803
  H      -7.260171      2.117224      1.216848
37
Coordinates from ORCA-job TEGDME_anion_cpcm_20_default E -770.210095036044
  C       5.744667      1.654439      1.840711
  O       6.039922      0.303323      1.444375
  C       5.217199     -0.133835      0.350180
  C       3.804765     -0.488587      0.812787
  O       3.054612     -1.135815     -0.227686
  C       2.644381     -0.229472     -1.272805
  C       1.522515     -0.855148     -2.053590
  O       0.335070     -0.872110     -1.256521
  C      -0.754440     -1.516162     -1.950846
  C      -2.018023     -1.437157     -1.111498
  O      -2.499274     -0.139849     -0.980198
  C      -4.266701     -0.545964      0.568891
  C      -4.982739      0.690135      0.829454
  O      -6.148992      0.501697      1.866993
  C      -6.768468      1.726871      2.065557
  H       4.753248      1.746270      2.303852
  H       5.796062      2.334980      0.977940
  H       6.501274      1.949349      2.573236
  H       5.690142     -1.032481     -0.064226
  H       5.193795      0.636100     -0.436311
  H       3.869720     -1.198483      1.645721
  H       3.266266      0.404622      1.162640
  H       2.313294      0.723630     -0.829949
  H       3.474137     -0.013807     -1.962556
  H       1.366032     -0.267118     -2.974158
  H       1.799171     -1.879147     -2.358591
  H      -0.910035     -1.016893     -2.923354
  H      -0.502546     -2.573774     -2.147030
  H      -1.786626     -1.932399     -0.140682
  H      -2.731808     -2.131113     -1.615259
  H      -3.534345     -0.892350      1.289727
  H      -4.705991     -1.282275     -0.096447
  H      -4.359317      1.462977      1.300796
  H      -5.491418      1.099363     -0.054764
  H      -7.591552      1.638185      2.791956
  H      -6.106747      2.527429      2.467966
  H      -7.227251      2.174571      1.154774
37
Coordinates from ORCA-job TEGDME_anion_cpcm_20_default E -770.214050372710
  C       5.799953      1.676423      1.776957
  O       6.072730      0.303053      1.442738
  C       5.242914     -0.157638      0.358334
  C       3.830453     -0.490377      0.829021
  O       3.069463     -1.145888     -0.204139
  C       2.658927     -0.233332     -1.249767
  C       1.529587     -0.851378     -2.025063
  O       0.344644     -0.862699     -1.221394
  C      -0.753609     -1.473052     -1.941234
  C      -2.017814     -1.393283     -1.114778
  O      -2.457351     -0.082854     -0.939189
  C      -4.379924     -0.638020      0.631280
  C      -5.039872      0.640283      0.882432
  O      -6.201305      0.482569      1.787547
  C      -6.813108      1.739559      2.024990
  H       4.804132      1.802281      2.218435
  H       5.882653      2.313486      0.886048
  H       6.551612      1.980455      2.509216
  H       5.713175     -1.068944     -0.028044
  H       5.235413      0.592013     -0.445619
  H       3.884309     -1.193629      1.666846
  H       3.291767      0.406575      1.164610
  H       2.343019      0.718063     -0.797391
  H       3.492312     -0.024128     -1.935981
  H       1.363948     -0.264531     -2.944208
  H       1.789872     -1.877148     -2.332659
  H      -0.884412     -0.944725     -2.899277
  H      -0.503926     -2.525581     -2.165239
  H      -1.835412     -1.918880     -0.156554
  H      -2.763665     -2.016889     -1.653791
  H      -3.639569     -1.003339      1.328806
  H      -4.778249     -1.311684     -0.114877
  H      -4.367532      1.353910      1.376855
  H      -5.434254      1.089532     -0.038999
  H      -7.677062      1.647565      2.693233
  H      -6.154099      2.489337      2.504176
  H      -7.199717      2.242898      1.117769
37
Coordinates from ORCA-job TEGDME_anion_cpcm_20_default E -770.216603922522
  C       5.770326      1.679023      1.800720
  O       6.021073      0.302060      1.488630
  C       5.220459     -0.163861      0.391332
  C       3.789693     -0.471846      0.823506
  O       3.048338     -1.132391     -0.213218
  C       2.667016     -0.247338     -1.285050
  C       1.542799     -0.877590     -2.062051
  O       0.353849     -0.857574     -1.275917
  C      -0.750160     -1.465413     -1.978436
  C      -2.012683     -1.350457     -1.143905
  O      -2.456189     -0.049621     -0.996509
  C      -4.362290     -0.640025      0.681906
  C      -5.033203      0.641057      0.908650
  O      -6.164264      0.491124      1.828781
  C      -6.800369      1.741062      2.050048
  H       4.763805      1.829921      2.209086
  H       5.897347      2.306217      0.908077
  H       6.505680      1.968749      2.554407
  H       5.692232     -1.087165      0.037104
  H       5.248310      0.573568     -0.423798
  H       3.810870     -1.165760      1.670460
  H       3.253252      0.436653      1.132498
  H       2.350051      0.718948     -0.865810
  H       3.515766     -0.067608     -1.961065
  H       1.392572     -0.312545     -2.997730
  H       1.800931     -1.913612     -2.337265
  H      -0.881398     -0.956012     -2.947349
  H      -0.506877     -2.525288     -2.178563
  H      -1.813121     -1.852517     -0.170964
  H      -2.760624     -2.001755     -1.656292
  H      -3.579490     -0.966441      1.351371
  H      -4.750370     -1.333487     -0.050979
  H      -4.351311      1.376611      1.358075
  H      -5.437056      1.059193     -0.024538
  H      -7.644342      1.620644      2.735496
  H      -6.136211      2.497287      2.499324
  H      -7.204412      2.196191      1.131057
37
Coordinates from ORCA-job TEGDME_anion_cpcm_20_default E -770.218551633294
  C       5.752818      1.671191      1.827569
  O       5.969177      0.293940      1.526075
  C       5.196028     -0.172739      0.420798
  C       3.747526     -0.453025      0.816679
  O       3.023455     -1.109389     -0.220964
  C       2.679934     -0.258872     -1.319315
  C       1.560562     -0.900926     -2.100125
  O       0.366080     -0.845802     -1.341567
  C      -0.739178     -1.461880     -2.016487
  C      -2.008797     -1.289092     -1.184448
  O      -2.458568     -0.006020     -1.086469
  C      -4.344053     -0.634859      0.748775
  C      -5.040149      0.646100      0.938400
  O      -6.141735      0.507245      1.893045
  C      -6.812498      1.746901      2.081949
  H       4.739045      1.855392      2.206115
  H       5.926226      2.296309      0.939795
  H       6.474601      1.937536      2.603204
  H       5.663412     -1.109187      0.095015
  H       5.254444      0.552911     -0.405390
  H       3.738143     -1.139938      1.670561
  H       3.223385      0.470764      1.106370
  H       2.361489      0.726542     -0.944830
  H       3.545866     -0.116202     -1.983737
  H       1.435648     -0.360380     -3.054782
  H       1.821060     -1.947445     -2.337551
  H      -0.869283     -0.992786     -3.007943
  H      -0.507110     -2.533705     -2.168224
  H      -1.782416     -1.761175     -0.192458
  H      -2.745700     -1.992279     -1.661167
  H      -3.504281     -0.904587      1.374797
  H      -4.709264     -1.359570      0.032648
  H      -4.356113      1.418899      1.323586
  H      -5.465281      1.016653     -0.008547
  H      -7.622212      1.577833      2.796087
  H      -6.133910      2.512322      2.484174
  H      -7.238351      2.119322      1.139445
37
Coordinates from ORCA-job TEGDME_anion_cpcm_20_default E -770.218784045992
  C       5.765132      1.662220      1.827702
  O       5.983121      0.286600      1.516299
  C       5.206231     -0.175268      0.411493
  C       3.760454     -0.464539      0.813502
  O       3.032166     -1.111084     -0.227496
  C       2.683207     -0.251150     -1.317083
  C       1.561484     -0.886707     -2.099562
  O       0.367947     -0.839296     -1.337791
  C      -0.736413     -1.459046     -2.011700
  C      -2.011068     -1.279364     -1.185577
  O      -2.461618      0.004939     -1.099262
  C      -4.364654     -0.651707      0.792538
  C      -5.063236      0.639012      0.953506
  O      -6.150605      0.516952      1.896561
  C      -6.827986      1.754508      2.061855
  H       4.751151      1.844700      2.207679
  H       5.936848      2.295000      0.944471
  H       6.486497      1.926193      2.605067
  H       5.674552     -1.107509      0.074143
  H       5.254138      0.556399     -0.410446
  H       3.759690     -1.159568      1.661167
  H       3.238455      0.456139      1.117673
  H       2.363675      0.731200     -0.933957
  H       3.544845     -0.100346     -1.985446
  H       1.435986     -0.338513     -3.049968
  H       1.824884     -1.930655     -2.346934
  H      -0.863912     -0.994849     -3.006479
  H      -0.507949     -2.532608     -2.158147
  H      -1.784514     -1.748676     -0.190689
  H      -2.742246     -1.990968     -1.661069
  H      -3.509681     -0.899171      1.407862
  H      -4.715808     -1.383526      0.076044
  H      -4.370773      1.418225      1.313603
  H      -5.476982      0.986665     -0.008564
  H      -7.636652      1.588535      2.778552
  H      -6.152022      2.530849      2.451533
  H      -7.254345      2.106413      1.110006
37
Coordinates from ORCA-job TEGDME_anion_cpcm_20_default E -770.219055202364
  C       5.807282      1.653847      1.807762
  O       6.016949      0.274880      1.500811
  C       5.230602     -0.186509      0.401923
  C       3.786620     -0.473250      0.815942
  O       3.046862     -1.111983     -0.222284
  C       2.696823     -0.245767     -1.307088
  C       1.570389     -0.872092     -2.090078
  O       0.378202     -0.831376     -1.324301
  C      -0.724288     -1.456409     -1.997895
  C      -2.007992     -1.262685     -1.185190
  O      -2.444380      0.024807     -1.102155
  C      -4.408061     -0.661292      0.814544
  C      -5.105925      0.630917      0.960201
  O      -6.205113      0.513492      1.901483
  C      -6.886847      1.757574      2.054055
  H       4.795412      1.845952      2.189304
  H       5.979350      2.283462      0.922003
  H       6.531571      1.919420      2.582204
  H       5.693237     -1.119727      0.058792
  H       5.269927      0.543950     -0.421639
  H       3.792474     -1.170326      1.662019
  H       3.273982      0.449539      1.129947
  H       2.382221      0.737077     -0.920037
  H       3.554464     -0.094065     -1.980511
  H       1.444969     -0.314203     -3.034994
  H       1.834227     -1.913158     -2.349770
  H      -0.842974     -1.002890     -2.999137
  H      -0.503646     -2.533111     -2.131586
  H      -1.795181     -1.744322     -0.191594
  H      -2.735062     -1.970935     -1.673967
  H      -3.544357     -0.898070      1.421888
  H      -4.733580     -1.386358      0.079482
  H      -4.417647      1.412879      1.322500
  H      -5.514239      0.972043     -0.006458
  H      -7.698971      1.592927      2.767320
  H      -6.210866      2.535499      2.442500
  H      -7.306435      2.100263      1.095092
37
Coordinates from ORCA-job TEGDME_anion_cpcm_20_default E -770.219249144728
  C       5.892202      1.630037      1.766608
  O       6.089751      0.248547      1.458412
  C       5.281145     -0.206473      0.372376
  C       3.844359     -0.492098      0.814420
  O       3.080478     -1.116524     -0.215845
  C       2.716576     -0.233591     -1.283419
  C       1.579350     -0.844665     -2.062225
  O       0.392856     -0.811131     -1.285195
  C      -0.711595     -1.433120     -1.959855
  C      -2.001578     -1.226746     -1.158088
  O      -2.427801      0.064137     -1.079671
  C      -4.478697     -0.675498      0.846378
  C      -5.185080      0.616773      0.963264
  O      -6.301222      0.501102      1.888397
  C      -6.991471      1.743512      2.015225
  H       4.886518      1.830419      2.160248
  H       6.055937      2.258075      0.878081
  H       6.627342      1.894331      2.531311
  H       5.733683     -1.138691      0.013125
  H       5.302670      0.527369     -0.448673
  H       3.865652     -1.196021      1.654502
  H       3.345114      0.430986      1.148314
  H       2.409911      0.744538     -0.878053
  H       3.563102     -0.071964     -1.968447
  H       1.448723     -0.272464     -2.997711
  H       1.837657     -1.882205     -2.340747
  H      -0.821277     -0.985072     -2.964616
  H      -0.502853     -2.512811     -2.086420
  H      -1.804384     -1.715528     -0.164404
  H      -2.725074     -1.931133     -1.657540
  H      -3.611118     -0.892357      1.456409
  H      -4.762887     -1.395711      0.089089
  H      -4.508125      1.405850      1.331273
  H      -5.578420      0.943599     -0.014259
  H      -7.815512      1.586552      2.716985
  H      -6.327603      2.532012      2.405463
  H      -7.398332      2.075960      1.046373
37
Coordinates from ORCA-job TEGDME_anion_cpcm_20_default E -770.219364902282
  C       6.065635      1.580521      1.680057
  O       6.224555      0.192057      1.379009
  C       5.375240     -0.250063      0.318682
  C       3.949250     -0.516064      0.808213
  O       3.138773     -1.115653     -0.201641
  C       2.753020     -0.209253     -1.242065
  C       1.594175     -0.796119     -2.006864
  O       0.421177     -0.768413     -1.207534
  C      -0.693988     -1.375039     -1.879237
  C      -1.984818     -1.148581     -1.083436
  O      -2.389953      0.148312     -0.999650
  C      -4.611791     -0.701094      0.891222
  C      -5.334070      0.588776      0.961752
  O      -6.487158      0.465855      1.842675
  C      -7.192954      1.700987      1.931257
  H       5.073394      1.808096      2.092512
  H       6.224391      2.197600      0.783055
  H       6.822361      1.834901      2.426823
  H       5.801722     -1.187404     -0.058726
  H       5.378134      0.484798     -0.501400
  H       3.987626     -1.227836      1.640879
  H       3.480206      0.412925      1.168102
  H       2.464111      0.762385     -0.809047
  H       3.581379     -0.037309     -1.946488
  H       1.450871     -0.204445     -2.928110
  H       1.837558     -1.829629     -2.311774
  H      -0.795436     -0.928791     -2.885405
  H      -0.506342     -2.458862     -2.002468
  H      -1.809476     -1.650402     -0.092380
  H      -2.713152     -1.837343     -1.597280
  H      -3.750668     -0.890345      1.520419
  H      -4.815902     -1.406023      0.093974
  H      -4.682295      1.386949      1.353547
  H      -5.689735      0.899671     -0.034441
  H      -8.044202      1.547517      2.600851
  H      -6.555542      2.502259      2.340191
  H      -7.566097      2.025059      0.945811
37
Coordinates from ORCA-job TEGDME_anion_cpcm_20_default E -770.219455774914
  C       6.019843      1.588632      1.709999
  O       6.184748      0.202227      1.406189
  C       5.350415     -0.239886      0.334575
  C       3.918780     -0.507222      0.804603
  O       3.123039     -1.112847     -0.212852
  C       2.743608     -0.213497     -1.261024
  C       1.591781     -0.809467     -2.029644
  O       0.415714     -0.778022     -1.236154
  C      -0.698749     -1.388552     -1.904326
  C      -1.983638     -1.166869     -1.100141
  O      -2.398497      0.128485     -1.024535
  C      -4.570645     -0.690370      0.888506
  C      -5.296544      0.596599      0.962176
  O      -6.434588      0.477352      1.862181
  C      -7.143098      1.708894      1.952381
  H       5.022411      1.811473      2.112194
  H       6.188164      2.208609      0.816894
  H       6.767805      1.840200      2.466329
  H       5.783639     -1.176812     -0.035780
  H       5.365800      0.495707     -0.484718
  H       3.946721     -1.217100      1.639275
  H       3.440915      0.420983      1.154792
  H       2.448011      0.759076     -0.835010
  H       3.578212     -0.043762     -1.958585
  H       1.450537     -0.225680     -2.956221
  H       1.838615     -1.845211     -2.323800
  H      -0.807264     -0.942705     -2.909758
  H      -0.504021     -2.471312     -2.027597
  H      -1.795055     -1.652628     -0.104146
  H      -2.715015     -1.863899     -1.597691
  H      -3.707059     -0.878190      1.514923
  H      -4.794370     -1.408995      0.108804
  H      -4.641518      1.400065      1.336903
  H      -5.670153      0.899124     -0.029902
  H      -7.982885      1.557021      2.636389
  H      -6.502755      2.515218      2.345008
  H      -7.532901      2.023359      0.970847
37
Coordinates from ORCA-job TEGDME_anion_cpcm_20_default E -770.219536300283
  C       6.019939      1.580178      1.720991
  O       6.178664      0.194787      1.413451
  C       5.350811     -0.241321      0.335036
  C       3.915834     -0.504502      0.794882
  O       3.124106     -1.108037     -0.226221
  C       2.745569     -0.209491     -1.274518
  C       1.595289     -0.809149     -2.042906
  O       0.421022     -0.776044     -1.248011
  C      -0.697306     -1.386962     -1.907715
  C      -1.972446     -1.162678     -1.092060
  O      -2.389428      0.133936     -1.024515
  C      -4.567625     -0.686331      0.904652
  C      -5.302733      0.596323      0.962203
  O      -6.432046      0.482174      1.872306
  C      -7.150677      1.706522      1.949016
  H       5.020095      1.806099      2.115251
  H       6.200951      2.201942      0.831757
  H       6.762846      1.822103      2.485263
  H       5.784223     -1.178917     -0.033075
  H       5.376634      0.496792     -0.481768
  H       3.935702     -1.216007      1.628405
  H       3.436583      0.424019      1.142360
  H       2.446802      0.761728     -0.847946
  H       3.582404     -0.038705     -1.969190
  H       1.450857     -0.228640     -2.971045
  H       1.842066     -1.846075     -2.332670
  H      -0.814598     -0.942627     -2.912613
  H      -0.500059     -2.469672     -2.029976
  H      -1.771793     -1.631293     -0.090934
  H      -2.712764     -1.862872     -1.570807
  H      -3.705055     -0.861775      1.536297
  H      -4.786090     -1.417783      0.135397
  H      -4.651394      1.410562      1.318960
  H      -5.686601      0.879027     -0.031466
  H      -7.983391      1.557067      2.641880
  H      -6.515276      2.524261      2.324165
  H      -7.551116      2.001363      0.966252
37
Coordinates from ORCA-job TEGDME_anion_cpcm_20_default E -770.219617397417
  C       6.024816      1.565846      1.732182
  O       6.175631      0.180993      1.421144
  C       5.354776     -0.247971      0.335004
  C       3.915829     -0.505424      0.783600
  O       3.128265     -1.104537     -0.242542
  C       2.754408     -0.205466     -1.291328
  C       1.603988     -0.804889     -2.060201
  O       0.431509     -0.766878     -1.263965
  C      -0.691057     -1.380375     -1.912507
  C      -1.956761     -1.147119     -1.086925
  O      -2.376050      0.151238     -1.036585
  C      -4.568663     -0.680719      0.940571
  C      -5.322449      0.592367      0.966042
  O      -6.434913      0.489825      1.895769
  C      -7.174080      1.702343      1.943804
  H       5.022087      1.797429      2.115692
  H       6.222047      2.189283      0.847625
  H       6.760756      1.797097      2.506381
  H       5.787391     -1.186682     -0.031062
  H       5.391859      0.492537     -0.479327
  H       3.926346     -1.218995      1.615592
  H       3.437011      0.424156      1.129027
  H       2.454812      0.765547     -0.864930
  H       3.594444     -0.036072     -1.982489
  H       1.458740     -0.227250     -2.990013
  H       1.848552     -1.843538     -2.345742
  H      -0.816637     -0.942225     -2.919062
  H      -0.492464     -2.463747     -2.029056
  H      -1.741634     -1.592351     -0.078448
  H      -2.705427     -1.854326     -1.540722
  H      -3.702335     -0.826870      1.574698
  H      -4.772748     -1.433590      0.188316
  H      -4.678529      1.427470      1.285907
  H      -5.724949      0.835574     -0.030469
  H      -7.992736      1.558906      2.654285
  H      -6.547576      2.542088      2.282607
  H      -7.594259      1.956324      0.958213
37
Coordinates from ORCA-job TEGDME_anion_cpcm_20_default E -770.219677097033
  C       6.002320      1.536357      1.775304
  O       6.141241      0.151912      1.461687
  C       5.348514     -0.264877      0.350880
  C       3.896681     -0.509783      0.759511
  O       3.130370     -1.102128     -0.284912
  C       2.780760     -0.205026     -1.342466
  C       1.632722     -0.801312     -2.118736
  O       0.458804     -0.742081     -1.328202
  C      -0.669295     -1.369622     -1.950481
  C      -1.918110     -1.104340     -1.112327
  O      -2.346751      0.195556     -1.123719
  C      -4.545647     -0.654161      1.054332
  C      -5.359696      0.580580      0.988217
  O      -6.409114      0.526093      1.987354
  C      -7.211548      1.696900      1.952780
  H       4.989221      1.781455      2.121392
  H       6.245545      2.161041      0.903221
  H       6.711597      1.747578      2.579467
  H       5.783810     -1.206548     -0.004061
  H       5.417746      0.478402     -0.459096
  H       3.878421     -1.225200      1.589931
  H       3.415349      0.423009      1.093038
  H       2.480768      0.769502     -0.924428
  H       3.634204     -0.046488     -2.019585
  H       1.496460     -0.234446     -3.056498
  H       1.869708     -1.846261     -2.387608
  H      -0.808258     -0.958125     -2.966497
  H      -0.467220     -2.455434     -2.039994
  H      -1.669398     -1.480492     -0.083829
  H      -2.680084     -1.835494     -1.498286
  H      -3.657929     -0.702227      1.674330
  H      -4.712271     -1.471764      0.363009
  H      -4.741504      1.472661      1.178940
  H      -5.827001      0.695545     -0.002594
  H      -7.977454      1.584839      2.724684
  H      -6.613975      2.596824      2.162851
  H      -7.698987      1.817556      0.973476
37
Coordinates from ORCA-job TEGDME_anion_cpcm_20_default E -770.219798651214
  C       6.017805      1.540920      1.756138
  O       6.154220      0.152517      1.455539
  C       5.353679     -0.271964      0.352583
  C       3.903043     -0.510555      0.770688
  O       3.130634     -1.104906     -0.268867
  C       2.784693     -0.208070     -1.328851
  C       1.633555     -0.798151     -2.104942
  O       0.457583     -0.734727     -1.316519
  C      -0.667911     -1.360729     -1.946653
  C      -1.924149     -1.100781     -1.116408
  O      -2.350070      0.199975     -1.118073
  C      -4.557921     -0.659364      1.041252
  C      -5.369929      0.577138      0.984554
  O      -6.423444      0.516930      1.980996
  C      -7.219445      1.693089      1.955450
  H       5.007349      1.791051      2.106319
  H       6.254973      2.156808      0.876076
  H       6.732447      1.761365      2.553128
  H       5.784364     -1.217393      0.001799
  H       5.418853      0.464244     -0.464091
  H       3.887189     -1.221165      1.605257
  H       3.427149      0.425717      1.102109
  H       2.491406      0.769631     -0.913416
  H       3.637951     -0.055756     -2.007524
  H       1.502278     -0.230021     -3.042590
  H       1.866324     -1.843644     -2.375401
  H      -0.800166     -0.945278     -2.961996
  H      -0.466844     -2.446109     -2.040239
  H      -1.686024     -1.492171     -0.091050
  H      -2.681906     -1.826805     -1.519360
  H      -3.674781     -0.716236      1.667299
  H      -4.726316     -1.471344      0.343458
  H      -4.750844      1.466562      1.185826
  H      -5.834391      0.702786     -0.006532
  H      -7.989175      1.579989      2.723685
  H      -6.618243      2.588844      2.175528
  H      -7.703940      1.827602      0.975918
37
Coordinates from ORCA-job TEGDME_anion_cpcm_20_default E -770.220126940989
  C       6.028059      1.548644      1.726187
  O       6.153335      0.147211      1.475864
  C       5.348013     -0.302433      0.384669
  C       3.891769     -0.510441      0.803956
  O       3.117939     -1.113224     -0.231413
  C       2.808712     -0.225247     -1.312627
  C       1.653585     -0.793910     -2.098058
  O       0.463281     -0.694041     -1.332712
  C      -0.649475     -1.330165     -1.979113
  C      -1.928748     -1.070717     -1.180005
  O      -2.357652      0.228823     -1.192781
  C      -4.557485     -0.650752      1.056533
  C      -5.405270      0.560242      0.986069
  O      -6.417448      0.515720      2.028818
  C      -7.232086      1.681911      1.996054
  H       5.019757      1.823020      2.064232
  H       6.271044      2.130938      0.824845
  H       6.742869      1.795270      2.515563
  H       5.766081     -1.263621      0.061906
  H       5.421151      0.406071     -0.455347
  H       3.862807     -1.200799      1.654975
  H       3.431319      0.440825      1.113458
  H       2.539211      0.768756     -0.920114
  H       3.673020     -0.108170     -1.983845
  H       1.556371     -0.234516     -3.044952
  H       1.866270     -1.847252     -2.354697
  H      -0.760023     -0.922892     -3.000745
  H      -0.446605     -2.415253     -2.063172
  H      -1.712443     -1.471694     -0.153005
  H      -2.669681     -1.799855     -1.605493
  H      -3.676650     -0.675909      1.688524
  H      -4.721972     -1.488374      0.388356
  H      -4.802798      1.473120      1.128505
  H      -5.911750      0.636906      0.010227
  H      -7.968670      1.589009      2.799234
  H      -6.635979      2.594750      2.157993
  H      -7.759857      1.778049      1.033195
37
Coordinates from ORCA-job TEGDME_anion_cpcm_20_default E -770.220304991335
  C       6.022775      1.556657      1.713431
  O       6.128337      0.144642      1.516285
  C       5.332112     -0.328392      0.427938
  C       3.865243     -0.498933      0.828722
  O       3.097953     -1.112007     -0.206160
  C       2.826909     -0.241196     -1.312147
  C       1.674572     -0.800286     -2.108193
  O       0.470605     -0.664010     -1.369461
  C      -0.634303     -1.306381     -2.024766
  C      -1.926559     -1.038809     -1.247829
  O      -2.351312      0.260904     -1.271011
  C      -4.546814     -0.644008      1.080555
  C      -5.428140      0.541600      0.993304
  O      -6.390205      0.522363      2.082833
  C      -7.225756      1.675107      2.041684
  H       5.013925      1.860863      2.023056
  H       6.290537      2.101572      0.795831
  H       6.728095      1.821599      2.505424
  H       5.738329     -1.306509      0.143017
  H       5.429270      0.350005     -0.434027
  H       3.809723     -1.166671      1.696225
  H       3.418870      0.468318      1.107483
  H       2.574044      0.767318     -0.946551
  H       3.704387     -0.157840     -1.971078
  H       1.609074     -0.256402     -3.066828
  H       1.871119     -1.861830     -2.342818
  H      -0.728431     -0.909911     -3.052470
  H      -0.433023     -2.392491     -2.095042
  H      -1.727692     -1.442010     -0.217840
  H      -2.660185     -1.768071     -1.685696
  H      -3.668791     -0.635462      1.717362
  H      -4.704761     -1.506733      0.443417
  H      -4.842724      1.473896      1.067126
  H      -5.977705      0.561734      0.038343
  H      -7.922484      1.604949      2.881739
  H      -6.637808      2.602482      2.137637
  H      -7.799191      1.723942      1.101591
37
Coordinates from ORCA-job TEGDME_anion_cpcm_20_default E -770.220526565752
  C       6.008020      1.572918      1.704182
  O       6.080635      0.151118      1.577084
  C       5.302446     -0.352358      0.489830
  C       3.821237     -0.469848      0.856071
  O       3.065278     -1.100775     -0.176526
  C       2.837755     -0.260752     -1.315331
  C       1.694400     -0.821691     -2.122725
  O       0.475100     -0.645929     -1.418437
  C      -0.624512     -1.284417     -2.086772
  C      -1.926866     -1.006268     -1.330069
  O      -2.339844      0.295089     -1.351122
  C      -4.527236     -0.645742      1.093562
  C      -5.433737      0.521078      1.004109
  O      -6.342756      0.525591      2.135563
  C      -7.191953      1.669852      2.099861
  H       4.999571      1.917576      1.969488
  H       6.315692      2.065883      0.769894
  H       6.697991      1.857650      2.502712
  H       5.691316     -1.351883      0.260729
  H       5.439398      0.283153     -0.398903
  H       3.724715     -1.103251      1.745386
  H       3.393792      0.518124      1.087339
  H       2.598151      0.763638     -0.987053
  H       3.730966     -0.215545     -1.956801
  H       1.663050     -0.301685     -3.096418
  H       1.877105     -1.892105     -2.325462
  H      -0.699403     -0.893528     -3.118271
  H      -0.431106     -2.372560     -2.146668
  H      -1.750568     -1.420034     -0.299786
  H      -2.657179     -1.728692     -1.787036
  H      -3.655682     -0.617302      1.738695
  H      -4.687033     -1.525970      0.481697
  H      -4.860841      1.464278      1.018129
  H      -6.023145      0.498016      0.073648
  H      -7.847760      1.617984      2.973139
  H      -6.608915      2.603803      2.140833
  H      -7.808076      1.684585      1.186515
37
Coordinates from ORCA-job TEGDME_anion_cpcm_20_default E -770.220723491878
  C       5.991517      1.587561      1.704997
  O       6.028670      0.161407      1.635645
  C       5.270556     -0.366684      0.547081
  C       3.777895     -0.436187      0.875402
  O       3.033628     -1.082888     -0.155259
  C       2.840909     -0.274494     -1.321584
  C       1.712159     -0.849224     -2.139591
  O       0.479725     -0.645307     -1.468215
  C      -0.617150     -1.272354     -2.150439
  C      -1.924669     -0.981146     -1.408613
  O      -2.320755      0.323552     -1.423616
  C      -4.510929     -0.653789      1.108581
  C      -5.432840      0.501633      1.016734
  O      -6.292948      0.533189      2.181310
  C      -7.149342      1.672110      2.152553
  H       4.985215      1.967807      1.926380
  H       6.339906      2.034362      0.761940
  H       6.665417      1.884548      2.512587
  H       5.642295     -1.382807      0.368727
  H       5.447617      0.230326     -0.361108
  H       3.640880     -1.037874      1.781263
  H       3.368578      0.568610      1.062418
  H       2.603670      0.760572     -1.026995
  H       3.748560     -0.255423     -1.944339
  H       1.707202     -0.352953     -3.126357
  H       1.889005     -1.925982     -2.310610
  H      -0.673852     -0.882525     -3.183388
  H      -0.435669     -2.363157     -2.203475
  H      -1.771110     -1.404478     -0.378280
  H      -2.656648     -1.693440     -1.882762
  H      -3.649905     -0.613935      1.767264
  H      -4.675999     -1.548195      0.519357
  H      -4.867204      1.448789      0.977474
  H      -6.055384      0.442684      0.110207
  H      -7.767892      1.637618      3.053115
  H      -6.569462      2.608040      2.147164
  H      -7.801646      1.660034      1.265520
37
Coordinates from ORCA-job TEGDME_anion_cpcm_20_default E -770.220949794193
  C       6.016284      1.600093      1.675863
  O       6.014224      0.172698      1.670227
  C       5.265440     -0.384465      0.590785
  C       3.766843     -0.409522      0.895722
  O       3.022928     -1.068817     -0.126633
  C       2.856493     -0.290297     -1.315523
  C       1.738078     -0.877961     -2.138141
  O       0.497345     -0.646915     -1.493132
  C      -0.602252     -1.245587     -2.194522
  C      -1.912593     -0.930451     -1.469043
  O      -2.267600      0.384546     -1.459463
  C      -4.554163     -0.686132      1.129560
  C      -5.477186      0.469200      1.028475
  O      -6.301115      0.531606      2.213846
  C      -7.150523      1.675037      2.188645
  H       5.015996      2.016151      1.856670
  H       6.398601      1.994145      0.722633
  H       6.679893      1.913057      2.485798
  H       5.619415     -1.414042      0.460676
  H       5.470689      0.171747     -0.337093
  H       3.599677     -0.981117      1.815815
  H       3.378509      0.609680      1.046337
  H       2.622362      0.753352     -1.050404
  H       3.774292     -0.293731     -1.924020
  H       1.753449     -0.403231     -3.135543
  H       1.906852     -1.959965     -2.281089
  H      -0.634401     -0.848940     -3.225694
  H      -0.445771     -2.340540     -2.248505
  H      -1.797495     -1.380862     -0.445027
  H      -2.655231     -1.610749     -1.976410
  H      -3.719845     -0.651786      1.822668
  H      -4.713019     -1.581804      0.540439
  H      -4.908895      1.412450      0.948544
  H      -6.121563      0.385953      0.139913
  H      -7.742121      1.661476      3.107436
  H      -6.564919      2.605796      2.148998
  H      -7.828678      1.649931      1.322279
37
Coordinates from ORCA-job TEGDME_anion_cpcm_20_default E -770.221152112354
  C       6.063980      1.585816      1.648533
  O       6.020689      0.159711      1.687885
  C       5.273514     -0.411354      0.614581
  C       3.772166     -0.398573      0.905219
  O       3.022262     -1.056029     -0.113844
  C       2.876062     -0.290320     -1.313126
  C       1.760009     -0.877858     -2.139017
  O       0.516840     -0.625304     -1.507357
  C      -0.586763     -1.203889     -2.218171
  C      -1.897423     -0.863723     -1.505176
  O      -2.224094      0.460245     -1.496852
  C      -4.593808     -0.714400      1.196813
  C      -5.545715      0.412416      1.041576
  O      -6.315973      0.551764      2.253693
  C      -7.183222      1.679216      2.185645
  H       5.072018      2.035082      1.792121
  H       6.479762      1.937807      0.692900
  H       6.717336      1.905212      2.464273
  H       5.609243     -1.450359      0.514842
  H       5.499219      0.116682     -0.324884
  H       3.582802     -0.952697      1.831613
  H       3.405983      0.631493      1.037656
  H       2.647818      0.758230     -1.062649
  H       3.800311     -0.309146     -1.911535
  H       1.787961     -0.415490     -3.141931
  H       1.918447     -1.963355     -2.266629
  H      -0.602090     -0.806887     -3.249448
  H      -0.449470     -2.301753     -2.269879
  H      -1.805625     -1.317036     -0.479995
  H      -2.649406     -1.526594     -2.022392
  H      -3.789629     -0.639943      1.922631
  H      -4.712559     -1.631657      0.631531
  H      -4.999748      1.356067      0.863664
  H      -6.223321      0.246426      0.190528
  H      -7.732248      1.725087      3.129557
  H      -6.615139      2.612129      2.052442
  H      -7.900185      1.582985      1.356269
37
Coordinates from ORCA-job TEGDME_anion_cpcm_20_default E -770.221245081094
  C       6.112556      1.554664      1.633152
  O       6.041575      0.129484      1.684477
  C       5.286817     -0.435454      0.612346
  C       3.786030     -0.400234      0.904218
  O       3.025270     -1.043186     -0.116191
  C       2.885843     -0.269197     -1.311551
  C       1.766061     -0.846268     -2.140093
  O       0.525236     -0.594169     -1.502819
  C      -0.579933     -1.169787     -2.213748
  C      -1.891709     -0.826599     -1.503375
  O      -2.225072      0.498350     -1.511792
  C      -4.616368     -0.732884      1.267686
  C      -5.598128      0.357333      1.053079
  O      -6.329528      0.583256      2.276163
  C      -7.218797      1.688664      2.147196
  H       5.127849      2.024414      1.760205
  H       6.546801      1.890288      0.679758
  H       6.761863      1.869147      2.454142
  H       5.608514     -1.479292      0.516089
  H       5.519453      0.085796     -0.329231
  H       3.589095     -0.953640      1.829511
  H       3.436881      0.635380      1.040264
  H       2.661534      0.779133     -1.056325
  H       3.811478     -0.289558     -1.907355
  H       1.792233     -0.379204     -3.140666
  H       1.921959     -1.931553     -2.274075
  H      -0.594800     -0.772621     -3.245022
  H      -0.443016     -2.267619     -2.267170
  H      -1.795097     -1.266770     -0.472887
  H      -2.643154     -1.496917     -2.009269
  H      -3.831026     -0.606606      2.006745
  H      -4.690422     -1.671497      0.730847
  H      -5.079590      1.294113      0.778519
  H      -6.299949      0.109129      0.242290
  H      -7.736222      1.802960      3.103279
  H      -6.672234      2.616511      1.918838
  H      -7.962005      1.514433      1.353852
37
Coordinates from ORCA-job TEGDME_anion_cpcm_20_default E -770.221405786504
  C       6.150774      1.522447      1.643309
  O       6.100257      0.094901      1.629846
  C       5.329057     -0.430913      0.548322
  C       3.835854     -0.433627      0.878490
  O       3.058589     -1.045032     -0.148744
  C       2.875733     -0.224061     -1.307077
  C       1.748488     -0.794171     -2.130981
  O       0.520264     -0.597400     -1.450370
  C      -0.589078     -1.173609     -2.153953
  C      -1.895336     -0.852049     -1.423408
  O      -2.253514      0.469509     -1.436893
  C      -4.653837     -0.752727      1.303216
  C      -5.629100      0.329680      1.040685
  O      -6.356008      0.623148      2.254107
  C      -7.245558      1.720572      2.068332
  H       5.161664      1.972054      1.804481
  H       6.567604      1.908200      0.701074
  H       6.806759      1.808287      2.469634
  H       5.665036     -1.463457      0.394937
  H       5.530914      0.137990     -0.372631
  H       3.672295     -1.029519      1.783805
  H       3.475027      0.589551      1.068536
  H       2.630276      0.806901     -1.004281
  H       3.789343     -0.197103     -1.920280
  H       1.734402     -0.290857     -3.113698
  H       1.928494     -1.869595     -2.309449
  H      -0.624667     -0.761046     -3.178766
  H      -0.438988     -2.268498     -2.228387
  H      -1.769654     -1.281930     -0.391760
  H      -2.645513     -1.536172     -1.908371
  H      -3.881902     -0.608449      2.052037
  H      -4.700142     -1.695701      0.771770
  H      -5.108707      1.250159      0.715923
  H      -6.338166      0.047937      0.246385
  H      -7.759064      1.885836      3.019407
  H      -6.699525      2.635155      1.787932
  H      -7.992070      1.503588      1.287908
37
Coordinates from ORCA-job TEGDME_anion_cpcm_20_default E -770.221609269247
  C       6.188983      1.492999      1.654186
  O       6.180709      0.068230      1.544206
  C       5.381801     -0.406587      0.458007
  C       3.905277     -0.485247      0.849065
  O       3.103512     -1.053204     -0.183989
  C       2.850254     -0.163715     -1.277578
  C       1.717454     -0.723223     -2.102345
  O       0.505333     -0.614375     -1.373928
  C      -0.603505     -1.186370     -2.081850
  C      -1.906323     -0.899604     -1.330901
  O      -2.285511      0.416594     -1.322812
  C      -4.734828     -0.818112      1.344515
  C      -5.674015      0.276175      1.021913
  O      -6.365963      0.687696      2.219651
  C      -7.226396      1.795787      1.962727
  H       5.192100      1.900166      1.870950
  H       6.567699      1.955348      0.730450
  H       6.858859      1.743542      2.480923
  H       5.744967     -1.412755      0.216222
  H       5.524460      0.232943     -0.426765
  H       3.802551     -1.145221      1.718237
  H       3.521872      0.510060      1.123533
  H       2.573566      0.834047     -0.899045
  H       3.742098     -0.057971     -1.913279
  H       1.652068     -0.164394     -3.052046
  H       1.932467     -1.778408     -2.350897
  H      -0.659059     -0.743894     -3.093451
  H      -0.438618     -2.275932     -2.193096
  H      -1.755938     -1.342603     -0.307902
  H      -2.651620     -1.587786     -1.814370
  H      -3.988091     -0.674015      2.118103
  H      -4.753525     -1.755400      0.802236
  H      -5.128776      1.151397      0.617293
  H      -6.407965     -0.032596      0.260027
  H      -7.715204      2.049007      2.907332
  H      -6.657713      2.667421      1.601648
  H      -7.992978      1.540000      1.214118
37
Coordinates from ORCA-job TEGDME_anion_cpcm_20_default E -770.221852297621
  C       6.251169      1.459294      1.650002
  O       6.261722      0.043157      1.457879
  C       5.428442     -0.380948      0.375835
  C       3.971658     -0.519146      0.822272
  O       3.136616     -1.040339     -0.209264
  C       2.810612     -0.085526     -1.226688
  C       1.674603     -0.631346     -2.056370
  O       0.480510     -0.625753     -1.289788
  C      -0.622414     -1.194286     -2.010543
  C      -1.925965     -0.954522     -1.243447
  O      -2.328118      0.351521     -1.193452
  C      -4.861414     -0.930053      1.391430
  C      -5.739257      0.190477      1.001497
  O      -6.353388      0.756172      2.173159
  C      -7.152053      1.890973      1.840426
  H       5.254434      1.837527      1.914831
  H       6.598173      1.980770      0.745545
  H       6.938304      1.674138      2.472594
  H       5.802301     -1.360674      0.054828
  H       5.519664      0.316031     -0.471177
  H       3.922506     -1.233441      1.652248
  H       3.581839      0.448301      1.175310
  H       2.507283      0.869770     -0.767448
  H       3.674912      0.104314     -1.880282
  H       1.557761     -0.011025     -2.961587
  H       1.925329     -1.656007     -2.386175
  H      -0.694845     -0.717001     -3.005178
  H      -0.439544     -2.275739     -2.163310
  H      -1.758048     -1.428029     -0.236382
  H      -2.659857     -1.642911     -1.743788
  H      -4.152160     -0.798425      2.201887
  H      -4.847758     -1.852728      0.824582
  H      -5.155026      0.985980      0.494094
  H      -6.517723     -0.133112      0.290833
  H      -7.586875      2.261054      2.772416
  H      -6.543309      2.684821      1.379959
  H      -7.960085      1.616711      1.144337
37
Coordinates from ORCA-job TEGDME_anion_cpcm_20_default E -770.222076884873
  C       6.286319      1.443877      1.651856
  O       6.309144      0.039612      1.390381
  C       5.447776     -0.342541      0.315111
  C       4.010233     -0.535363      0.802910
  O       3.149092     -1.019511     -0.225291
  C       2.762211     -0.017428     -1.173417
  C       1.630200     -0.554344     -2.012939
  O       0.450869     -0.638906     -1.228129
  C      -0.644087     -1.207775     -1.961862
  C      -1.949004     -1.014154     -1.182675
  O      -2.372125      0.278869     -1.082299
  C      -5.001598     -1.060403      1.420937
  C      -5.797834      0.100507      0.980580
  O      -6.283322      0.814464      2.124918
  C      -6.991295      1.990927      1.739460
  H       5.291426      1.795724      1.956961
  H       6.606088      2.013042      0.766407
  H       6.989248      1.627674      2.468488
  H       5.828289     -1.295246     -0.072166
  H       5.496751      0.401513     -0.494239
  H       4.005521     -1.293529      1.594363
  H       3.614933      0.403208      1.221682
  H       2.436638      0.894810     -0.646879
  H       3.600879      0.246462     -1.834958
  H       1.473967      0.116852     -2.874880
  H       1.909912     -1.546537     -2.410917
  H      -0.729156     -0.702634     -2.941296
  H      -0.442703     -2.280772     -2.146596
  H      -1.770543     -1.523006     -0.194150
  H      -2.671144     -1.699283     -1.707765
  H      -4.332408     -0.958396      2.269167
  H      -4.962064     -1.960101      0.818828
  H      -5.176547      0.790605      0.369651
  H      -6.640556     -0.207462      0.338370
  H      -7.334750      2.474758      2.657061
  H      -6.340059      2.682337      1.183118
  H      -7.860300      1.742149      1.111292
37
Coordinates from ORCA-job TEGDME_anion_cpcm_20_default E -770.222191608298
  C       6.277726      1.462631      1.650788
  O       6.300755      0.058347      1.392115
  C       5.436594     -0.326657      0.321004
  C       4.001149     -0.524323      0.812638
  O       3.140274     -1.010532     -0.214971
  C       2.745592     -0.007298     -1.157761
  C       1.620238     -0.545377     -2.004198
  O       0.436608     -0.639520     -1.227348
  C      -0.653400     -1.210036     -1.968162
  C      -1.959308     -1.043692     -1.183889
  O      -2.393002      0.240480     -1.045701
  C      -5.064837     -1.125121      1.405157
  C      -5.817737      0.067671      0.970243
  O      -6.218967      0.825974      2.116607
  C      -6.873277      2.033068      1.737894
  H       5.283976      1.812809      1.961444
  H       6.591090      2.029641      0.761700
  H       6.985482      1.648830      2.462595
  H       5.817506     -1.278566     -0.067765
  H       5.481456      0.418148     -0.487848
  H       4.000333     -1.283736      1.602847
  H       3.601732      0.411583      1.233474
  H       2.416514      0.899355     -0.624470
  H       3.581183      0.266380     -1.819958
  H       1.467063      0.134152     -2.860698
  H       1.903295     -1.533212     -2.409602
  H      -0.741258     -0.694229     -2.941407
  H      -0.441645     -2.279054     -2.163351
  H      -1.780527     -1.578724     -0.209286
  H      -2.675083     -1.721553     -1.730247
  H      -4.412829     -1.060242      2.270276
  H      -5.027323     -2.004304      0.772384
  H      -5.188383      0.710835      0.318336
  H      -6.700259     -0.212084      0.368528
  H      -7.154401      2.552860      2.657081
  H      -6.207170      2.678421      1.145200
  H      -7.779159      1.827077      1.147436
37
Coordinates from ORCA-job TEGDME_anion_cpcm_20_default E -770.222257988871
  C       6.258130      1.481132      1.648715
  O       6.270335      0.070620      1.426358
  C       5.416182     -0.334218      0.355142
  C       3.972125     -0.503686      0.830546
  O       3.122119     -1.004241     -0.199427
  C       2.751784     -0.018482     -1.169448
  C       1.629333     -0.558500     -2.018084
  O       0.436120     -0.622920     -1.253819
  C      -0.653956     -1.192109     -1.995548
  C      -1.957369     -1.043490     -1.204221
  O      -2.398553      0.235724     -1.040553
  C      -5.076426     -1.150865      1.395584
  C      -5.820692      0.054010      0.975273
  O      -6.175423      0.824477      2.128410
  C      -6.816573      2.041843      1.763601
  H       5.265357      1.846769      1.944407
  H       6.581792      2.021844      0.747019
  H       6.962820      1.681400      2.459828
  H       5.791084     -1.300716     -0.002330
  H       5.480873      0.388266     -0.472544
  H       3.949905     -1.244779      1.637721
  H       3.575106      0.445445      1.223286
  H       2.430814      0.904575     -0.660163
  H       3.598261      0.228199     -1.828834
  H       1.496158      0.109151     -2.887590
  H       1.901918     -1.557067     -2.403525
  H      -0.744805     -0.669796     -2.964985
  H      -0.436788     -2.258909     -2.197174
  H      -1.775137     -1.594116     -0.239252
  H      -2.672025     -1.715028     -1.760692
  H      -4.431077     -1.107513      2.266813
  H      -5.042630     -2.018365      0.746358
  H      -5.201387      0.680622      0.299370
  H      -6.726406     -0.217008      0.403848
  H      -7.061009      2.572442      2.687246
  H      -6.156066      2.672303      1.148786
  H      -7.743896      1.852985      1.200968
37
Coordinates from ORCA-job TEGDME_anion_cpcm_20_default E -770.222315045492
  C       6.229398      1.498073      1.651606
  O       6.231343      0.081999      1.466925
  C       5.391037     -0.344467      0.393500
  C       3.936500     -0.481112      0.845691
  O       3.099771     -0.996585     -0.188044
  C       2.762029     -0.032439     -1.190672
  C       1.638886     -0.573128     -2.038155
  O       0.438704     -0.601039     -1.283844
  C      -0.655191     -1.163764     -2.024310
  C      -1.951507     -1.038421     -1.218774
  O      -2.400838      0.234899     -1.023256
  C      -5.083601     -1.178086      1.393208
  C      -5.820352      0.036135      0.985122
  O      -6.119743      0.826122      2.139829
  C      -6.754037      2.049367      1.783494
  H       5.237179      1.879124      1.929234
  H       6.565430      2.011710      0.738681
  H       6.929123      1.713193      2.463227
  H       5.759087     -1.326445      0.072997
  H       5.480594      0.351518     -0.454512
  H       3.887246     -1.200886      1.670840
  H       3.544166      0.482803      1.206005
  H       2.453311      0.911457     -0.712823
  H       3.621826      0.177621     -1.845586
  H       1.525923      0.078104     -2.923057
  H       1.897230     -1.584478     -2.399478
  H      -0.755237     -0.627746     -2.985500
  H      -0.433443     -2.226531     -2.242374
  H      -1.757720     -1.607344     -0.267087
  H      -2.668074     -1.701522     -1.782270
  H      -4.445964     -1.154965      2.270455
  H      -5.046761     -2.032241      0.726730
  H      -5.217596      0.641499      0.276303
  H      -6.752262     -0.228389      0.452954
  H      -6.953274      2.596053      2.708696
  H      -6.107200      2.660381      1.135203
  H      -7.705983      1.869529      1.260131
37
Coordinates from ORCA-job TEGDME_anion_cpcm_20_default E -770.222362450530
  C       6.178039      1.524933      1.661989
  O       6.175978      0.104041      1.517938
  C       5.357027     -0.350209      0.439628
  C       3.890109     -0.453737      0.858344
  O       3.072304     -0.988633     -0.180829
  C       2.770904     -0.051125     -1.219259
  C       1.646160     -0.594461     -2.063617
  O       0.441696     -0.587521     -1.316772
  C      -0.659799     -1.134246     -2.057301
  C      -1.943656     -1.042743     -1.229442
  O      -2.396257      0.221805     -0.982989
  C      -5.098428     -1.217426      1.384034
  C      -5.813225      0.015687      0.995092
  O      -6.033591      0.828684      2.150032
  C      -6.650433      2.064584      1.806719
  H       5.184344      1.917520      1.917245
  H       6.527083      2.010978      0.738935
  H       6.869366      1.759658      2.475367
  H       5.720796     -1.347270      0.164141
  H       5.476340      0.313682     -0.430371
  H       3.808790     -1.147879      1.702741
  H       3.501717      0.525484      1.179463
  H       2.475382      0.914756     -0.778127
  H       3.644654      0.118049     -1.867364
  H       1.550145      0.038367     -2.963828
  H       1.891096     -1.617768     -2.400099
  H      -0.775586     -0.571361     -3.001465
  H      -0.435717     -2.189296     -2.308556
  H      -1.732706     -1.642524     -0.300952
  H      -2.666791     -1.688003     -1.804105
  H      -4.472733     -1.228492      2.269628
  H      -5.057822     -2.049629      0.690495
  H      -5.228367      0.590982      0.247328
  H      -6.778188     -0.227038      0.511817
  H      -6.785390      2.629538      2.732532
  H      -6.020262      2.646297      1.116454
  H      -7.632979      1.904315      1.336241
37
Coordinates from ORCA-job TEGDME_anion_cpcm_20_default E -770.222385701513
  C       6.150588      1.535820      1.674165
  O       6.162467      0.115491      1.524798
  C       5.351256     -0.342936      0.442330
  C       3.882714     -0.453237      0.853581
  O       3.071494     -0.989828     -0.189745
  C       2.767234     -0.051229     -1.226308
  C       1.641131     -0.595997     -2.068606
  O       0.440251     -0.595601     -1.315997
  C      -0.666794     -1.128372     -2.058035
  C      -1.941666     -1.060498     -1.214595
  O      -2.396202      0.197849     -0.940096
  C      -5.120614     -1.240426      1.378967
  C      -5.813530      0.005394      0.993198
  O      -5.986022      0.837238      2.141916
  C      -6.585915      2.081390      1.798579
  H       5.153552      1.917893      1.932124
  H       6.493691      2.028990      0.752682
  H       6.840577      1.774265      2.487587
  H       5.722090     -1.338102      0.169537
  H       5.471383      0.320768     -0.427791
  H       3.799926     -1.148478      1.696945
  H       3.489506      0.524383      1.173332
  H       2.469583      0.913421     -0.783897
  H       3.640107      0.120536     -1.874741
  H       1.538867      0.038633     -2.966756
  H       1.888537     -1.617648     -2.408497
  H      -0.795529     -0.543249     -2.986947
  H      -0.442619     -2.176276     -2.337584
  H      -1.717167     -1.676492     -0.300053
  H      -2.668629     -1.697357     -1.793248
  H      -4.506368     -1.269701      2.272050
  H      -5.074586     -2.061820      0.672901
  H      -5.233673      0.556801      0.223375
  H      -6.795776     -0.217904      0.534818
  H      -6.683149      2.660597      2.720287
  H      -5.962683      2.640128      1.083544
  H      -7.584030      1.935555      1.357262
37
Coordinates from ORCA-job TEGDME_anion_cpcm_20_default E -770.222404246726
  C       6.140732      1.534742      1.683438
  O       6.170657      0.116722      1.515814
  C       5.361524     -0.338152      0.430126
  C       3.894465     -0.465634      0.842785
  O       3.085727     -0.998984     -0.203864
  C       2.769207     -0.052052     -1.229428
  C       1.641478     -0.597239     -2.069725
  O       0.444885     -0.609375     -1.309777
  C      -0.665679     -1.134152     -2.052044
  C      -1.936736     -1.070655     -1.201586
  O      -2.389124      0.187447     -0.925524
  C      -5.116407     -1.228458      1.379820
  C      -5.812419      0.014478      0.991719
  O      -5.993084      0.846228      2.139734
  C      -6.601884      2.085523      1.793779
  H       5.140656      1.900944      1.952209
  H       6.471291      2.044424      0.766332
  H       6.832570      1.772582      2.495468
  H       5.741884     -1.326776      0.146947
  H       5.473312      0.334755     -0.434059
  H       3.819688     -1.168929      1.680181
  H       3.494932      0.506228      1.171623
  H       2.467166      0.906162     -0.776232
  H       3.637332      0.132098     -1.880714
  H       1.529624      0.041932     -2.963300
  H       1.893783     -1.615157     -2.417160
  H      -0.800696     -0.539212     -2.973764
  H      -0.444972     -2.179142     -2.344760
  H      -1.706169     -1.687337     -0.288983
  H      -2.665846     -1.707681     -1.777242
  H      -4.502447     -1.253485      2.273426
  H      -5.069737     -2.054343      0.678948
  H      -5.229804      0.568336      0.225579
  H      -6.791522     -0.209420      0.526828
  H      -6.705333      2.664478      2.714925
  H      -5.981469      2.648064      1.079365
  H      -7.597582      1.931043      1.350201
37
Coordinates from ORCA-job TEGDME_anion_cpcm_20_default E -770.222416101491
  C       6.143136      1.530939      1.684731
  O       6.181666      0.114377      1.506764
  C       5.370748     -0.337593      0.421096
  C       3.905362     -0.474835      0.837389
  O       3.096259     -1.003691     -0.211200
  C       2.771834     -0.049295     -1.227745
  C       1.642514     -0.591562     -2.067682
  O       0.448635     -0.613344     -1.303182
  C      -0.663590     -1.133204     -2.046431
  C      -1.933104     -1.073870     -1.192182
  O      -2.384030      0.182715     -0.910010
  C      -5.124194     -1.225499      1.387716
  C      -5.822364      0.013947      0.992748
  O      -5.999638      0.853560      2.135046
  C      -6.613936      2.088693      1.782402
  H       5.142519      1.888951      1.962338
  H       6.464190      2.049423      0.769129
  H       6.838542      1.768272      2.493881
  H       5.755406     -1.322316      0.130247
  H       5.475913      0.341190     -0.439331
  H       3.836495     -1.184309      1.670047
  H       3.503404      0.493210      1.174283
  H       2.468994      0.904141     -0.765231
  H       3.636380      0.143194     -1.881407
  H       1.524974      0.053502     -2.956188
  H       1.897028     -1.606026     -2.423446
  H      -0.802123     -0.531423     -2.963121
  H      -0.444044     -2.175901     -2.347943
  H      -1.699895     -1.695127     -0.283307
  H      -2.663253     -1.708732     -1.769252
  H      -4.513122     -1.244225      2.283516
  H      -5.072287     -2.054490      0.690961
  H      -5.241596      0.562452      0.221072
  H      -6.802326     -0.212525      0.530985
  H      -6.714920      2.674504      2.699399
  H      -5.998559      2.647363      1.060625
  H      -7.611014      1.927536      1.344370
37
Coordinates from ORCA-job TEGDME_anion_cpcm_20_default E -770.222439918143
  C       6.152318      1.521429      1.687716
  O       6.208327      0.108707      1.486457
  C       5.393341     -0.336647      0.401157
  C       3.931613     -0.493948      0.824274
  O       3.122471     -1.014327     -0.228427
  C       2.782629     -0.046798     -1.228059
  C       1.649211     -0.583118     -2.065650
  O       0.461104     -0.621021     -1.292121
  C      -0.655393     -1.131811     -2.034951
  C      -1.920132     -1.082015     -1.170960
  O      -2.367899      0.170685     -0.872143
  C      -5.137033     -1.208948      1.402613
  C      -5.845690      0.020467      0.994234
  O      -6.028653      0.869881      2.127794
  C      -6.662623      2.092187      1.764503
  H       5.151709      1.860996      1.987667
  H       6.449992      2.058875      0.775077
  H       6.857927      1.756946      2.488545
  H       5.786123     -1.313213      0.094200
  H       5.485227      0.354696     -0.450790
  H       3.874370     -1.216077      1.646816
  H       3.523651      0.465682      1.177569
  H       2.480449      0.898044     -0.748107
  H       3.639494      0.159928     -1.887637
  H       1.521157      0.072970     -2.944502
  H       1.905694     -1.591459     -2.436905
  H      -0.802039     -0.517220     -2.941766
  H      -0.437664     -2.169976     -2.352721
  H      -1.681329     -1.714246     -0.271108
  H      -2.653498     -1.711087     -1.751301
  H      -4.531181     -1.212239      2.302231
  H      -5.075448     -2.045769      0.716105
  H      -5.268371      0.564840      0.216790
  H      -6.823598     -0.216877      0.533764
  H      -6.768014      2.687504      2.674772
  H      -6.059127      2.651410      1.033152
  H      -7.659114      1.911550      1.332800
37
Coordinates from ORCA-job TEGDME_anion_cpcm_20_default E -770.222468811226
  C       6.192721      1.490876      1.687112
  O       6.265017      0.086189      1.440724
  C       5.435352     -0.337538      0.357940
  C       3.982688     -0.525173      0.800082
  O       3.164325     -1.024732     -0.255451
  C       2.798468     -0.033032     -1.222370
  C       1.655769     -0.556118     -2.054892
  O       0.478977     -0.620508     -1.265303
  C      -0.643839     -1.123557     -2.003548
  C      -1.901330     -1.084911     -1.126858
  O      -2.349207      0.163227     -0.811504
  C      -5.160026     -1.181449      1.437251
  C      -5.892028      0.022875      0.995346
  O      -6.094679      0.895661      2.107506
  C      -6.762071      2.090974      1.715311
  H       5.195695      1.805146      2.024349
  H       6.456705      2.060631      0.783685
  H       6.916410      1.713775      2.475353
  H       5.834382     -1.299643      0.015465
  H       5.503514      0.379748     -0.474602
  H       3.947302     -1.271548      1.601927
  H       3.569380      0.418824      1.187752
  H       2.498865      0.895811     -0.710903
  H       3.641560      0.198437     -1.891573
  H       1.509962      0.119929     -2.915644
  H       1.912836     -1.553492     -2.454227
  H      -0.801435     -0.497196     -2.900417
  H      -0.427122     -2.156852     -2.337138
  H      -1.653411     -1.725865     -0.235649
  H      -2.638074     -1.710608     -1.707161
  H      -4.563130     -1.148514      2.342331
  H      -5.075640     -2.034258      0.773331
  H      -5.322512      0.559197      0.206380
  H      -6.863439     -0.244001      0.537801
  H      -6.882206      2.706961      2.609853
  H      -6.175664      2.647855      0.968287
  H      -7.754116      1.872881      1.290542
37
Coordinates from ORCA-job TEGDME_anion_cpcm_20_default E -770.222504604441
  C       6.262519      1.437220      1.685977
  O       6.352233      0.049346      1.362766
  C       5.496199     -0.333255      0.285370
  C       4.060901     -0.570422      0.759256
  O       3.222832     -1.036890     -0.295871
  C       2.817143     -0.011269     -1.210439
  C       1.659640     -0.515661     -2.033143
  O       0.500855     -0.616435     -1.220682
  C      -0.629406     -1.119021     -1.947650
  C      -1.878124     -1.085030     -1.058023
  O      -2.328644      0.160981     -0.736890
  C      -5.177821     -1.125805      1.484108
  C      -5.947544      0.035674      0.992083
  O      -6.214871      0.925084      2.076924
  C      -6.928776      2.077486      1.641146
  H       5.273397      1.711755      2.077025
  H       6.480080      2.058898      0.804691
  H       7.011955      1.633929      2.456969
  H       5.900241     -1.268868     -0.119048
  H       5.526356      0.427976     -0.509512
  H       4.062518     -1.354459      1.525120
  H       3.640728      0.345427      1.203335
  H       2.521283      0.891616     -0.652613
  H       3.638130      0.258581     -1.892770
  H       1.488385      0.187541     -2.867094
  H       1.915337     -1.496809     -2.471609
  H      -0.798320     -0.489946     -2.840553
  H      -0.413209     -2.150536     -2.286886
  H      -1.619732     -1.725231     -0.169334
  H      -2.618069     -1.713656     -1.631176
  H      -4.586679     -1.034433      2.388959
  H      -5.063947     -2.002798      0.857272
  H      -5.379962      0.576462      0.204797
  H      -6.894646     -0.283062      0.517851
  H      -7.098073      2.708905      2.516801
  H      -6.353062      2.644102      0.892997
  H      -7.899849      1.802602      1.200931
37
Coordinates from ORCA-job TEGDME_anion_cpcm_20_default E -770.222535768762
  C       6.310658      1.397569      1.682636
  O       6.402207      0.021537      1.312379
  C       5.528501     -0.331405      0.239182
  C       4.103559     -0.590925      0.731293
  O       3.249508     -1.034778     -0.320862
  C       2.824311      0.010451     -1.203225
  C       1.653486     -0.478726     -2.016440
  O       0.509394     -0.600100     -1.186607
  C      -0.628374     -1.101596     -1.902752
  C      -1.864686     -1.086491     -0.997578
  O      -2.323051      0.153301     -0.658280
  C      -5.203528     -1.110044      1.518047
  C      -5.985497      0.026506      0.988420
  O      -6.275717      0.940933      2.046143
  C      -7.000050      2.071698      1.573554
  H       5.328353      1.651190      2.103850
  H       6.505071      2.049197      0.817825
  H       7.075534      1.573661      2.443377
  H       5.928601     -1.252143     -0.201684
  H       5.541015      0.454828     -0.531472
  H       4.123144     -1.395970      1.474857
  H       3.683987      0.308703      1.207972
  H       2.534560      0.898865     -0.619445
  H       3.632260      0.299213     -1.893245
  H       1.466263      0.242016     -2.831876
  H       1.903641     -1.449497     -2.480550
  H      -0.811582     -0.465317     -2.787740
  H      -0.409964     -2.128598     -2.254257
  H      -1.590178     -1.731872     -0.117771
  H      -2.607277     -1.714863     -1.566422
  H      -4.624022     -0.987840      2.426624
  H      -5.062216     -1.995046      0.908200
  H      -5.420366      0.553975      0.190499
  H      -6.923981     -0.321090      0.516846
  H      -7.185346      2.723415      2.431002
  H      -6.424550      2.626256      0.816207
  H      -7.963667      1.772983      1.132380
37
Coordinates from ORCA-job TEGDME_anion_cpcm_20_default E -770.222561217678
  C       6.332344      1.384812      1.673983
  O       6.397170      0.002813      1.319759
  C       5.521997     -0.344603      0.246025
  C       4.091998     -0.574080      0.736990
  O       3.232279     -1.021546     -0.309226
  C       2.825689      0.014767     -1.209143
  C       1.651016     -0.472009     -2.019398
  O       0.506617     -0.575251     -1.188738
  C      -0.632639     -1.084917     -1.897433
  C      -1.865608     -1.067242     -0.991395
  O      -2.326181      0.174167     -0.654702
  C      -5.194785     -1.113060      1.524256
  C      -5.983500      0.015879      0.989716
  O      -6.299714      0.923460      2.046762
  C      -7.014293      2.056691      1.565506
  H       5.351103      1.663634      2.081386
  H       6.551062      2.022391      0.804641
  H       7.092574      1.551069      2.441512
  H       5.905930     -1.277433     -0.183715
  H       5.552495      0.433184     -0.532674
  H       4.096843     -1.368302      1.492469
  H       3.683026      0.338104      1.198708
  H       2.541675      0.915627     -0.641411
  H       3.640972      0.283154     -1.898481
  H       1.471379      0.242565     -2.842053
  H       1.892904     -1.449430     -2.473982
  H      -0.815402     -0.458686     -2.789714
  H      -0.413417     -2.115626     -2.237892
  H      -1.588609     -1.708058     -0.109264
  H      -2.609625     -1.696878     -1.555338
  H      -4.614554     -0.986458      2.431562
  H      -5.045233     -1.995453      0.912526
  H      -5.415932      0.553553      0.200823
  H      -6.911684     -0.344560      0.507146
  H      -7.217909      2.701154      2.424369
  H      -6.421962      2.616397      0.825312
  H      -7.968025      1.760170      1.102194
37
Coordinates from ORCA-job TEGDME_anion_cpcm_20_default E -770.222570561403
  C       6.366138      1.362509      1.664656
  O       6.419479     -0.017232      1.299492
  C       5.534293     -0.350672      0.229502
  C       4.107262     -0.577143      0.730554
  O       3.237339     -1.017714     -0.310206
  C       2.828135      0.022920     -1.203565
  C       1.648893     -0.459329     -2.010301
  O       0.508454     -0.563391     -1.174468
  C      -0.633554     -1.073734     -1.878441
  C      -1.864037     -1.051738     -0.969403
  O      -2.324207      0.191323     -0.638003
  C      -5.192737     -1.098731      1.538180
  C      -5.994015      0.013559      0.987990
  O      -6.346767      0.916842      2.037271
  C      -7.066022      2.039871      1.539315
  H       5.388579      1.645417      2.077976
  H       6.586160      2.005210      0.799436
  H       7.130533      1.517249      2.430440
  H       5.909769     -1.281863     -0.211186
  H       5.562858      0.433297     -0.542979
  H       4.115897     -1.374308      1.482870
  H       3.705127      0.334646      1.199004
  H       2.546843      0.921767     -0.631124
  H       3.640632      0.293644     -1.895242
  H       1.466561      0.257860     -2.830045
  H       1.887519     -1.435732     -2.468836
  H      -0.817667     -0.450353     -2.772426
  H      -0.417169     -2.105900     -2.216391
  H      -1.584309     -1.687966     -0.084777
  H      -2.609276     -1.684443     -1.528124
  H      -4.613812     -0.953335      2.443583
  H      -5.031223     -1.986660      0.937574
  H      -5.422631      0.561456      0.208799
  H      -6.905758     -0.365703      0.489256
  H      -7.297975      2.680989      2.393486
  H      -6.464696      2.607596      0.812683
  H      -8.004618      1.729789      1.054535
37
Coordinates from ORCA-job TEGDME_anion_cpcm_20_default E -770.222581421139
  C       6.414392      1.332823      1.647281
  O       6.443985     -0.046599      1.277812
  C       5.544873     -0.363165      0.214277
  C       4.119447     -0.571522      0.728212
  O       3.235743     -1.008675     -0.302467
  C       2.829868      0.031370     -1.197524
  C       1.645395     -0.447534     -1.999244
  O       0.508161     -0.543946     -1.158203
  C      -0.639523     -1.050757     -1.855685
  C      -1.863466     -1.027882     -0.937392
  O      -2.319796      0.215498     -0.604211
  C      -5.185601     -1.082426      1.551877
  C      -6.001648      0.009582      0.983795
  O      -6.412863      0.896594      2.025345
  C      -7.131450      2.011349      1.507320
  H       5.443136      1.631001      2.064565
  H       6.641970      1.974354      0.783141
  H       7.183772      1.473012      2.410833
  H       5.903274     -1.298099     -0.232788
  H       5.577947      0.422422     -0.556275
  H       4.127343     -1.364322      1.485045
  H       3.731452      0.347523      1.194290
  H       2.553879      0.933558     -0.627586
  H       3.641744      0.296421     -1.892167
  H       1.463442      0.267927     -2.820502
  H       1.878009     -1.426405     -2.455553
  H      -0.828775     -0.425441     -2.747162
  H      -0.428984     -2.082836     -2.197672
  H      -1.576961     -1.663744     -0.054657
  H      -2.612890     -1.660969     -1.490491
  H      -4.609261     -0.915847      2.455419
  H      -5.006644     -1.974725      0.962712
  H      -5.420953      0.578746      0.226677
  H      -6.885066     -0.391644      0.453013
  H      -7.409814      2.640048      2.356757
  H      -6.510899      2.595585      0.810774
  H      -8.043239      1.688725      0.981521
37
Coordinates from ORCA-job TEGDME_anion_cpcm_20_default E -770.222586535867
  C       6.435368      1.319666      1.638516
  O       6.455829     -0.059469      1.267495
  C       5.550125     -0.369666      0.207578
  C       4.125994     -0.571857      0.727802
  O       3.236334     -1.005126     -0.299332
  C       2.830257      0.037459     -1.191564
  C       1.644453     -0.438412     -1.992890
  O       0.507731     -0.534983     -1.150855
  C      -0.641514     -1.038481     -1.848000
  C      -1.864135     -1.015579     -0.927112
  O      -2.317401      0.227698     -0.590331
  C      -5.188450     -1.080055      1.565204
  C      -6.009498      0.001601      0.985141
  O      -6.430975      0.894428      2.018031
  C      -7.152400      2.001599      1.487386
  H       5.466960      1.623331      2.058536
  H       6.664500      1.960721      0.774401
  H       7.207472      1.454719      2.400260
  H       5.901884     -1.305455     -0.243010
  H       5.583559      0.417318     -0.561508
  H       4.134170     -1.364682      1.484594
  H       3.744281      0.348969      1.195538
  H       2.556584      0.938613     -0.618986
  H       3.641407      0.303214     -1.886821
  H       1.462415      0.278721     -2.812652
  H       1.875325     -1.416750     -2.451161
  H      -0.831993     -0.410148     -2.737091
  H      -0.432689     -2.069665     -2.193576
  H      -1.576554     -1.653973     -0.046497
  H      -2.615688     -1.646525     -1.480057
  H      -4.617259     -0.901418      2.469780
  H      -4.999807     -1.975720      0.984254
  H      -5.428857      0.569096      0.226463
  H      -6.887755     -0.408854      0.453157
  H      -7.439407      2.635565      2.330005
  H      -6.530939      2.583811      0.789894
  H      -8.059328      1.670286      0.958498
37
Coordinates from ORCA-job TEGDME_anion_cpcm_20_default E -770.222591927947
  C       6.460235      1.303476      1.627159
  O       6.466714     -0.076441      1.259057
  C       5.553459     -0.380533      0.203806
  C       4.129650     -0.568778      0.730308
  O       3.233480     -0.999832     -0.291960
  C       2.830842      0.042813     -1.186000
  C       1.644005     -0.430064     -1.986966
  O       0.506200     -0.521864     -1.145503
  C      -0.644644     -1.021841     -1.842198
  C      -1.865933     -0.997764     -0.918612
  O      -2.313631      0.245665     -0.576209
  C      -5.182987     -1.072901      1.580925
  C      -6.011746     -0.004718      0.986941
  O      -6.453481      0.888629      2.011094
  C      -7.182659      1.984441      1.467395
  H       5.495828      1.617074      2.049226
  H       6.692873      1.940498      0.760958
  H       7.235632      1.433124      2.386519
  H       5.894677     -1.320296     -0.246615
  H       5.590897      0.405043     -0.566543
  H       4.134597     -1.358118      1.490789
  H       3.756983      0.357244      1.195026
  H       2.561467      0.945668     -0.614212
  H       3.642766      0.304589     -1.881941
  H       1.464660      0.286864     -2.807532
  H       1.871445     -1.409695     -2.444057
  H      -0.835870     -0.390686     -2.729183
  H      -0.437632     -2.052372     -2.190588
  H      -1.578376     -1.640437     -0.041044
  H      -2.620880     -1.624500     -1.472141
  H      -4.617176     -0.878637      2.485713
  H      -4.983571     -1.973136      1.010774
  H      -5.430250      0.565636      0.230932
  H      -6.879903     -0.428170      0.448804
  H      -7.486120      2.619917      2.303093
  H      -6.561314      2.570361      0.772821
  H      -8.080239      1.639744      0.931050
37
Coordinates from ORCA-job TEGDME_anion_cpcm_20_default E -770.222596052855
  C       6.483861      1.284150      1.618064
  O       6.478814     -0.095092      1.247916
  C       5.557967     -0.391317      0.197037
  C       4.134979     -0.568288      0.729644
  O       3.232294     -0.995082     -0.288545
  C       2.832117      0.049298     -1.181912
  C       1.642657     -0.418773     -1.981268
  O       0.505428     -0.507154     -1.138534
  C      -0.647977     -1.002859     -1.833712
  C      -1.866521     -0.980099     -0.906133
  O      -2.309572      0.262746     -0.555942
  C      -5.175045     -1.061880      1.601899
  C      -6.012472     -0.010733      0.989683
  O      -6.474483      0.887008      2.001282
  C      -7.216311      1.965636      1.440873
  H       5.523865      1.603548      2.045860
  H       6.716217      1.920920      0.751583
  H       7.264138      1.407304      2.373502
  H       5.889203     -1.333681     -0.255334
  H       5.598373      0.394645     -0.572805
  H       4.137275     -1.356217      1.491653
  H       3.770377      0.361109      1.193996
  H       2.568070      0.952960     -0.609001
  H       3.643869      0.307873     -1.879298
  H       1.464700      0.299575     -2.800942
  H       1.865645     -1.398869     -2.439486
  H      -0.841159     -0.367805     -2.717576
  H      -0.442841     -2.032218     -2.186489
  H      -1.577656     -1.627881     -0.032701
  H      -2.624969     -1.602217     -1.460120
  H      -4.616221     -0.848388      2.506730
  H      -4.962672     -1.967752      1.045581
  H      -5.431732      0.559413      0.232990
  H      -6.870637     -0.450817      0.448975
  H      -7.535508      2.605623      2.267245
  H      -6.599221      2.553642      0.744217
  H      -8.104852      1.601673      0.902154
37
Coordinates from ORCA-job TEGDME_anion_cpcm_20_default E -770.222599825410
  C       6.488883      1.274635      1.616987
  O       6.481589     -0.103871      1.244462
  C       5.558348     -0.397458      0.195024
  C       4.135319     -0.570026      0.728855
  O       3.230881     -0.994370     -0.288741
  C       2.832765      0.051215     -1.181783
  C       1.641765     -0.413460     -1.980534
  O       0.504669     -0.499528     -1.137482
  C      -0.650114     -0.992088     -1.832504
  C      -1.867806     -0.969409     -0.904002
  O      -2.307329      0.273354     -0.549037
  C      -5.162389     -1.052318      1.617959
  C      -6.005534     -0.012529      0.993911
  O      -6.477081      0.890237      1.996799
  C      -7.231970      1.954198      1.426272
  H       5.530757      1.593556      2.049290
  H       6.718131      1.912895      0.750780
  H       7.272214      1.395911      2.369556
  H       5.885923     -1.341030     -0.257426
  H       5.600249      0.388449     -0.574834
  H       4.135439     -1.357798      1.491073
  H       3.773399      0.360358      1.193324
  H       2.571999      0.955416     -0.608250
  H       3.644751      0.307507     -1.879752
  H       1.465192      0.306045     -2.799540
  H       1.861889     -1.393780     -2.439657
  H      -0.843001     -0.354938     -2.714985
  H      -0.446497     -2.021060     -2.187240
  H      -1.580015     -1.620981     -0.032984
  H      -2.628299     -1.587582     -1.459457
  H      -4.607566     -0.825989      2.522120
  H      -4.943126     -1.962572      1.071620
  H      -5.427037      0.555296      0.233954
  H      -6.859197     -0.463833      0.455353
  H      -7.557955      2.598714      2.246470
  H      -6.622561      2.542546      0.723175
  H      -8.116683      1.574289      0.892308
37
Coordinates from ORCA-job TEGDME_anion_cpcm_20_default E -770.222603324655
  C       6.489668      1.265278      1.619524
  O       6.483760     -0.111374      1.240106
  C       5.559091     -0.401361      0.191043
  C       4.136372     -0.574415      0.725429
  O       3.230836     -0.995366     -0.292667
  C       2.833405      0.052569     -1.183185
  C       1.640062     -0.408319     -1.980770
  O       0.504408     -0.493870     -1.136008
  C      -0.652291     -0.983068     -1.830408
  C      -1.869072     -0.959531     -0.901349
  O      -2.305353      0.283540     -0.543281
  C      -5.147093     -1.040078      1.636352
  C      -5.996446     -0.013174      0.999346
  O      -6.479283      0.894778      1.992196
  C      -7.246721      1.943220      1.410055
  H       5.532971      1.579651      2.058180
  H       6.713223      1.908478      0.755504
  H       7.276425      1.384417      2.368840
  H       5.885371     -1.344144     -0.263939
  H       5.600754      0.386427     -0.576915
  H       4.136090     -1.364242      1.485528
  H       3.774967      0.354777      1.192675
  H       2.575092      0.956298     -0.607748
  H       3.644844      0.308383     -1.881935
  H       1.463559      0.313241     -2.798008
  H       1.857595     -1.388089     -2.442344
  H      -0.844162     -0.344631     -2.712180
  H      -0.451417     -2.012200     -2.186355
  H      -1.582879     -1.613926     -0.031905
  H      -2.631334     -1.574248     -1.458021
  H      -4.595649     -0.799891      2.538990
  H      -4.920650     -1.954904      1.100720
  H      -5.420412      0.552542      0.236127
  H      -6.844464     -0.477137      0.462679
  H      -7.580481      2.592202      2.223575
  H      -6.644229      2.531459      0.700992
  H      -8.126560      1.546707      0.880241
37
Coordinates from ORCA-job TEGDME_anion_cpcm_20_default E -770.222605397077
  C       6.486249      1.258699      1.624399
  O       6.484266     -0.115961      1.237449
  C       5.559667     -0.403146      0.187653
  C       4.137149     -0.579723      0.721388
  O       3.231888     -0.997731     -0.298296
  C       2.834574      0.052697     -1.185765
  C       1.639224     -0.404936     -1.982560
  O       0.505038     -0.490939     -1.136065
  C      -0.653380     -0.976987     -1.830095
  C      -1.869521     -0.952129     -0.900662
  O      -2.303117      0.291431     -0.540932
  C      -5.133719     -1.028848      1.653262
  C      -5.989341     -0.013764      1.005870
  O      -6.480582      0.899486      1.989781
  C      -7.256753      1.935596      1.397258
  H       5.530176      1.566924      2.068658
  H       6.703719      1.907473      0.763012
  H       7.275656      1.376804      2.371076
  H       5.886994     -1.344038     -0.270495
  H       5.600243      0.387125     -0.577811
  H       4.137517     -1.372383      1.478514
  H       3.774587      0.347311      1.191997
  H       2.577623      0.955521     -0.608244
  H       3.645377      0.309152     -1.884979
  H       1.462409      0.318603     -2.797970
  H       1.854974     -1.383913     -2.446693
  H      -0.844012     -0.337541     -2.711358
  H      -0.455482     -2.006375     -2.187088
  H      -1.584838     -1.608349     -0.032139
  H      -2.633168     -1.564306     -1.458194
  H      -4.584475     -0.776853      2.554032
  H      -4.901467     -1.947539      1.126774
  H      -5.416437      0.549701      0.238675
  H      -6.832977     -0.488802      0.472039
  H      -7.596190      2.589216      2.204684
  H      -6.659017      2.522211      0.682875
  H      -8.132852      1.526311      0.871036
37
Coordinates from ORCA-job TEGDME_anion_cpcm_20_default E -770.222607049694
  C       6.486278      1.248337      1.628724
  O       6.486326     -0.124063      1.233474
  C       5.560827     -0.406690      0.183311
  C       4.138549     -0.585305      0.717040
  O       3.232834     -0.999683     -0.303865
  C       2.836389      0.053521     -1.188256
  C       1.638725     -0.399923     -1.984272
  O       0.505854     -0.485496     -1.136061
  C      -0.654647     -0.967689     -1.829537
  C      -1.869894     -0.940755     -0.899126
  O      -2.299781      0.303441     -0.537298
  C      -5.117841     -1.013472      1.675819
  C      -5.982966     -0.015581      1.014675
  O      -6.487990      0.902990      1.986650
  C      -7.273485      1.923745      1.379775
  H       5.531630      1.551218      2.079614
  H       6.697469      1.902838      0.770113
  H       7.279190      1.364270      2.372012
  H       5.887853     -1.345748     -0.278835
  H       5.600946      0.386494     -0.579171
  H       4.139316     -1.380704      1.471265
  H       3.775999      0.340048      1.190921
  H       2.581610      0.955645     -0.608642
  H       3.646665      0.310072     -1.888027
  H       1.462175      0.325658     -2.797909
  H       1.851904     -1.378294     -2.450891
  H      -0.844012     -0.326942     -2.710078
  H      -0.460362     -1.997328     -2.187858
  H      -1.586652     -1.599131     -0.031820
  H      -2.635566     -1.549946     -1.457272
  H      -4.571651     -0.744819      2.573642
  H      -4.876787     -1.936943      1.161759
  H      -5.414164      0.546272      0.243185
  H      -6.819114     -0.506224      0.483283
  H      -7.622929      2.582443      2.178742
  H      -6.679684      2.508909      0.660938
  H      -8.143016      1.498838      0.855062
37
Coordinates from ORCA-job TEGDME_anion_cpcm_20_default E -770.222610861058
  C       6.484338      1.226078      1.638736
  O       6.488094     -0.141573      1.226869
  C       5.560972     -0.414875      0.175804
  C       4.138730     -0.596200      0.708754
  O       3.232606     -1.002832     -0.315116
  C       2.838912      0.056169     -1.193577
  C       1.637068     -0.388142     -1.988775
  O       0.506115     -0.472523     -1.137966
  C      -0.658512     -0.945536     -1.831098
  C      -1.871632     -0.916584     -0.897995
  O      -2.293708      0.328049     -0.528681
  C      -5.083938     -0.982032      1.727268
  C      -5.968502     -0.022865      1.035605
  O      -6.496047      0.912785      1.978913
  C      -7.300527      1.898836      1.340219
  H       5.532936      1.518020      2.103411
  H       6.682383      1.891983      0.785773
  H       7.284666      1.337789      2.374680
  H       5.886896     -1.350593     -0.293869
  H       5.601187      0.383978     -0.580801
  H       4.139119     -1.396865      1.457363
  H       3.776693      0.326203      1.188673
  H       2.589083      0.956932     -0.609668
  H       3.648652      0.312420     -1.894072
  H       1.461863      0.341817     -2.798760
  H       1.844777     -1.365290     -2.460437
  H      -0.845931     -0.299992     -2.708492
  H      -0.471012     -1.974658     -2.194536
  H      -1.590641     -1.581278     -0.034873
  H      -2.641793     -1.518439     -1.458139
  H      -4.546802     -0.676943      2.618910
  H      -4.822183     -1.914834      1.240822
  H      -5.409903      0.528815      0.249287
  H      -6.792039     -0.546793      0.516492
  H      -7.666106      2.573171      2.118636
  H      -6.716567      2.474948      0.606131
  H      -8.159247      1.440856      0.825593
37
Coordinates from ORCA-job TEGDME_anion_cpcm_20_default E -770.222618951207
  C       6.492478      1.188901      1.646317
  O       6.493973     -0.172732      1.214500
  C       5.561670     -0.430833      0.164317
  C       4.139664     -0.609029      0.698991
  O       3.229816     -1.004008     -0.326351
  C       2.841746      0.062601     -1.197928
  C       1.633601     -0.367991     -1.991366
  O       0.505110     -0.448218     -1.136994
  C      -0.665403     -0.908796     -1.828830
  C      -1.875303     -0.875810     -0.891784
  O      -2.285851      0.369846     -0.513032
  C      -5.037997     -0.933264      1.798751
  C      -5.949012     -0.033817      1.062839
  O      -6.513400      0.922516      1.963081
  C      -7.345713      1.853759      1.279227
  H       5.547057      1.471502      2.128552
  H       6.676637      1.867595      0.800345
  H       7.302966      1.292155      2.372306
  H       5.880998     -1.364070     -0.314746
  H       5.604228      0.374550     -0.585282
  H       4.137590     -1.415039      1.441833
  H       3.782570      0.311703      1.185697
  H       2.600661      0.962451     -0.608921
  H       3.651183      0.316112     -1.899759
  H       1.461378      0.367536     -2.796941
  H       1.832177     -1.344132     -2.469048
  H      -0.850223     -0.257348     -2.702380
  H      -0.487335     -1.937444     -2.198340
  H      -1.597321     -1.548541     -0.033992
  H      -2.652126     -1.467550     -1.453613
  H      -4.517274     -0.574293      2.680018
  H      -4.743691     -1.877098      1.353907
  H      -5.403829      0.503198      0.257046
  H      -6.751092     -0.606122      0.561584
  H      -7.738128      2.547662      2.026744
  H      -6.776264      2.417574      0.524446
  H      -8.185542      1.346476      0.779892
37
Coordinates from ORCA-job TEGDME_anion_cpcm_20_default E -770.222623122206
  C       6.502952      1.090950      1.667647
  O       6.494936     -0.256312      1.192001
  C       5.551913     -0.477604      0.143315
  C       4.128393     -0.639524      0.679234
  O       3.210907     -1.005830     -0.350422
  C       2.843982      0.077475     -1.210248
  C       1.621487     -0.316886     -2.000908
  O       0.496382     -0.379169     -1.140776
  C      -0.688227     -0.805534     -1.830972
  C      -1.891764     -0.756639     -0.886493
  O      -2.269558      0.492954     -0.486996
  C      -4.910107     -0.785813      1.983331
  C      -5.881956     -0.061698      1.140108
  O      -6.538674      0.942832      1.916107
  C      -7.436223      1.711869      1.121683
  H       5.573240      1.353695      2.189797
  H       6.656311      1.797236      0.838258
  H       7.337032      1.174513      2.369030
  H       5.852230     -1.407722     -0.353780
  H       5.605967      0.340191     -0.592205
  H       4.114399     -1.455370      1.411133
  H       3.786239      0.280440      1.177798
  H       2.627061      0.977882     -0.612711
  H       3.655571      0.318007     -1.914155
  H       1.462225      0.429977     -2.798693
  H       1.794687     -1.292634     -2.489256
  H      -0.862216     -0.140237     -2.696252
  H      -0.536159     -1.833638     -2.213417
  H      -1.625472     -1.448730     -0.040579
  H      -2.685978     -1.320949     -1.452427
  H      -4.445520     -0.287210      2.827219
  H      -4.523128     -1.742628      1.651359
  H      -5.372015      0.420959      0.278411
  H      -6.624480     -0.756372      0.706093
  H      -7.896103      2.453924      1.778979
  H      -6.905206      2.228227      0.307171
  H      -8.223129      1.079364      0.682701
37
Coordinates from ORCA-job TEGDME_anion_cpcm_20_default E -770.222641187941
  C       6.543620      1.064694      1.649414
  O       6.521011     -0.278626      1.163936
  C       5.566113     -0.485348      0.123031
  C       4.147177     -0.642645      0.672392
  O       3.217841     -1.000838     -0.349140
  C       2.845869      0.087809     -1.200122
  C       1.618883     -0.301522     -1.985652
  O       0.498544     -0.367918     -1.119436
  C      -0.690882     -0.787903     -1.804567
  C      -1.888407     -0.740442     -0.852029
  O      -2.259115      0.508033     -0.443092
  C      -4.925604     -0.762539      1.999307
  C      -5.897431     -0.062594      1.135737
  O      -6.584467      0.934748      1.894995
  C      -7.482689      1.682816      1.081735
  H       5.619502      1.331031      2.179697
  H       6.697590      1.775961      0.824413
  H       7.382836      1.135916      2.346031
  H       5.855048     -1.413267     -0.384743
  H       5.618301      0.338577     -0.605766
  H       4.136871     -1.461299      1.401258
  H       3.814324      0.276852      1.178099
  H       2.633904      0.984288     -0.595035
  H       3.653169      0.332337     -1.907647
  H       1.454984      0.450132     -2.778007
  H       1.788332     -1.274604     -2.480497
  H      -0.869521     -0.117128     -2.664744
  H      -0.542794     -1.814110     -2.193519
  H      -1.618752     -1.437970     -0.011555
  H      -2.688219     -1.299148     -1.415665
  H      -4.473663     -0.243609      2.837702
  H      -4.523705     -1.719461      1.686261
  H      -5.382490      0.423391      0.279010
  H      -6.620579     -0.773399      0.695427
  H      -7.967364      2.419658      1.727020
  H      -6.947849      2.204664      0.273334
  H      -8.250388      1.033464      0.633505
37
Coordinates from ORCA-job TEGDME_anion_cpcm_20_default E -770.222637930696
  C       6.599762      1.090915      1.598326
  O       6.564923     -0.257699      1.130300
  C       5.597264     -0.471988      0.102422
  C       4.188196     -0.635805      0.674875
  O       3.242994     -0.997168     -0.329896
  C       2.846882      0.092891     -1.168893
  C       1.621598     -0.308536     -1.949284
  O       0.506872     -0.398873     -1.077335
  C      -0.683094     -0.817837     -1.760280
  C      -1.874564     -0.789482     -0.798560
  O      -2.246951      0.451451     -0.369297
  C      -5.027338     -0.829559      1.920413
  C      -5.964480     -0.054996      1.081905
  O      -6.639042      0.915470      1.887380
  C      -7.499153      1.736017      1.104366
  H       5.673577      1.374993      2.115988
  H       6.771063      1.789809      0.766180
  H       7.432479      1.160809      2.302890
  H       5.882891     -1.398918     -0.408832
  H       5.634831      0.352323     -0.626796
  H       4.194116     -1.454723      1.403610
  H       3.861341      0.281780      1.188138
  H       2.628226      0.979817     -0.552366
  H       3.644939      0.355943     -1.880382
  H       1.440584      0.448190     -2.733059
  H       1.801485     -1.274581     -2.453938
  H      -0.874512     -0.135446     -2.608739
  H      -0.528596     -1.837088     -2.164426
  H      -1.595599     -1.497501      0.030354
  H      -2.676113     -1.343872     -1.363825
  H      -4.564501     -0.362242      2.782822
  H      -4.654108     -1.783943      1.567221
  H      -5.419881      0.464187      0.264319
  H      -6.699301     -0.718014      0.589744
  H      -7.979215      2.445415      1.783197
  H      -6.933538      2.291566      0.340684
  H      -8.274039      1.136695      0.601860
37
Coordinates from ORCA-job TEGDME_anion_cpcm_20_default E -770.222662909787
  C       6.598215      1.063262      1.600269
  O       6.556193     -0.285227      1.131608
  C       5.586913     -0.493844      0.104132
  C       4.176015     -0.644395      0.675789
  O       3.228286     -0.997630     -0.329846
  C       2.844920      0.095575     -1.170616
  C       1.615853     -0.293324     -1.951904
  O       0.499838     -0.372409     -1.080677
  C      -0.693894     -0.777639     -1.765883
  C      -1.886052     -0.739627     -0.805680
  O      -2.245613      0.503906     -0.372493
  C      -4.979491     -0.786182      1.976822
  C      -5.931931     -0.066371      1.107594
  O      -6.637073      0.913080      1.874745
  C      -7.513855      1.682361      1.058627
  H       5.676163      1.350416      2.123423
  H       6.766929      1.761939      0.767403
  H       7.435389      1.130041      2.299813
  H       5.865186     -1.424524     -0.404419
  H       5.631711      0.327825     -0.627659
  H       4.173949     -1.462737      1.405163
  H       3.856914      0.276554      1.187836
  H       2.634461      0.985905     -0.556049
  H       3.646597      0.349181     -1.881383
  H       1.443388      0.465042     -2.735991
  H       1.786491     -1.261072     -2.456607
  H      -0.876367     -0.091852     -2.613506
  H      -0.550316     -1.797702     -2.172081
  H      -1.615829     -1.453677      0.020885
  H      -2.692891     -1.283176     -1.373925
  H      -4.537104     -0.279756      2.827927
  H      -4.576237     -1.739925      1.656093
  H      -5.396878      0.438950      0.274935
  H      -6.645367     -0.765939      0.634910
  H      -8.016270      2.402238      1.709673
  H      -6.958575      2.225420      0.278462
  H      -8.269663      1.045312      0.573698
37
Coordinates from ORCA-job TEGDME_anion_cpcm_20_default E -770.222672368879
  C       6.577395      1.065437      1.602538
  O       6.533864     -0.290280      1.154931
  C       5.571399     -0.511534      0.123706
  C       4.155827     -0.648941      0.687062
  O       3.212311     -1.003498     -0.322249
  C       2.842017      0.086171     -1.173445
  C       1.614838     -0.299172     -1.959659
  O       0.493131     -0.364809     -1.094805
  C      -0.701462     -0.755489     -1.787169
  C      -1.898025     -0.705486     -0.833216
  O      -2.243559      0.540992     -0.397128
  C      -4.933022     -0.768086      1.996761
  C      -5.895644     -0.069278      1.121657
  O      -6.615923      0.905228      1.880906
  C      -7.505185      1.653789      1.058689
  H       5.653194      1.364057      2.115274
  H       6.753574      1.750178      0.759708
  H       7.410519      1.140602      2.306034
  H       5.850754     -1.450621     -0.368552
  H       5.624047      0.298483     -0.620371
  H       4.143519     -1.461560      1.422659
  H       3.839439      0.277920      1.190016
  H       2.633919      0.982654     -0.567066
  H       3.649889      0.328705     -1.880985
  H       1.452787      0.455618     -2.749393
  H       1.781627     -1.271137     -2.457573
  H      -0.870871     -0.066620     -2.634945
  H      -0.567994     -1.776682     -2.194062
  H      -1.641591     -1.426163     -0.008047
  H      -2.708922     -1.236365     -1.407785
  H      -4.500378     -0.250332      2.846057
  H      -4.516930     -1.719167      1.684643
  H      -5.368223      0.438000      0.285356
  H      -6.598048     -0.783365      0.654156
  H      -8.017905      2.371477      1.704037
  H      -6.958951      2.198407      0.273218
  H      -8.251417      1.000866      0.580129
37
Coordinates from ORCA-job TEGDME_anion_cpcm_20_default E -770.222689519692
  C       6.605916      1.035917      1.571782
  O       6.546721     -0.322837      1.135262
  C       5.575286     -0.542906      0.112153
  C       4.163216     -0.667624      0.687150
  O       3.206969     -1.008072     -0.314957
  C       2.840523      0.089770     -1.157415
  C       1.606612     -0.280484     -1.940088
  O       0.488414     -0.344141     -1.070534
  C      -0.716326     -0.697797     -1.764856
  C      -1.907720     -0.642766     -0.804886
  O      -2.222495      0.600839     -0.338016
  C      -4.913357     -0.722224      2.048200
  C      -5.878617     -0.081482      1.132462
  O      -6.648144      0.888935      1.847856
  C      -7.543210      1.583531      0.985748
  H       5.687136      1.348080      2.086187
  H       6.785277      1.712068      0.722690
  H       7.442921      1.108250      2.270956
  H       5.844691     -1.486248     -0.377463
  H       5.627871      0.262958     -0.636338
  H       4.148526     -1.482577      1.420106
  H       3.861548      0.260678      1.196481
  H       2.642526      0.983860     -0.544137
  H       3.646720      0.330630     -1.867391
  H       1.446536      0.482193     -2.722596
  H       1.763227     -1.249498     -2.447033
  H      -0.875492      0.011019     -2.598085
  H      -0.605178     -1.713189     -2.192490
  H      -1.665450     -1.388485      0.002120
  H      -2.732886     -1.140909     -1.388417
  H      -4.518889     -0.166605      2.892172
  H      -4.458387     -1.667024      1.773438
  H      -5.349708      0.419975      0.293661
  H      -6.546268     -0.831816      0.670851
  H      -8.094018      2.300878      1.599359
  H      -6.998141      2.124621      0.197001
  H      -8.256348      0.892481      0.510156
37
Coordinates from ORCA-job TEGDME_anion_cpcm_20_default E -770.222719173303
  C       6.667630      0.995138      1.498674
  O       6.569390     -0.372209      1.097375
  C       5.579437     -0.592567      0.091858
  C       4.176369     -0.692520      0.693040
  O       3.193796     -1.008628     -0.291302
  C       2.830190      0.102701     -1.117318
  C       1.586194     -0.245449     -1.893789
  O       0.474200     -0.310383     -1.016342
  C      -0.744603     -0.607990     -1.712117
  C      -1.928045     -0.547360     -0.743117
  O      -2.201776      0.689455     -0.232912
  C      -4.911873     -0.683462      2.111095
  C      -5.861841     -0.111806      1.135474
  O      -6.695235      0.851430      1.785310
  C      -7.575379      1.486458      0.864061
  H       5.757822      1.347353      2.003105
  H       6.867637      1.643421      0.632615
  H       7.505596      1.061150      2.197314
  H       5.829246     -1.544740     -0.391009
  H       5.629668      0.203471     -0.666892
  H       4.159523     -1.510352      1.422686
  H       3.904172      0.238986      1.213114
  H       2.645950      0.990998     -0.491410
  H       3.632425      0.344648     -1.831279
  H       1.427180      0.530296     -2.663513
  H       1.728916     -1.208312     -2.416422
  H      -0.887678      0.129900     -2.522765
  H      -0.666394     -1.612825     -2.170943
  H      -1.705091     -1.326497      0.037433
  H      -2.771875     -0.999654     -1.336948
  H      -4.580939     -0.088211      2.955463
  H      -4.399507     -1.610636      1.880533
  H      -5.317947      0.380807      0.301027
  H      -6.481612     -0.902984      0.674936
  H      -8.176672      2.202040      1.430578
  H      -7.015643      2.022308      0.081989
  H      -8.243233      0.756026      0.381488
37
Coordinates from ORCA-job TEGDME_anion_cpcm_20_default E -770.222760135597
  C       6.705661      0.964809      1.453017
  O       6.591855     -0.401939      1.053936
  C       5.588993     -0.614515      0.059441
  C       4.194783     -0.718752      0.680071
  O       3.194932     -1.011297     -0.294070
  C       2.822153      0.117651     -1.091524
  C       1.567368     -0.212357     -1.858673
  O       0.466775     -0.293399     -0.968300
  C      -0.764890     -0.555842     -1.655679
  C      -1.935262     -0.502749     -0.670955
  O      -2.185741      0.724932     -0.127033
  C      -4.928660     -0.654143      2.155316
  C      -5.857286     -0.128811      1.134057
  O      -6.724981      0.840378      1.727175
  C      -7.587765      1.429176      0.760275
  H       5.800919      1.327617      1.959148
  H       6.910473      1.609614      0.585521
  H       7.545946      1.022783      2.149571
  H       5.832420     -1.562693     -0.434455
  H       5.628669      0.187200     -0.693693
  H       4.184428     -1.549730      1.394770
  H       3.936611      0.204427      1.221830
  H       2.646735      0.992664     -0.444684
  H       3.615276      0.373883     -1.810602
  H       1.400102      0.579671     -2.609747
  H       1.701419     -1.164293     -2.403205
  H      -0.906868      0.204061     -2.445848
  H      -0.707858     -1.549803     -2.140698
  H      -1.714466     -1.303531      0.087788
  H      -2.792740     -0.927952     -1.265139
  H      -4.641427     -0.031988      2.996371
  H      -4.380916     -1.569228      1.959970
  H      -5.296183      0.345892      0.300549
  H      -6.450348     -0.944523      0.680788
  H      -8.216357      2.153105      1.285019
  H      -7.014071      1.947821     -0.023254
  H      -8.229697      0.671861      0.284030
37
Coordinates from ORCA-job TEGDME_anion_cpcm_20_default E -770.222813282239
  C       6.733212      0.906480      1.422994
  O       6.606895     -0.454716      1.009140
  C       5.591577     -0.649707      0.023730
  C       4.204293     -0.753794      0.659690
  O       3.189021     -1.016649     -0.306774
  C       2.817050      0.132544     -1.075364
  C       1.549687     -0.168707     -1.833329
  O       0.459671     -0.258710     -0.930853
  C      -0.785907     -0.474212     -1.608660
  C      -1.941738     -0.420771     -0.607085
  O      -2.150243      0.795886     -0.022084
  C      -4.917287     -0.560200      2.239120
  C      -5.830313     -0.140211      1.156758
  O      -6.760750      0.822499      1.659626
  C      -7.616154      1.308172      0.631148
  H       5.836202      1.268504      1.943296
  H       6.932502      1.560388      0.561017
  H       7.581341      0.951272      2.110984
  H       5.824085     -1.592745     -0.484933
  H       5.626862      0.161433     -0.719516
  H       4.194721     -1.598755      1.357848
  H       3.962512      0.160585      1.223564
  H       2.658628      0.994936     -0.407515
  H       3.603709      0.396507     -1.798742
  H       1.380460      0.641802     -2.563924
  H       1.667250     -1.109318     -2.400895
  H      -0.920467      0.310804     -2.375261
  H      -0.758347     -1.455225     -2.121804
  H      -1.734317     -1.250646      0.123627
  H      -2.818378     -0.802855     -1.202687
  H      -4.690813      0.123217      3.050599
  H      -4.321759     -1.458268      2.119225
  H      -5.260735      0.308820      0.314924
  H      -6.371008     -1.007629      0.735126
  H      -8.294152      2.032966      1.089014
  H      -7.040537      1.803435     -0.165992
  H      -8.206773      0.492867      0.185077
37
Coordinates from ORCA-job TEGDME_anion_cpcm_20_default E -770.222885186866
  C       6.753297      0.872673      1.435329
  O       6.635860     -0.467236      0.955988
  C       5.617496     -0.623000     -0.033031
  C       4.234928     -0.768242      0.604965
  O       3.216939     -1.005970     -0.364730
  C       2.823549      0.165262     -1.087802
  C       1.541698     -0.121477     -1.827077
  O       0.474709     -0.246326     -0.901573
  C      -0.780222     -0.500449     -1.547389
  C      -1.911685     -0.473049     -0.516638
  O      -2.140585      0.743206      0.059407
  C      -4.977697     -0.527685      2.264314
  C      -5.874204     -0.134173      1.158128
  O      -6.790621      0.865682      1.611273
  C      -7.633915      1.316323      0.557067
  H       5.853088      1.202414      1.971612
  H       6.949082      1.569332      0.606722
  H       7.600268      0.889366      2.126063
  H       5.854197     -1.538252     -0.588230
  H       5.642008      0.224323     -0.735690
  H       4.238734     -1.639947      1.269663
  H       3.985953      0.120756      1.205337
  H       2.675100      1.004273     -0.388668
  H       3.593217      0.456923     -1.819071
  H       1.349316      0.708101     -2.529980
  H       1.653300     -1.044980     -2.423043
  H      -0.956699      0.276347     -2.313822
  H      -0.735881     -1.483170     -2.055853
  H      -1.660250     -1.288086      0.217039
  H      -2.791473     -0.887062     -1.085964
  H      -4.751802      0.180799      3.053600
  H      -4.388296     -1.433444      2.177813
  H      -5.288686      0.268386      0.304010
  H      -6.428027     -1.007403      0.766344
  H      -8.300579      2.074342      0.976020
  H      -7.045774      1.761377     -0.259986
  H      -8.236343      0.490065      0.148939
37
Coordinates from ORCA-job TEGDME_anion_cpcm_20_default E -770.222935155693
  C       6.839094      0.823449      1.343502
  O       6.665009     -0.513351      0.873556
  C       5.625295     -0.636041     -0.098197
  C       4.256755     -0.770955      0.571182
  O       3.209393     -0.972885     -0.374852
  C       2.808148      0.217633     -1.060375
  C       1.500238     -0.043218     -1.764118
  O       0.466934     -0.184768     -0.803847
  C      -0.806597     -0.462458     -1.402867
  C      -1.898024     -0.474236     -0.328545
  O      -2.146180      0.732645      0.258161
  C      -5.082231     -0.558875      2.279776
  C      -5.910119     -0.168449      1.120297
  O      -6.836893      0.848555      1.504049
  C      -7.604521      1.298026      0.392691
  H       5.945366      1.202341      1.857907
  H       7.086257      1.501771      0.513536
  H       7.671117      0.804835      2.052079
  H       5.835105     -1.544730     -0.674679
  H       5.647028      0.222692     -0.786798
  H       4.262646     -1.655674      1.218380
  H       4.040153      0.110254      1.195286
  H       2.688127      1.042716     -0.339505
  H       3.558035      0.517752     -1.808630
  H       1.289081      0.802718     -2.441625
  H       1.586939     -0.954250     -2.382844
  H      -1.031397      0.315483     -2.155156
  H      -0.758162     -1.439685     -1.921547
  H      -1.590567     -1.281281      0.392402
  H      -2.784771     -0.916519     -0.865020
  H      -4.899265      0.152406      3.077709
  H      -4.477130     -1.456467      2.218689
  H      -5.270471      0.213034      0.295542
  H      -6.450991     -1.041072      0.708593
  H      -8.281193      2.074577      0.757819
  H      -6.956906      1.718046     -0.391683
  H      -8.195303      0.475979     -0.039779
37
Coordinates from ORCA-job TEGDME_anion_cpcm_20_default E -770.222963698525
  C       6.805983      0.817001      1.391943
  O       6.638327     -0.521195      0.923092
  C       5.612136     -0.646878     -0.062388
  C       4.230561     -0.759070      0.584028
  O       3.201507     -0.974537     -0.379266
  C       2.826249      0.202680     -1.101659
  C       1.519718     -0.055899     -1.809112
  O       0.476655     -0.154255     -0.854140
  C      -0.792021     -0.448100     -1.456521
  C      -1.890545     -0.442852     -0.388744
  O      -2.146411      0.773372      0.173979
  C      -5.032016     -0.538193      2.279695
  C      -5.891274     -0.161947      1.138854
  O      -6.829093      0.835402      1.547589
  C      -7.631285      1.273244      0.455728
  H       5.909973      1.193093      1.904163
  H       7.051948      1.495354      0.561631
  H       7.636858      0.802785      2.101947
  H       5.822282     -1.565802     -0.622313
  H       5.653309      0.201456     -0.763156
  H       4.218170     -1.629905      1.249637
  H       4.006701      0.136802      1.183892
  H       2.714882      1.050309     -0.406128
  H       3.587365      0.468301     -1.851520
  H       1.328045      0.774108     -2.511829
  H       1.596013     -0.985077     -2.401657
  H      -1.014876      0.313975     -2.225440
  H      -0.736833     -1.435469     -1.954959
  H      -1.584622     -1.236073      0.348102
  H      -2.771658     -0.899511     -0.923184
  H      -4.843936      0.176175      3.073861
  H      -4.429426     -1.437298      2.217575
  H      -5.277311      0.235634      0.302327
  H      -6.423562     -1.043510      0.735483
  H      -8.315407      2.034245      0.839059
  H      -7.011306      1.710224     -0.341917
  H      -8.215098      0.441413      0.032433
37
Coordinates from ORCA-job TEGDME_anion_cpcm_20_default E -770.222991726434
  C       6.791939      0.797600      1.396016
  O       6.638910     -0.532161      0.898174
  C       5.608539     -0.649294     -0.084111
  C       4.230813     -0.790407      0.564657
  O       3.201158     -0.990165     -0.401593
  C       2.819583      0.201747     -1.096465
  C       1.506833     -0.040178     -1.798207
  O       0.468639     -0.148936     -0.838915
  C      -0.805208     -0.413390     -1.444348
  C      -1.902008     -0.399970     -0.375718
  O      -2.137310      0.814494      0.201962
  C      -5.022328     -0.490682      2.332270
  C      -5.864114     -0.172940      1.161383
  O      -6.809223      0.839120      1.511231
  C      -7.603291      1.220823      0.392963
  H       5.897508      1.148333      1.928341
  H       7.016512      1.498350      0.578245
  H       7.632530      0.779999      2.094401
  H       5.827221     -1.554200     -0.663330
  H       5.636603      0.212673     -0.768550
  H       4.228047     -1.677816      1.207974
  H       4.000754      0.088065      1.187269
  H       2.714638      1.035527     -0.383482
  H       3.574958      0.481815     -1.846587
  H       1.314038      0.802336     -2.485551
  H       1.574409     -0.959314     -2.407413
  H      -1.015509      0.362109     -2.203208
  H      -0.768534     -1.395447     -1.954989
  H      -1.609245     -1.205986      0.352286
  H      -2.791318     -0.836681     -0.913511
  H      -4.875386      0.251433      3.109726
  H      -4.398206     -1.377085      2.315569
  H      -5.239298      0.186675      0.315356
  H      -6.388084     -1.074494      0.792322
  H      -8.295231      1.994757      0.734175
  H      -6.979784      1.625469     -0.419380
  H      -8.179557      0.367822      0.002125
37
Coordinates from ORCA-job TEGDME_anion_cpcm_20_default E -770.223014802627
  C       6.806748      0.765813      1.384113
  O       6.642713     -0.554227      0.864783
  C       5.604488     -0.648871     -0.111473
  C       4.231505     -0.796739      0.545677
  O       3.194474     -0.983066     -0.415364
  C       2.810644      0.216698     -1.095075
  C       1.488366     -0.013022     -1.783028
  O       0.460986     -0.122472     -0.812137
  C      -0.818546     -0.394154     -1.402564
  C      -1.904112     -0.377665     -0.322240
  O      -2.139870      0.839581      0.248323
  C      -5.037508     -0.469617      2.359344
  C      -5.853519     -0.181985      1.162668
  O      -6.815535      0.827895      1.470440
  C      -7.582442      1.185319      0.325622
  H       5.915377      1.114971      1.922691
  H       7.036561      1.477980      0.577745
  H       7.647556      0.729939      2.081543
  H       5.814856     -1.543705     -0.709240
  H       5.630687      0.225539     -0.780106
  H       4.232665     -1.692702      1.177003
  H       4.006960      0.073793      1.181392
  H       2.717959      1.044870     -0.373883
  H       3.558682      0.499672     -1.851497
  H       1.292064      0.835029     -2.462569
  H       1.543597     -0.928486     -2.398913
  H      -1.039517      0.376227     -2.163587
  H      -0.783975     -1.379081     -1.907504
  H      -1.598647     -1.176471      0.408700
  H      -2.796702     -0.824152     -0.846876
  H      -4.919630      0.286977      3.127465
  H      -4.403104     -1.348652      2.373464
  H      -5.211734      0.166855      0.324938
  H      -6.360377     -1.095082      0.798143
  H      -8.290575      1.957445      0.636515
  H      -6.941101      1.584244     -0.475497
  H      -8.139994      0.321302     -0.067927
37
Coordinates from ORCA-job TEGDME_anion_cpcm_20_default E -770.223034923086
  C       6.859393      0.581849      1.322929
  O       6.626417     -0.688670      0.715045
  C       5.551324     -0.672940     -0.224394
  C       4.198688     -0.826135      0.472383
  O       3.126229     -0.946679     -0.460164
  C       2.754896      0.285843     -1.085199
  C       1.392583      0.124452     -1.712122
  O       0.409136      0.032314     -0.694435
  C      -0.897921     -0.238617     -1.223804
  C      -1.935699     -0.201791     -0.096779
  O      -2.152004      1.024294      0.457471
  C      -5.078489     -0.317763      2.504353
  C      -5.749218     -0.225996      1.191808
  O      -6.815788      0.722218      1.263368
  C      -7.429483      0.918419     -0.005805
  H       5.992207      0.933172      1.898476
  H       7.112830      1.337804      0.564924
  H       7.706279      0.457409      2.002604
  H       5.706776     -1.526199     -0.895653
  H       5.585240      0.248486     -0.826604
  H       4.203833     -1.753038      1.057234
  H       4.012034      0.015779      1.157035
  H       2.727481      1.095990     -0.338404
  H       3.476017      0.563975     -1.869234
  H       1.197777      0.994791     -2.363486
  H       1.381052     -0.777825     -2.349191
  H      -1.148367      0.522552     -1.984949
  H      -0.890570     -1.230517     -1.715007
  H      -1.592875     -0.985032      0.635450
  H      -2.848336     -0.665145     -0.571686
  H      -5.130987      0.514586      3.196823
  H      -4.387325     -1.130555      2.695584
  H      -5.030663      0.088770      0.405107
  H      -6.134551     -1.212114      0.871243
  H      -8.235705      1.643405      0.132292
  H      -6.710773      1.313255     -0.740121
  H      -7.851436     -0.020346     -0.396007
37
Coordinates from ORCA-job TEGDME_anion_cpcm_20_default E -770.223069163009
  C       6.853174      0.646776      1.334832
  O       6.644886     -0.640783      0.753770
  C       5.577263     -0.662530     -0.194515
  C       4.220961     -0.819465      0.494443
  O       3.156129     -0.961599     -0.443632
  C       2.776075      0.262034     -1.081503
  C       1.425627      0.077630     -1.726887
  O       0.429242     -0.026086     -0.723056
  C      -0.869746     -0.294567     -1.272053
  C      -1.921989     -0.269559     -0.159246
  O      -2.145885      0.952252      0.404002
  C      -5.074327     -0.369074      2.454169
  C      -5.796593     -0.208515      1.175885
  O      -6.830844      0.765487      1.327289
  C      -7.498114      1.014913      0.094802
  H       5.980442      0.991740      1.905639
  H       7.088686      1.392025      0.560639
  H       7.704156      0.554151      2.014461
  H       5.750500     -1.528303     -0.844889
  H       5.603239      0.245852     -0.816350
  H       4.230035     -1.738099      1.092251
  H       4.022007      0.029347      1.166995
  H       2.727452      1.075250     -0.339211
  H       3.503755      0.546014     -1.857234
  H       1.226970      0.942538     -2.384155
  H       1.437215     -0.827037     -2.360645
  H      -1.111116      0.473020     -2.029700
  H      -0.853981     -1.281911     -1.772764
  H      -1.589884     -1.059199      0.570586
  H      -2.828505     -0.726211     -0.650583
  H      -5.063312      0.442034      3.173859
  H      -4.402927     -1.209927      2.586005
  H      -5.102369      0.115811      0.371559
  H      -6.224968     -1.170723      0.837441
  H      -8.272832      1.760760      0.289767
  H      -6.802136      1.405851     -0.663241
  H      -7.968286      0.100104     -0.297642
37
Coordinates from ORCA-job TEGDME_anion_cpcm_20_default E -770.223055004137
  C       6.840543      0.711482      1.355459
  O       6.660527     -0.587402      0.789855
  C       5.602213     -0.641154     -0.167816
  C       4.242014     -0.809678      0.510585
  O       3.187287     -0.974237     -0.435090
  C       2.795913      0.239661     -1.085170
  C       1.457144      0.029840     -1.746836
  O       0.450174     -0.086683     -0.755309
  C      -0.840444     -0.360828     -1.320178
  C      -1.904620     -0.348145     -0.219502
  O      -2.143887      0.871279      0.345433
  C      -5.080068     -0.421975      2.404533
  C      -5.849695     -0.193880      1.164748
  O      -6.834360      0.816244      1.389042
  C      -7.547790      1.122973      0.195693
  H       5.961754      1.042592      1.925084
  H       7.056309      1.453041      0.572021
  H       7.695447      0.646549      2.033355
  H       5.795666     -1.513851     -0.802916
  H       5.619563      0.258216     -0.802744
  H       4.257479     -1.722232      1.117595
  H       4.026207      0.042487      1.173594
  H       2.725156      1.055719     -0.347840
  H       3.528511      0.530898     -1.853437
  H       1.252180      0.888299     -2.410493
  H       1.492444     -0.877340     -2.376274
  H      -1.078211      0.408933     -2.076756
  H      -0.812619     -1.345459     -1.826230
  H      -1.575626     -1.137210      0.511848
  H      -2.802928     -0.807727     -0.721975
  H      -5.005908      0.364617      3.147555
  H      -4.433795     -1.289193      2.478985
  H      -5.178146      0.126109      0.339582
  H      -6.333037     -1.127432      0.819788
  H      -8.277664      1.897699      0.443476
  H      -6.870949      1.499268     -0.586821
  H      -8.076782      0.238519     -0.191755
37
Coordinates from ORCA-job TEGDME_anion_cpcm_20_default E -770.223074970141
  C       6.853826      0.658911      1.338264
  O       6.653480     -0.627454      0.751537
  C       5.585127     -0.652121     -0.195942
  C       4.230085     -0.818912      0.493164
  O       3.165538     -0.964471     -0.444682
  C       2.779801      0.258727     -1.080345
  C       1.430913      0.068904     -1.727320
  O       0.434035     -0.041952     -0.724828
  C      -0.863694     -0.311619     -1.275978
  C      -1.916995     -0.292031     -0.164514
  O      -2.146629      0.929002      0.399313
  C      -5.084527     -0.377997      2.447016
  C      -5.814606     -0.206664      1.174596
  O      -6.832885      0.782473      1.333986
  C      -7.505656      1.041453      0.106297
  H       5.982118      0.992359      1.917373
  H       7.076427      1.410634      0.566505
  H       7.710708      0.570717      2.011021
  H       5.762552     -1.515030     -0.848957
  H       5.605884      0.258491     -0.814609
  H       4.244786     -1.739213      1.088337
  H       4.026345      0.026511      1.168540
  H       2.726892      1.069949     -0.336187
  H       3.506413      0.547878     -1.855113
  H       1.228452      0.933892     -2.383278
  H       1.447935     -0.834569     -2.362744
  H      -1.105878      0.457526     -2.031766
  H      -0.845170     -1.297468     -1.779796
  H      -1.582760     -1.080589      0.565314
  H      -2.821550     -0.751077     -0.656843
  H      -5.059481      0.430802      3.168994
  H      -4.420021     -1.225502      2.570927
  H      -5.122296      0.107277      0.364512
  H      -6.260364     -1.162474      0.840202
  H      -8.266141      1.800414      0.306412
  H      -6.808670      1.419342     -0.657455
  H      -7.993995      0.133880     -0.280867
37
Coordinates from ORCA-job TEGDME_anion_cpcm_20_default E -770.223076280061
  C       6.854062      0.661715      1.341157
  O       6.655044     -0.623916      0.752370
  C       5.586028     -0.648482     -0.194337
  C       4.231400     -0.816329      0.495385
  O       3.166794     -0.964509     -0.441984
  C       2.780047      0.257272     -1.079860
  C       1.432567      0.064440     -1.728763
  O       0.433957     -0.046557     -0.728018
  C      -0.862479     -0.318032     -1.281345
  C      -1.918006     -0.297416     -0.171976
  O      -2.149464      0.924369      0.389472
  C      -5.083007     -0.381002      2.444135
  C      -5.816822     -0.205400      1.174463
  O      -6.833301      0.784644      1.339712
  C      -7.508342      1.049079      0.114362
  H       5.983560      0.991588      1.924129
  H       7.071854      1.415699      0.570225
  H       7.713633      0.574393      2.010590
  H       5.763318     -1.511062     -0.847835
  H       5.606163      0.262549     -0.812383
  H       4.247724     -1.735994      1.091505
  H       4.026536      0.029456      1.170000
  H       2.725045      1.069358     -0.336805
  H       3.507199      0.546495     -1.854112
  H       1.229972      0.928160     -2.386350
  H       1.452175     -0.839892     -2.362903
  H      -1.103715      0.449798     -2.038763
  H      -0.842253     -1.304594     -1.783707
  H      -1.584706     -1.084654      0.559690
  H      -2.821357     -0.757756     -0.665345
  H      -5.053085      0.426490      3.167366
  H      -4.420753     -1.230766      2.564528
  H      -5.126707      0.110013      0.363040
  H      -6.264812     -1.159731      0.838939
  H      -8.266584      1.809155      0.318654
  H      -6.812066      1.427608     -0.649686
  H      -7.999620      0.143811     -0.274464
37
Coordinates from ORCA-job TEGDME_anion_cpcm_20_default E -770.223078217932
  C       6.861467      0.658353      1.343780
  O       6.661497     -0.622104      0.744130
  C       5.588458     -0.639661     -0.198140
  C       4.236214     -0.809907      0.495772
  O       3.169043     -0.960847     -0.438193
  C       2.780045      0.259377     -1.077956
  C       1.433832      0.062270     -1.727998
  O       0.434283     -0.051201     -0.728519
  C      -0.860616     -0.327294     -1.283158
  C      -1.917336     -0.308718     -0.174928
  O      -2.153855      0.913597      0.383644
  C      -5.089117     -0.379809      2.443015
  C      -5.826535     -0.204800      1.175332
  O      -6.838099      0.790278      1.341080
  C      -7.512745      1.057425      0.116007
  H       5.996439      0.977990      1.940455
  H       7.066545      1.421334      0.578218
  H       7.729435      0.568298      2.001923
  H       5.761599     -1.499050     -0.856945
  H       5.607791      0.275052     -0.810712
  H       4.256687     -1.729522      1.091878
  H       4.031217      0.035317      1.171103
  H       2.723160      1.072112     -0.335756
  H       3.506829      0.549183     -1.852349
  H       1.229424      0.924784     -2.386607
  H       1.457135     -0.842491     -2.361434
  H      -1.103492      0.439073     -2.041517
  H      -0.836619     -1.314173     -1.784768
  H      -1.581670     -1.093095      0.558622
  H      -2.818680     -0.773145     -0.667979
  H      -5.051240      0.430344      3.162897
  H      -4.432786     -1.233931      2.565168
  H      -5.138065      0.105649      0.360629
  H      -6.279879     -1.158127      0.844274
  H      -8.264909      1.823606      0.319825
  H      -6.814178      1.428807     -0.649421
  H      -8.011281      0.155026     -0.270287
37
Coordinates from ORCA-job TEGDME_anion_cpcm_20_default E -770.223079042202
  C       6.863869      0.654136      1.344378
  O       6.662026     -0.623983      0.740403
  C       5.587201     -0.637707     -0.199865
  C       4.235818     -0.807215      0.495972
  O       3.167338     -0.958536     -0.436441
  C       2.778154      0.261177     -1.077014
  C       1.432222      0.063097     -1.727398
  O       0.432415     -0.050773     -0.728265
  C      -0.862341     -0.326802     -1.283373
  C      -1.919411     -0.308383     -0.175453
  O      -2.156150      0.913848      0.383143
  C      -5.089694     -0.377654      2.446394
  C      -5.825433     -0.205976      1.177285
  O      -6.836340      0.790396      1.338819
  C      -7.508697      1.055253      0.112009
  H       6.001554      0.970566      1.946653
  H       7.064597      1.420476      0.581025
  H       7.735168      0.562039      1.997821
  H       5.757711     -1.496133     -0.860618
  H       5.607120      0.278202     -0.810616
  H       4.257039     -1.726603      1.092408
  H       4.031729      0.038341      1.171174
  H       2.720739      1.074337     -0.335309
  H       3.505008      0.550771     -1.851417
  H       1.227549      0.925337     -2.386290
  H       1.456371     -0.841785     -2.360638
  H      -1.104957      0.439663     -2.041709
  H      -0.838234     -1.313605     -1.785106
  H      -1.583917     -1.092789      0.558137
  H      -2.820561     -0.772873     -0.668808
  H      -5.052387      0.434418      3.164123
  H      -4.434248     -1.231948      2.571986
  H      -5.135838      0.101458      0.362384
  H      -6.278994     -1.160034      0.848648
  H      -8.259750      1.823372      0.312598
  H      -6.808353      1.423208     -0.653442
  H      -8.008323      0.152706     -0.272514
