37
Coordinates from ORCA-job TEGDME_anion_cpcm_200_default E -770.141073239581
  C       5.774851      1.228589      2.111082
  O       6.091665      0.401239      1.018047
  C       5.079890      0.298388      0.047002
  C       3.878755     -0.554644      0.501861
  O       3.056781     -0.958734     -0.564011
  C       2.276725      0.067464     -1.135245
  C       1.125117     -0.565870     -1.909485
  O       0.090122     -0.875393     -1.009651
  C      -0.976222     -1.568493     -1.609330
  C      -2.082253     -1.760374     -0.578498
  O      -2.871382     -0.595043     -0.531429
  C      -3.849864     -0.634914      0.478411
  C      -4.616419      0.682454      0.456521
  O      -5.600564      0.644068      1.462031
  C      -6.361369      1.823163      1.524406
  H       4.996566      0.792596      2.746104
  H       5.446161      2.219560      1.774220
  H       6.690992      1.330496      2.689759
  H       5.547272     -0.191996     -0.811022
  H       4.740860      1.301571     -0.254495
  H       4.257167     -1.477985      0.948434
  H       3.284295     -0.010036      1.250634
  H       1.855899      0.711683     -0.351834
  H       2.882759      0.680147     -1.818068
  H       0.761706      0.133714     -2.678687
  H       1.491080     -1.476338     -2.405372
  H      -1.377820     -0.996639     -2.458549
  H      -0.631269     -2.548451     -1.974567
  H      -1.622322     -1.953632      0.400478
  H      -2.705297     -2.625837     -0.853384
  H      -3.386889     -0.771830      1.466487
  H      -4.548982     -1.468528      0.312273
  H      -3.916445      1.513719      0.627030
  H      -5.076061      0.822231     -0.533340
  H      -7.080142      1.686689      2.329577
  H      -5.729877      2.693839      1.740615
  H      -6.895487      2.003128      0.583083
37
Coordinates from ORCA-job TEGDME_anion_cpcm_200_default E -770.151394579760
  C       5.713330      1.301222      2.110425
  O       6.066002      0.401993      1.068458
  C       5.075473      0.257471      0.065511
  C       3.859406     -0.552900      0.542503
  O       3.043425     -0.986634     -0.532089
  C       2.295289      0.046930     -1.161384
  C       1.151853     -0.580626     -1.936229
  O       0.104680     -0.900415     -1.035715
  C      -0.964587     -1.595684     -1.657051
  C      -2.077882     -1.797786     -0.645867
  O      -2.840722     -0.599542     -0.543483
  C      -3.856343     -0.662586      0.471393
  C      -4.579994      0.678227      0.495345
  O      -5.612792      0.642879      1.502782
  C      -6.357705      1.877340      1.600054
  H       4.904419      0.909136      2.742628
  H       5.403089      2.276412      1.704245
  H       6.606902      1.437526      2.725024
  H       5.551847     -0.284707     -0.760410
  H       4.756131      1.248583     -0.298628
  H       4.219067     -1.460640      1.041818
  H       3.261957      0.033185      1.259736
  H       1.875911      0.729978     -0.405007
  H       2.925353      0.629032     -1.851219
  H       0.797227      0.123284     -2.707686
  H       1.520605     -1.488131     -2.443922
  H      -1.354331     -1.015458     -2.510275
  H      -0.617283     -2.573689     -2.033839
  H      -1.631882     -2.054445      0.330030
  H      -2.723517     -2.633945     -0.965293
  H      -3.407120     -0.867793      1.458638
  H      -4.572442     -1.474809      0.253366
  H      -3.857898      1.488945      0.718671
  H      -5.026337      0.880706     -0.498903
  H      -7.105205      1.749722      2.388092
  H      -5.682587      2.716720      1.859675
  H      -6.863341      2.100498      0.639696
37
Coordinates from ORCA-job TEGDME_anion_cpcm_200_default E -770.162132693587
  C       5.738892      1.357373      2.063732
  O       6.111759      0.380905      1.080053
  C       5.120441      0.199875      0.064833
  C       3.899112     -0.562163      0.583091
  O       3.073840     -1.028940     -0.489514
  C       2.349562      0.018630     -1.155874
  C       1.210331     -0.594285     -1.923806
  O       0.145160     -0.908200     -1.021868
  C      -0.929649     -1.592749     -1.680938
  C      -2.061808     -1.803207     -0.708547
  O      -2.821759     -0.573155     -0.560974
  C      -3.925873     -0.676972      0.459879
  C      -4.624393      0.658078      0.535825
  O      -5.752867      0.614242      1.543299
  C      -6.501662      1.938454      1.666076
  H       4.908906      1.014470      2.699465
  H       5.447435      2.307101      1.585851
  H       6.615432      1.531315      2.696803
  H       5.587673     -0.391643     -0.733965
  H       4.823835      1.176952     -0.353206
  H       4.244002     -1.450461      1.128757
  H       3.306937      0.061402      1.272602
  H       1.950424      0.731534     -0.412921
  H       2.995023      0.574530     -1.853045
  H       0.872285      0.114630     -2.698752
  H       1.565220     -1.504574     -2.441312
  H      -1.282657     -0.996091     -2.540763
  H      -0.575283     -2.566535     -2.072545
  H      -1.652288     -2.115410      0.270775
  H      -2.717588     -2.612046     -1.080493
  H      -3.496021     -0.962479      1.437571
  H      -4.626418     -1.478128      0.158969
  H      -3.913237      1.457092      0.839148
  H      -5.052600      0.932341     -0.452839
  H      -7.291138      1.811722      2.417281
  H      -5.795890      2.732310      1.982649
  H      -6.945138      2.204082      0.685792
37
Coordinates from ORCA-job TEGDME_anion_cpcm_200_default E -770.165642874938
  C       5.721352      1.406406      2.047186
  O       6.097397      0.369458      1.125802
  C       5.121788      0.163601      0.095516
  C       3.876347     -0.548822      0.620986
  O       3.060313     -1.044373     -0.450369
  C       2.369380     -0.003992     -1.168386
  C       1.237119     -0.620031     -1.940724
  O       0.158409     -0.917984     -1.047343
  C      -0.911391     -1.604957     -1.720085
  C      -2.055560     -1.801814     -0.765636
  O      -2.789352     -0.553653     -0.597355
  C      -3.937986     -0.669670      0.438697
  C      -4.618832      0.648018      0.555360
  O      -5.778852      0.593650      1.583250
  C      -6.529561      1.965142      1.738652
  H       4.868731      1.114532      2.676808
  H       5.464825      2.333328      1.510635
  H       6.584944      1.594425      2.692734
  H       5.593747     -0.472414     -0.664493
  H       4.861292      1.127150     -0.372357
  H       4.189706     -1.420919      1.208915
  H       3.280580      0.110645      1.271291
  H       1.976273      0.741170     -0.455963
  H       3.041474      0.515224     -1.868148
  H       0.911347      0.080524     -2.728258
  H       1.587294     -1.538253     -2.445366
  H      -1.240949     -1.013687     -2.592135
  H      -0.549939     -2.580314     -2.099000
  H      -1.670264     -2.142954      0.212320
  H      -2.728615     -2.583044     -1.161119
  H      -3.498957     -0.996482      1.395798
  H      -4.625607     -1.460193      0.094345
  H      -3.918539      1.436045      0.892968
  H      -5.059805      0.959081     -0.411251
  H      -7.321487      1.835698      2.482206
  H      -5.808186      2.729514      2.071936
  H      -6.958434      2.249945      0.763670
37
Coordinates from ORCA-job TEGDME_anion_cpcm_200_default E -770.168483239366
  C       5.625817      1.503371      2.044413
  O       6.003019      0.376018      1.241769
  C       5.077528      0.120943      0.177849
  C       3.780749     -0.507988      0.683790
  O       3.000037     -1.052727     -0.388349
  C       2.379579     -0.046286     -1.208339
  C       1.267564     -0.682584     -1.995959
  O       0.165243     -0.948133     -1.126892
  C      -0.891545     -1.645846     -1.807530
  C      -2.056679     -1.808915     -0.873146
  O      -2.722423     -0.539918     -0.671764
  C      -3.916121     -0.656844      0.395084
  C      -4.555671      0.649741      0.578763
  O      -5.726349      0.580430      1.649693
  C      -6.455122      1.995358      1.883034
  H       4.729351      1.301006      2.645484
  H       5.442851      2.386310      1.414665
  H       6.461848      1.709287      2.718045
  H       5.569832     -0.587942     -0.498753
  H       4.884351      1.052465     -0.376891
  H       4.028431     -1.347922      1.343583
  H       3.174720      0.212345      1.253716
  H       1.981312      0.757477     -0.568566
  H       3.104972      0.400183     -1.904739
  H       0.964662     -0.004555     -2.811636
  H       1.623425     -1.617267     -2.462215
  H      -1.192276     -1.076603     -2.703078
  H      -0.522696     -2.630591     -2.148811
  H      -1.704054     -2.200270      0.096811
  H      -2.764065     -2.540165     -1.301505
  H      -3.453123     -1.043225      1.313821
  H      -4.600916     -1.418233     -0.004188
  H      -3.853118      1.409818      0.954738
  H      -5.026268      1.016999     -0.346774
  H      -7.233394      1.851620      2.634208
  H      -5.703671      2.713083      2.231063
  H      -6.887799      2.319559      0.929693
37
Coordinates from ORCA-job TEGDME_anion_cpcm_200_default E -770.171292440841
  C       5.581205      1.574605      2.019951
  O       5.920542      0.352902      1.359777
  C       5.048863      0.048877      0.267843
  C       3.687577     -0.458822      0.740822
  O       2.933633     -1.045602     -0.322761
  C       2.409543     -0.085923     -1.251080
  C       1.310281     -0.736643     -2.049116
  O       0.181632     -0.943207     -1.207329
  C      -0.869113     -1.649039     -1.881072
  C      -2.053729     -1.766994     -0.959501
  O      -2.660942     -0.494405     -0.742022
  C      -3.900344     -0.620131      0.370705
  C      -4.533178      0.664826      0.599658
  O      -5.702271      0.556137      1.719012
  C      -6.442703      1.970785      2.008973
  H       4.639196      1.492386      2.576603
  H       5.502436      2.398416      1.296925
  H       6.389854      1.787033      2.722824
  H       5.541037     -0.746615     -0.303247
  H       4.949043      0.932351     -0.380935
  H       3.843419     -1.255715      1.476586
  H       3.095897      0.339224      1.213595
  H       2.019452      0.785223     -0.702769
  H       3.194420      0.264128     -1.938100
  H       1.043711     -0.086805     -2.899742
  H       1.661044     -1.697197     -2.461966
  H      -1.146152     -1.111334     -2.802688
  H      -0.502433     -2.649165     -2.173993
  H      -1.725720     -2.197070      0.003479
  H      -2.782589     -2.465681     -1.409182
  H      -3.396124     -1.035079      1.250880
  H      -4.563359     -1.372378     -0.071500
  H      -3.847268      1.420711      1.001630
  H      -5.047048      1.058196     -0.285948
  H      -7.196918      1.791661      2.774020
  H      -5.685298      2.675551      2.355855
  H      -6.897599      2.304795      1.074899
37
Coordinates from ORCA-job TEGDME_anion_cpcm_200_default E -770.176620767818
  C       5.623681      1.587805      1.988680
  O       5.903310      0.315586      1.420777
  C       5.062635     -0.011797      0.319878
  C       3.657006     -0.422008      0.762407
  O       2.911845     -1.030582     -0.284013
  C       2.459715     -0.119778     -1.283248
  C       1.360855     -0.783464     -2.079738
  O       0.215115     -0.915450     -1.262273
  C      -0.839310     -1.624870     -1.909455
  C      -2.042618     -1.672285     -0.993942
  O      -2.611038     -0.414986     -0.813976
  C      -3.922880     -0.549544      0.367643
  C      -4.589789      0.695468      0.607239
  O      -5.757054      0.528699      1.781534
  C      -6.544392      1.904619      2.085458
  H       4.660319      1.597779      2.511656
  H       5.626116      2.367510      1.215755
  H       6.420770      1.785971      2.706724
  H       5.538547     -0.864675     -0.175385
  H       5.035541      0.832486     -0.384807
  H       3.741472     -1.183504      1.544575
  H       3.091372      0.431535      1.164678
  H       2.086053      0.799919     -0.810347
  H       3.282851      0.148177     -1.962541
  H       1.130128     -0.167436     -2.965394
  H       1.695159     -1.773059     -2.430914
  H      -1.095054     -1.132367     -2.861245
  H      -0.488798     -2.646585     -2.137834
  H      -1.727021     -2.100585     -0.023475
  H      -2.774388     -2.377553     -1.436312
  H      -3.356755     -0.950112      1.210997
  H      -4.530994     -1.320865     -0.108821
  H      -3.953496      1.479220      1.023162
  H      -5.164769      1.070878     -0.240854
  H      -7.265776      1.677139      2.865595
  H      -5.807709      2.630783      2.415981
  H      -7.030649      2.207933      1.162925
37
Coordinates from ORCA-job TEGDME_anion_cpcm_200_default E -770.182417198801
  C       5.659874      1.575922      1.979512
  O       5.906470      0.296363      1.435110
  C       5.080251     -0.034775      0.334635
  C       3.655364     -0.406451      0.758562
  O       2.914690     -1.018960     -0.275927
  C       2.492180     -0.140557     -1.302872
  C       1.387907     -0.814464     -2.092502
  O       0.238001     -0.895995     -1.290122
  C      -0.822274     -1.603177     -1.908927
  C      -2.037732     -1.594783     -0.993785
  O      -2.588543     -0.359773     -0.861756
  C      -3.946693     -0.492878      0.372920
  C      -4.646765      0.730213      0.608660
  O      -5.797665      0.521883      1.812275
  C      -6.604124      1.836431      2.105325
  H       4.692392      1.620106      2.491906
  H       5.693568      2.345445      1.197706
  H       6.455983      1.756341      2.701967
  H       5.547897     -0.907466     -0.131900
  H       5.080501      0.794581     -0.388111
  H       3.709606     -1.153020      1.556962
  H       3.105268      0.470300      1.132356
  H       2.125045      0.800656     -0.870086
  H       3.328408      0.087076     -1.981188
  H       1.177961     -0.224267     -3.000711
  H       1.711052     -1.821780     -2.400023
  H      -1.070105     -1.144444     -2.879214
  H      -0.491256     -2.640473     -2.091281
  H      -1.717819     -2.000415     -0.011790
  H      -2.763024     -2.325707     -1.413373
  H      -3.343785     -0.868110      1.199565
  H      -4.521239     -1.283211     -0.109266
  H      -4.044229      1.540104      1.019420
  H      -5.260409      1.076397     -0.221441
  H      -7.299477      1.575402      2.897224
  H      -5.891609      2.590405      2.421245
  H      -7.115672      2.113081      1.190015
37
Coordinates from ORCA-job TEGDME_anion_cpcm_200_default E -770.190165171548
  C       5.691406      1.565143      1.972303
  O       5.917167      0.283048      1.434185
  C       5.096338     -0.049624      0.337004
  C       3.661927     -0.399928      0.755618
  O       2.921133     -1.010062     -0.272039
  C       2.513426     -0.149598     -1.311937
  C       1.402602     -0.825723     -2.094649
  O       0.250895     -0.881917     -1.299371
  C      -0.813030     -1.585433     -1.901807
  C      -2.040562     -1.546682     -0.989770
  O      -2.584675     -0.324454     -0.879868
  C      -3.980439     -0.462089      0.391780
  C      -4.703274      0.758175      0.625934
  O      -5.841140      0.529285      1.823952
  C      -6.617737      1.771407      2.087966
  H       4.723457      1.629671      2.483527
  H       5.738154      2.334007      1.188903
  H       6.489377      1.736441      2.695776
  H       5.555491     -0.933154     -0.118724
  H       5.104087      0.771889     -0.396249
  H       3.703894     -1.138230      1.563262
  H       3.127372      0.491998      1.119002
  H       2.149412      0.804144     -0.901556
  H       3.353021      0.056929     -1.993549
  H       1.205122     -0.247620     -3.013754
  H       1.721873     -1.841225     -2.382544
  H      -1.059010     -1.142435     -2.880965
  H      -0.497588     -2.632895     -2.062368
  H      -1.712769     -1.946971     -0.002096
  H      -2.754905     -2.300911     -1.400498
  H      -3.368004     -0.824361      1.217770
  H      -4.544492     -1.261610     -0.089078
  H      -4.111538      1.581325      1.032808
  H      -5.323003      1.092836     -0.207529
  H      -7.310589      1.502385      2.882633
  H      -5.923275      2.548488      2.403464
  H      -7.140126      2.047750      1.173549
37
Coordinates from ORCA-job TEGDME_anion_cpcm_200_default E -770.199864405986
  C       5.763387      1.571315      1.935026
  O       5.961134      0.260710      1.441946
  C       5.139354     -0.090804      0.348255
  C       3.695056     -0.391723      0.772607
  O       2.944378     -1.012992     -0.245504
  C       2.562058     -0.169985     -1.313526
  C       1.445152     -0.839311     -2.088842
  O       0.280093     -0.862322     -1.303085
  C      -0.791912     -1.555992     -1.910646
  C      -2.037703     -1.487601     -1.016666
  O      -2.578724     -0.260524     -0.909950
  C      -4.074310     -0.441225      0.424357
  C      -4.817081      0.760433      0.674036
  O      -5.969216      0.522037      1.859877
  C      -6.687328      1.710587      2.083153
  H       4.792111      1.683681      2.435431
  H       5.835339      2.313831      1.125921
  H       6.558680      1.754040      2.661186
  H       5.576508     -1.001061     -0.078748
  H       5.164594      0.705000     -0.414509
  H       3.718667     -1.104666      1.605245
  H       3.187767      0.527220      1.110163
  H       2.213452      0.804146     -0.932926
  H       3.407909      0.002310     -1.998016
  H       1.271415     -0.271144     -3.019671
  H       1.753394     -1.864700     -2.360516
  H      -1.020550     -1.117215     -2.898236
  H      -0.497401     -2.613920     -2.058318
  H      -1.715775     -1.910161     -0.027321
  H      -2.735472     -2.258751     -1.442609
  H      -3.442980     -0.803871      1.235068
  H      -4.607467     -1.239289     -0.092078
  H      -4.241711      1.587269      1.103882
  H      -5.435308      1.105791     -0.160151
  H      -7.405803      1.471446      2.871870
  H      -6.005042      2.505370      2.409192
  H      -7.206665      2.012072      1.165191
37
Coordinates from ORCA-job TEGDME_anion_cpcm_200_default E -770.206553059690
  C       5.842423      1.598571      1.861857
  O       6.011818      0.240043      1.466218
  C       5.185981     -0.152996      0.377791
  C       3.734092     -0.382740      0.811203
  O       2.966950     -1.027782     -0.194702
  C       2.621366     -0.198520     -1.299981
  C       1.502612     -0.853126     -2.073993
  O       0.316825     -0.841546     -1.300422
  C      -0.763039     -1.520465     -1.937508
  C      -2.024626     -1.434185     -1.071980
  O      -2.548597     -0.185397     -0.944522
  C      -4.179031     -0.446554      0.452911
  C      -4.929734      0.733282      0.732084
  O      -6.125522      0.483782      1.901421
  C      -6.807889      1.684000      2.109762
  H       4.864931      1.778256      2.331797
  H       5.951149      2.277793      1.001795
  H       6.627619      1.818221      2.590711
  H       5.594687     -1.100069      0.003833
  H       5.240355      0.595664     -0.430181
  H       3.731602     -1.054304      1.678869
  H       3.257789      0.567248      1.104317
  H       2.299558      0.796963     -0.949124
  H       3.478641     -0.066950     -1.979449
  H       1.358516     -0.292276     -3.014495
  H       1.791524     -1.887874     -2.334285
  H      -0.958944     -1.070913     -2.928795
  H      -0.488626     -2.583586     -2.087133
  H      -1.734544     -1.907534     -0.091907
  H      -2.715885     -2.189435     -1.541315
  H      -3.514937     -0.821756      1.228344
  H      -4.661535     -1.223021     -0.137308
  H      -4.376028      1.546459      1.215920
  H      -5.541954      1.113116     -0.093384
  H      -7.568068      1.490929      2.879585
  H      -6.130665      2.482483      2.464447
  H      -7.308814      2.034221      1.188704
37
Coordinates from ORCA-job TEGDME_anion_cpcm_200_default E -770.209578254353
  C       5.824964      1.598817      1.859413
  O       6.061500      0.253330      1.418901
  C       5.215106     -0.136749      0.333064
  C       3.791785     -0.439814      0.806131
  O       3.016503     -1.073455     -0.216290
  C       2.620422     -0.186090     -1.273634
  C       1.500965     -0.819809     -2.053590
  O       0.314789     -0.846931     -1.260310
  C      -0.764443     -1.519699     -1.929652
  C      -2.022287     -1.471565     -1.068034
  O      -2.566031     -0.203229     -0.937991
  C      -4.220373     -0.508223      0.517962
  C      -4.968074      0.703193      0.772592
  O      -6.160638      0.507731      1.891025
  C      -6.795445      1.718092      2.047206
  H       4.849114      1.714170      2.352963
  H       5.876431      2.305139      1.015781
  H       6.610759      1.848339      2.579148
  H       5.645374     -1.051284     -0.095011
  H       5.210803      0.642464     -0.446854
  H       3.843568     -1.142081      1.647884
  H       3.290629      0.477833      1.152615
  H       2.287001      0.778987     -0.854339
  H       3.453213      0.011683     -1.966315
  H       1.344497     -0.230166     -2.973641
  H       1.792423     -1.841573     -2.357745
  H      -0.956999     -1.032719     -2.904029
  H      -0.489680     -2.573968     -2.122680
  H      -1.734996     -1.944651     -0.091569
  H      -2.703434     -2.224188     -1.545927
  H      -3.546730     -0.864010      1.295839
  H      -4.704065     -1.290805     -0.066036
  H      -4.386012      1.513314      1.237084
  H      -5.535684      1.083596     -0.089599
  H      -7.594493      1.613095      2.800812
  H      -6.123365      2.534712      2.400309
  H      -7.277098      2.096512      1.115603
37
Coordinates from ORCA-job TEGDME_anion_cpcm_200_default E -770.213108081851
  C       5.775571      1.665985      1.819794
  O       6.002702      0.280826      1.505709
  C       5.189266     -0.169936      0.410602
  C       3.746210     -0.419972      0.846411
  O       2.989548     -1.089461     -0.175801
  C       2.644066     -0.225922     -1.278025
  C       1.538364     -0.862727     -2.073357
  O       0.331872     -0.857917     -1.304780
  C      -0.746523     -1.518249     -2.002061
  C      -2.012208     -1.446374     -1.163230
  O      -2.495649     -0.157795     -1.007368
  C      -4.261079     -0.546530      0.541153
  C      -4.965604      0.671323      0.827743
  O      -6.163233      0.477488      1.925768
  C      -6.767221      1.736605      2.121154
  H       4.779273      1.838108      2.248091
  H       5.889201      2.293067      0.923621
  H       6.528514      1.957080      2.557264
  H       5.621725     -1.115467      0.062042
  H       5.235345      0.555463     -0.415936
  H       3.749235     -1.080782      1.721081
  H       3.246837      0.519145      1.126259
  H       2.322186      0.755432     -0.894442
  H       3.504078     -0.064282     -1.945201
  H       1.408727     -0.292447     -3.009021
  H       1.816093     -1.894079     -2.349679
  H      -0.903598     -1.025651     -2.977909
  H      -0.483580     -2.573477     -2.190691
  H      -1.775627     -1.963019     -0.202362
  H      -2.720211     -2.140053     -1.679371
  H      -3.539121     -0.917609      1.259515
  H      -4.714253     -1.279087     -0.118175
  H      -4.365385      1.440856      1.325874
  H      -5.518216      1.095226     -0.018252
  H      -7.578648      1.661838      2.861314
  H      -6.078776      2.521073      2.505430
  H      -7.229881      2.171323      1.207923
37
Coordinates from ORCA-job TEGDME_anion_cpcm_200_default E -770.217547662947
  C       5.793686      1.679459      1.788912
  O       6.029575      0.293851      1.487435
  C       5.210343     -0.170859      0.401286
  C       3.775686     -0.442179      0.849660
  O       3.015820     -1.111253     -0.171842
  C       2.651770     -0.233619     -1.258304
  C       1.541600     -0.866345     -2.052498
  O       0.337974     -0.858105     -1.280248
  C      -0.748426     -1.490756     -1.992211
  C      -2.015663     -1.411321     -1.157620
  O      -2.473391     -0.114701     -0.991770
  C      -4.333025     -0.602416      0.590287
  C      -5.008439      0.646250      0.865058
  O      -6.190397      0.472203      1.873443
  C      -6.773877      1.735045      2.079434
  H       4.797022      1.845543      2.216219
  H       5.903640      2.296419      0.886371
  H       6.545819      1.978591      2.522902
  H       5.655432     -1.109261      0.051067
  H       5.241938      0.554416     -0.424905
  H       3.791878     -1.111541      1.716782
  H       3.263342      0.486189      1.139649
  H       2.327117      0.736610     -0.852699
  H       3.506607     -0.053309     -1.926548
  H       1.407065     -0.297363     -2.987861
  H       1.810401     -1.898782     -2.330188
  H      -0.890317     -0.976209     -2.957432
  H      -0.495758     -2.544514     -2.201692
  H      -1.802752     -1.936356     -0.200272
  H      -2.743555     -2.071439     -1.684834
  H      -3.600631     -0.975669      1.294433
  H      -4.762237     -1.303112     -0.114785
  H      -4.373450      1.385846      1.364580
  H      -5.493905      1.088787     -0.011771
  H      -7.611473      1.673693      2.787530
  H      -6.091396      2.499470      2.504179
  H      -7.198023      2.206736      1.169339
37
Coordinates from ORCA-job TEGDME_anion_cpcm_200_default E -770.221191136363
  C       5.800080      1.675400      1.788204
  O       6.022680      0.296690      1.478521
  C       5.209275     -0.164254      0.393372
  C       3.775209     -0.450050      0.833687
  O       3.020238     -1.109309     -0.190199
  C       2.646787     -0.232254     -1.266422
  C       1.528747     -0.868620     -2.051965
  O       0.336591     -0.847359     -1.275535
  C      -0.763888     -1.450693     -1.978244
  C      -2.026334     -1.343511     -1.133972
  O      -2.468323     -0.044605     -0.974037
  C      -4.392162     -0.692615      0.700856
  C      -5.031340      0.619677      0.918964
  O      -6.135519      0.489381      1.785018
  C      -6.750249      1.740973      2.005185
  H       4.800584      1.843452      2.206632
  H       5.928923      2.297155      0.892019
  H       6.549169      1.951604      2.532967
  H       5.666332     -1.096186      0.042561
  H       5.242982      0.568512     -0.425830
  H       3.790038     -1.135035      1.687891
  H       3.251326      0.469388      1.133236
  H       2.318031      0.732811     -0.853312
  H       3.501920     -0.048011     -1.932653
  H       1.383547     -0.311239     -2.992740
  H       1.790108     -1.906076     -2.318595
  H      -0.901718     -0.928450     -2.939013
  H      -0.516770     -2.507207     -2.195530
  H      -1.819377     -1.849938     -0.165375
  H      -2.785117     -1.984140     -1.644244
  H      -3.630024     -1.040443      1.385804
  H      -4.795574     -1.378792     -0.032019
  H      -4.321777      1.329122      1.367253
  H      -5.396444      1.044478     -0.027057
  H      -7.606805      1.633386      2.676091
  H      -6.086164      2.484311      2.471355
  H      -7.134983      2.212449      1.088214
37
Coordinates from ORCA-job TEGDME_anion_cpcm_200_default E -770.223587030897
  C       5.836222      1.675766      1.768395
  O       6.011090      0.284047      1.509672
  C       5.211639     -0.191947      0.426666
  C       3.759133     -0.418994      0.843144
  O       3.006015     -1.088956     -0.167169
  C       2.674030     -0.254620     -1.282164
  C       1.556670     -0.902013     -2.062501
  O       0.358545     -0.838139     -1.307868
  C      -0.744762     -1.441391     -1.995744
  C      -2.013632     -1.292932     -1.159134
  O      -2.442469     -0.004090     -1.013536
  C      -4.384692     -0.640475      0.672579
  C      -5.052694      0.640819      0.909494
  O      -6.192273      0.470183      1.833133
  C      -6.838975      1.710628      2.071394
  H       4.834961      1.896539      2.157886
  H       6.009671      2.263936      0.856854
  H       6.578938      1.946250      2.521461
  H       5.649066     -1.149910      0.124232
  H       5.284821      0.507627     -0.419280
  H       3.736429     -1.076011      1.719111
  H       3.260426      0.526869      1.102886
  H       2.359306      0.736643     -0.922581
  H       3.545472     -0.124001     -1.940722
  H       1.433835     -0.369971     -3.021474
  H       1.810029     -1.951209     -2.290440
  H      -0.873720     -0.948717     -2.974418
  H      -0.511074     -2.508250     -2.174840
  H      -1.807649     -1.801375     -0.185502
  H      -2.767084     -1.949522     -1.666903
  H      -3.602172     -0.977596      1.338098
  H      -4.763390     -1.326012     -0.072972
  H      -4.376035      1.372846      1.371733
  H      -5.459918      1.070766     -0.016489
  H      -7.674836      1.547705      2.755451
  H      -6.170418      2.449597      2.530043
  H      -7.240503      2.155912      1.152592
37
Coordinates from ORCA-job TEGDME_anion_cpcm_200_default E -770.224399336448
  C       5.853693      1.670161      1.761721
  O       6.010480      0.272369      1.519716
  C       5.214517     -0.206721      0.435806
  C       3.757071     -0.412325      0.846301
  O       3.001277     -1.078933     -0.163702
  C       2.682522     -0.251876     -1.287531
  C       1.564647     -0.897677     -2.066928
  O       0.363723     -0.826824     -1.316764
  C      -0.740889     -1.431617     -2.001979
  C      -2.012841     -1.268108     -1.171330
  O      -2.442610      0.021681     -1.037814
  C      -4.403303     -0.656076      0.706971
  C      -5.077611      0.630943      0.926984
  O      -6.207352      0.471302      1.847440
  C      -6.863906      1.713329      2.072603
  H       4.850537      1.912714      2.135060
  H       6.048311      2.247749      0.846867
  H       6.590014      1.939387      2.522368
  H       5.642107     -1.173538      0.146168
  H       5.298764      0.482166     -0.418686
  H       3.723490     -1.063651      1.726818
  H       3.272250      0.542708      1.100307
  H       2.372999      0.746521     -0.940869
  H       3.557154     -0.135266     -1.944995
  H       1.449179     -0.368661     -3.028875
  H       1.818474     -1.948509     -2.290331
  H      -0.866186     -0.948943     -2.987425
  H      -0.513106     -2.501861     -2.169038
  H      -1.803499     -1.772936     -0.193454
  H      -2.759290     -1.939079     -1.674957
  H      -3.598021     -0.971563      1.356107
  H      -4.764893     -1.345564     -0.044329
  H      -4.392776      1.371852      1.367219
  H      -5.474824      1.046475     -0.012315
  H      -7.695572      1.537089      2.759540
  H      -6.189982      2.455556      2.523315
  H      -7.264546      2.137727      1.141099
37
Coordinates from ORCA-job TEGDME_anion_cpcm_200_default E -770.225053504394
  C       5.870545      1.658009      1.760856
  O       6.008690      0.252701      1.538358
  C       5.219547     -0.228218      0.449203
  C       3.755637     -0.410881      0.850050
  O       2.998186     -1.069219     -0.164784
  C       2.694943     -0.243255     -1.294727
  C       1.578985     -0.883277     -2.079818
  O       0.371413     -0.808852     -1.337631
  C      -0.730332     -1.425950     -2.020725
  C      -2.011745     -1.235964     -1.207294
  O      -2.447829      0.054166     -1.113267
  C      -4.428538     -0.677830      0.784167
  C      -5.120834      0.614767      0.958122
  O      -6.221640      0.480721      1.894061
  C      -6.895212      1.723912      2.077070
  H       4.863466      1.926569      2.107427
  H       6.095161      2.223917      0.844562
  H       6.593099      1.928482      2.535310
  H       5.635635     -1.203912      0.170587
  H       5.315193      0.449776     -0.413645
  H       3.709228     -1.057281      1.734433
  H       3.289540      0.554663      1.100844
  H       2.390082      0.760948     -0.957454
  H       3.571927     -0.136021     -1.951309
  H       1.477046     -0.352940     -3.042951
  H       1.835827     -1.934354     -2.302623
  H      -0.845209     -0.966678     -3.020055
  H      -0.512354     -2.502054     -2.160020
  H      -1.798847     -1.722733     -0.217050
  H      -2.739911     -1.939860     -1.697927
  H      -3.573813     -0.935839      1.395539
  H      -4.759660     -1.386849      0.035725
  H      -4.428221      1.383938      1.339810
  H      -5.523687      0.981372     -0.001741
  H      -7.710286      1.545424      2.784145
  H      -6.215236      2.487903      2.487829
  H      -7.310798      2.094699      1.126010
37
Coordinates from ORCA-job TEGDME_anion_cpcm_200_default E -770.225267423498
  C       5.942755      1.644885      1.714859
  O       6.052318      0.232209      1.523526
  C       5.248732     -0.255534      0.447781
  C       3.784646     -0.409824      0.861720
  O       3.009356     -1.062793     -0.142938
  C       2.710207     -0.236497     -1.273827
  C       1.588566     -0.867870     -2.058114
  O       0.380347     -0.786334     -1.317142
  C      -0.721259     -1.400685     -2.003772
  C      -2.010639     -1.196483     -1.204156
  O      -2.438052      0.095108     -1.114478
  C      -4.479345     -0.690695      0.803175
  C      -5.180430      0.601066      0.964686
  O      -6.288589      0.462372      1.888348
  C      -6.971135      1.703476      2.061712
  H       4.941415      1.942448      2.054373
  H       6.178726      2.185902      0.786364
  H       6.670342      1.918728      2.483459
  H       5.648013     -1.241722      0.181586
  H       5.346868      0.406162     -0.427308
  H       3.734210     -1.046935      1.752607
  H       3.338673      0.566445      1.107522
  H       2.415039      0.771100     -0.938002
  H       3.585953     -0.137117     -1.933402
  H       1.491632     -0.335859     -3.020797
  H       1.838731     -1.920257     -2.282365
  H      -0.823626     -0.947728     -3.007263
  H      -0.512329     -2.479688     -2.133948
  H      -1.813040     -1.688881     -0.212671
  H      -2.736257     -1.897115     -1.704664
  H      -3.615230     -0.933658      1.408222
  H      -4.779587     -1.391915      0.034203
  H      -4.495226      1.375190      1.350372
  H      -5.573403      0.961512     -0.001741
  H      -7.792301      1.521057      2.760471
  H      -6.298406      2.470832      2.477818
  H      -7.377674      2.069098      1.104873
37
Coordinates from ORCA-job TEGDME_anion_cpcm_200_default E -770.225292067812
  C       6.236880      1.573952      1.508320
  O       6.224353      0.145161      1.451742
  C       5.354556     -0.365915      0.439755
  C       3.897593     -0.393155      0.908377
  O       3.043181     -1.022674     -0.045901
  C       2.751466     -0.198315     -1.180214
  C       1.603195     -0.798396     -1.950664
  O       0.400028     -0.688362     -1.203653
  C      -0.709390     -1.279144     -1.899766
  C      -2.014523     -1.036036     -1.131872
  O      -2.405817      0.261818     -1.030642
  C      -4.638982     -0.731742      0.823101
  C      -5.380269      0.546231      0.954323
  O      -6.529893      0.362474      1.816199
  C      -7.251897      1.584638      1.968523
  H       5.268319      1.988128      1.819253
  H       6.507307      2.002281      0.531629
  H       6.992926      1.858097      2.244936
  H       5.679765     -1.392505      0.231858
  H       5.461074      0.223018     -0.484381
  H       3.831947     -0.986308      1.827861
  H       3.537761      0.624325      1.125969
  H       2.495363      0.821187     -0.848627
  H       3.617803     -0.129968     -1.855990
  H       1.514821     -0.261948     -2.911508
  H       1.823622     -1.856025     -2.180489
  H      -0.777644     -0.833225     -2.908939
  H      -0.534691     -2.365648     -2.016741
  H      -1.868961     -1.559857     -0.145940
  H      -2.741335     -1.707519     -1.672448
  H      -3.761512     -0.929283      1.427584
  H      -4.813118     -1.385918     -0.023525
  H      -4.739155      1.333218      1.386138
  H      -5.730531      0.902650     -0.029112
  H      -8.104602      1.377235      2.620472
  H      -6.622647      2.363175      2.428123
  H      -7.616994      1.954355      0.997336
37
Coordinates from ORCA-job TEGDME_anion_cpcm_200_default E -770.225573636469
  C       6.099509      1.608300      1.613541
  O       6.139739      0.183919      1.497345
  C       5.308035     -0.317755      0.449650
  C       3.843353     -0.401579      0.883469
  O       3.029885     -1.041732     -0.099266
  C       2.737941     -0.215934     -1.232423
  C       1.606451     -0.833242     -2.013660
  O       0.398252     -0.735029     -1.273923
  C      -0.706169     -1.340249     -1.964577
  C      -2.003066     -1.112485     -1.182132
  O      -2.412857      0.184046     -1.098717
  C      -4.571935     -0.709153      0.833740
  C      -5.300005      0.573063      0.968930
  O      -6.424087      0.416214      1.871527
  C      -7.132368      1.644572      2.023098
  H       5.112545      1.972833      1.928795
  H       6.366480      2.086823      0.659596
  H       6.835732      1.886693      2.372073
  H       5.668346     -1.327436      0.218445
  H       5.419438      0.304160     -0.452177
  H       3.776834     -1.015526      1.789230
  H       3.443011      0.598223      1.112207
  H       2.459299      0.796937     -0.898584
  H       3.611522     -0.130280     -1.896730
  H       1.517175     -0.300995     -2.976841
  H       1.841819     -1.889063     -2.237102
  H      -0.790313     -0.895348     -2.973121
  H      -0.514339     -2.423862     -2.082230
  H      -1.830741     -1.609784     -0.188047
  H      -2.730567     -1.802897     -1.695181
  H      -3.695804     -0.917816      1.435532
  H      -4.805774     -1.397501      0.030099
  H      -4.639555      1.362525      1.365362
  H      -5.681033      0.916656     -0.007720
  H      -7.964763      1.455676      2.706545
  H      -6.484423      2.428454      2.446772
  H      -7.527569      1.998571      1.057563
37
Coordinates from ORCA-job TEGDME_anion_cpcm_200_default E -770.225918506797
  C       6.002134      1.627777      1.689083
  O       6.070186      0.207213      1.547780
  C       5.276050     -0.292262      0.470866
  C       3.802731     -0.403285      0.864093
  O       3.024254     -1.050363     -0.142039
  C       2.741589     -0.227420     -1.279210
  C       1.628005     -0.860262     -2.073449
  O       0.412010     -0.764958     -1.347257
  C      -0.686151     -1.386003     -2.032405
  C      -1.978073     -1.157083     -1.245718
  O      -2.399633      0.140170     -1.195527
  C      -4.544118     -0.692297      0.875001
  C      -5.269871      0.591018      0.995743
  O      -6.361858      0.461417      1.941333
  C      -7.069345      1.689512      2.079148
  H       5.000962      1.968436      1.985929
  H       6.285499      2.128577      0.751586
  H       6.713781      1.902728      2.471877
  H       5.658815     -1.293225      0.238197
  H       5.403701      0.343595     -0.419140
  H       3.722051     -1.026215      1.762600
  H       3.378371      0.587282      1.089617
  H       2.443607      0.781318     -0.949460
  H       3.625324     -0.131401     -1.928483
  H       1.544865     -0.336242     -3.041770
  H       1.874315     -1.916179     -2.284284
  H      -0.777465     -0.952835     -3.045501
  H      -0.482742     -2.468979     -2.137467
  H      -1.788820     -1.618320     -0.238433
  H      -2.706549     -1.866854     -1.728347
  H      -3.658158     -0.887661      1.466134
  H      -4.813092     -1.413870      0.112906
  H      -4.597558      1.392780      1.343988
  H      -5.686043      0.903584      0.023118
  H      -7.876177      1.518866      2.797333
  H      -6.411630      2.489466      2.455119
  H      -7.500970      2.011976      1.118125
37
Coordinates from ORCA-job TEGDME_anion_cpcm_200_default E -770.226308843247
  C       5.935937      1.640895      1.740331
  O       6.015030      0.221322      1.600371
  C       5.256171     -0.284006      0.501448
  C       3.773997     -0.404333      0.853190
  O       3.027312     -1.057149     -0.172866
  C       2.763731     -0.238912     -1.317580
  C       1.671742     -0.885063     -2.131500
  O       0.442338     -0.785313     -1.429724
  C      -0.643826     -1.425508     -2.114437
  C      -1.938577     -1.185003     -1.339550
  O      -2.369714      0.114767     -1.339005
  C      -4.549153     -0.668440      0.943600
  C      -5.286133      0.610192      1.038062
  O      -6.337206      0.506319      2.033397
  C      -7.059590      1.725670      2.147200
  H       4.923945      1.975537      2.005466
  H       6.247457      2.143420      0.812835
  H       6.620774      1.916827      2.546280
  H       5.653283     -1.282256      0.281996
  H       5.406039      0.352463     -0.384788
  H       3.671167     -1.028508      1.748624
  H       3.335659      0.582957      1.066170
  H       2.447189      0.766838     -0.996317
  H       3.662284     -0.135680     -1.945004
  H       1.604740     -0.372858     -3.107358
  H       1.925548     -1.942610     -2.323917
  H      -0.730800     -1.012471     -3.136008
  H      -0.429531     -2.508707     -2.196399
  H      -1.745733     -1.598241     -0.313748
  H      -2.667522     -1.912124     -1.791365
  H      -3.649019     -0.835398      1.523340
  H      -4.843201     -1.431815      0.232299
  H      -4.611503      1.433481      1.325253
  H      -5.747698      0.874329      0.071904
  H      -7.832096      1.576285      2.906771
  H      -6.403359      2.554199      2.458212
  H      -7.539683      1.998894      1.193904
37
Coordinates from ORCA-job TEGDME_anion_cpcm_200_default E -770.226506634021
  C       6.004663      1.632995      1.691561
  O       6.053196      0.208628      1.593553
  C       5.281905     -0.310995      0.510042
  C       3.798507     -0.397828      0.868008
  O       3.037975     -1.051230     -0.147311
  C       2.786639     -0.240172     -1.299798
  C       1.691907     -0.880551     -2.115158
  O       0.458829     -0.765481     -1.422134
  C      -0.624896     -1.401962     -2.113402
  C      -1.927402     -1.152628     -1.354000
  O      -2.351923      0.150507     -1.357867
  C      -4.605851     -0.669788      0.956753
  C      -5.350063      0.606171      1.048691
  O      -6.405725      0.490920      2.037581
  C      -7.138567      1.704557      2.148954
  H       4.999839      1.997134      1.944530
  H       6.328071      2.100877      0.750094
  H       6.694268      1.917836      2.490246
  H       5.661482     -1.320748      0.313373
  H       5.439435      0.300946     -0.391862
  H       3.685997     -1.005671      1.773361
  H       3.379936      0.601004      1.066522
  H       2.479007      0.771117     -0.987727
  H       3.688954     -0.150238     -1.923678
  H       1.635302     -0.374255     -3.094638
  H       1.936473     -1.941531     -2.300202
  H      -0.699623     -0.991690     -3.136822
  H      -0.415186     -2.486433     -2.191118
  H      -1.751862     -1.565873     -0.325471
  H      -2.657475     -1.871330     -1.815598
  H      -3.711941     -0.835891      1.547131
  H      -4.891033     -1.433100      0.241424
  H      -4.682054      1.431926      1.343516
  H      -5.807422      0.869026      0.080547
  H      -7.913090      1.550512      2.905317
  H      -6.490831      2.538604      2.462277
  H      -7.617440      1.974635      1.194388
37
Coordinates from ORCA-job TEGDME_anion_cpcm_200_default E -770.226938609546
  C       6.149039      1.604612      1.581965
  O       6.120722      0.176269      1.588805
  C       5.321362     -0.375240      0.541958
  C       3.835717     -0.370976      0.904803
  O       3.042699     -1.025891     -0.084286
  C       2.830155     -0.240958     -1.262451
  C       1.728162     -0.867203     -2.079137
  O       0.486436     -0.705940     -1.411049
  C      -0.592525     -1.334063     -2.116475
  C      -1.910333     -1.068542     -1.388497
  O      -2.330098      0.236805     -1.402778
  C      -4.694774     -0.671894      0.996791
  C      -5.469718      0.589518      1.073394
  O      -6.527859      0.451979      2.053897
  C      -7.295078      1.647607      2.144314
  H       5.164534      2.040564      1.798536
  H       6.500852      1.983691      0.611155
  H       6.849702      1.911047      2.362724
  H       5.652738     -1.411803      0.407187
  H       5.502137      0.170581     -0.396908
  H       3.694559     -0.931934      1.835815
  H       3.471006      0.656112      1.060739
  H       2.551279      0.787962     -0.982709
  H       3.742013     -0.195544     -1.876859
  H       1.701933     -0.381229     -3.069955
  H       1.946373     -1.937941     -2.239441
  H      -0.642089     -0.930147     -3.143952
  H      -0.394352     -2.421278     -2.184907
  H      -1.764978     -1.481884     -0.355134
  H      -2.635003     -1.779739     -1.868304
  H      -3.810409     -0.819227      1.606924
  H      -4.961597     -1.447013      0.286808
  H      -4.823137      1.431775      1.368553
  H      -5.923498      0.833175      0.099063
  H      -8.069050      1.483623      2.898633
  H      -6.671758      2.502858      2.448335
  H      -7.775162      1.890266      1.183530
37
Coordinates from ORCA-job TEGDME_anion_cpcm_200_default E -770.227256109389
  C       6.165417      1.603488      1.576071
  O       6.126982      0.175621      1.599110
  C       5.332043     -0.382509      0.552546
  C       3.843935     -0.366643      0.905496
  O       3.053054     -1.023293     -0.084140
  C       2.852428     -0.245751     -1.269137
  C       1.755312     -0.874468     -2.090253
  O       0.508631     -0.703316     -1.434195
  C      -0.566572     -1.334751     -2.142212
  C      -1.888367     -1.060615     -1.425202
  O      -2.298380      0.247586     -1.448035
  C      -4.736244     -0.667884      1.032433
  C      -5.512698      0.593197      1.099162
  O      -6.568317      0.459756      2.081702
  C      -7.341795      1.652864      2.162054
  H       5.181955      2.048889      1.777729
  H       6.529297      1.968929      0.604486
  H       6.860525      1.914333      2.360053
  H       5.658871     -1.422044      0.430306
  H       5.521442      0.152762     -0.390606
  H       3.693201     -0.920327      1.839331
  H       3.485215      0.663896      1.052638
  H       2.574337      0.786035     -0.999004
  H       3.768955     -0.207408     -1.877021
  H       1.739639     -0.395894     -3.084944
  H       1.970900     -1.947238     -2.240396
  H      -0.608861     -0.937221     -3.172680
  H      -0.370629     -2.422776     -2.202557
  H      -1.753127     -1.471230     -0.389151
  H      -2.613203     -1.768662     -1.909547
  H      -3.859980     -0.814436      1.654521
  H      -5.011791     -1.453524      0.337307
  H      -4.866612      1.438544      1.386534
  H      -5.967041      0.827530      0.122817
  H      -8.112530      1.490750      2.920037
  H      -6.721257      2.513428      2.456230
  H      -7.824735      1.882382      1.199605
37
Coordinates from ORCA-job TEGDME_anion_cpcm_200_default E -770.227413372730
  C       6.128343      1.616454      1.610218
  O       6.110663      0.187791      1.612504
  C       5.332574     -0.367387      0.551626
  C       3.841451     -0.373828      0.892059
  O       3.065988     -1.033186     -0.108095
  C       2.866599     -0.253484     -1.291966
  C       1.776539     -0.887686     -2.117980
  O       0.527227     -0.724284     -1.464600
  C      -0.545437     -1.359475     -2.173867
  C      -1.867603     -1.089119     -1.455543
  O      -2.268170      0.221374     -1.469609
  C      -4.754080     -0.661380      1.060919
  C      -5.518701      0.606023      1.123697
  O      -6.575912      0.484858      2.106856
  C      -7.342301      1.684156      2.182328
  H       5.136896      2.044719      1.809900
  H       6.494786      2.001444      0.647144
  H       6.812351      1.926362      2.404365
  H       5.673264     -1.401319      0.420231
  H       5.523380      0.181304     -0.383617
  H       3.690744     -0.937099      1.820225
  H       3.468381      0.650795      1.044975
  H       2.581224      0.776048     -1.020665
  H       3.785084     -0.208523     -1.896647
  H       1.761555     -0.406674     -3.111630
  H       1.998919     -1.958835     -2.269404
  H      -0.589398     -0.959401     -3.203366
  H      -0.347014     -2.446803     -2.236537
  H      -1.734477     -1.510540     -0.423128
  H      -2.592315     -1.792162     -1.948584
  H      -3.895159     -0.822956      1.703325
  H      -5.057584     -1.456849      0.388698
  H      -4.865122      1.446907      1.407970
  H      -5.970654      0.841573      0.146254
  H      -8.113924      1.527903      2.940811
  H      -6.715431      2.541091      2.474077
  H      -7.822685      1.912189      1.218145
37
Coordinates from ORCA-job TEGDME_anion_cpcm_200_default E -770.227639987569
  C       6.142433      1.616671      1.606275
  O       6.125303      0.187801      1.615422
  C       5.353374     -0.371988      0.552245
  C       3.860675     -0.379580      0.886429
  O       3.089175     -1.040461     -0.115867
  C       2.897243     -0.262766     -1.302459
  C       1.807709     -0.894166     -2.131302
  O       0.556514     -0.725824     -1.482312
  C      -0.516527     -1.352977     -2.198661
  C      -1.841642     -1.084185     -1.482417
  O      -2.239124      0.226510     -1.483551
  C      -4.802757     -0.658523      1.112245
  C      -5.568167      0.609851      1.156359
  O      -6.632440      0.497587      2.130803
  C      -7.402729      1.696791      2.185455
  H       5.149363      2.045837      1.795788
  H       6.516272      1.997166      0.644257
  H       6.820001      1.931230      2.404104
  H       5.696095     -1.405805      0.425220
  H       5.547240      0.174107     -0.383851
  H       3.706925     -0.941664      1.814806
  H       3.486733      0.645080      1.036787
  H       2.615984      0.768620     -1.034199
  H       3.817475     -0.222988     -1.904995
  H       1.798445     -0.413061     -3.125043
  H       2.026924     -1.966005     -2.281761
  H      -0.555920     -0.945814     -3.225507
  H      -0.322341     -2.440669     -2.267689
  H      -1.715472     -1.520888     -0.454939
  H      -2.562244     -1.783639     -1.988052
  H      -3.967764     -0.822914      1.784913
  H      -5.123916     -1.470030      0.467821
  H      -4.916837      1.453853      1.436688
  H      -6.010857      0.835300      0.172234
  H      -8.180844      1.547259      2.938509
  H      -6.780101      2.558046      2.473188
  H      -7.874201      1.912240      1.214142
37
Coordinates from ORCA-job TEGDME_anion_cpcm_200_default E -770.227549192202
  C       6.176859      1.611021      1.596517
  O       6.157668      0.182042      1.612871
  C       5.391785     -0.380898      0.546758
  C       3.897772     -0.390431      0.875870
  O       3.128952     -1.050271     -0.129194
  C       2.943532     -0.271685     -1.316419
  C       1.852869     -0.897057     -2.148314
  O       0.600558     -0.724850     -1.502009
  C      -0.473836     -1.338949     -2.228295
  C      -1.802582     -1.074358     -1.513188
  O      -2.200243      0.234246     -1.494092
  C      -4.884135     -0.657036      1.197308
  C      -5.651644      0.612000      1.204085
  O      -6.728909      0.516214      2.162484
  C      -7.504900      1.714532      2.179336
  H       5.182484      2.042872      1.772754
  H       6.561565      1.986012      0.636655
  H       6.846156      1.929322      2.399798
  H       5.736688     -1.414307      0.422117
  H       5.588091      0.164179     -0.389313
  H       3.741952     -0.953422      1.803304
  H       3.523372      0.634019      1.026373
  H       2.668552      0.761297     -1.048185
  H       3.864399     -0.236996     -1.918493
  H       1.848751     -0.412652     -3.140562
  H       2.067897     -1.969271     -2.301283
  H      -0.507578     -0.920439     -3.250726
  H      -0.286090     -2.427012     -2.307440
  H      -1.683800     -1.533934     -0.493894
  H      -2.515412     -1.771416     -2.035883
  H      -4.086542     -0.817782      1.914914
  H      -5.226651     -1.492410      0.595530
  H      -5.005433      1.462604      1.476121
  H      -6.077582      0.816491      0.208001
  H      -8.295038      1.577558      2.921939
  H      -6.889696      2.583183      2.459832
  H      -7.959831      1.907585      1.195808
37
Coordinates from ORCA-job TEGDME_anion_cpcm_200_default E -770.227691695631
  C       6.259655      1.572295      1.566235
  O       6.230422      0.144511      1.548614
  C       5.433737     -0.387648      0.490003
  C       3.950615     -0.408312      0.863181
  O       3.153203     -1.043882     -0.134413
  C       2.924628     -0.234254     -1.292445
  C       1.814408     -0.844756     -2.109401
  O       0.578643     -0.700853     -1.427038
  C      -0.506703     -1.304113     -2.145634
  C      -1.826542     -1.053983     -1.409595
  O      -2.253905      0.239243     -1.372807
  C      -4.911335     -0.691292      1.212696
  C      -5.675127      0.580417      1.169609
  O      -6.778666      0.502856      2.098556
  C      -7.543046      1.706540      2.084419
  H       5.272067      2.005458      1.774483
  H       6.626845      1.967015      0.607675
  H       6.948123      1.865028      2.362822
  H       5.775475     -1.416551      0.325192
  H       5.603614      0.185136     -0.434241
  H       3.823656     -0.995172      1.779938
  H       3.578640      0.611170      1.049601
  H       2.652291      0.789062     -0.986957
  H       3.826657     -0.177450     -1.920581
  H       1.778770     -0.334720     -3.087885
  H       2.032315     -1.911351     -2.295426
  H      -0.552919     -0.876504     -3.163998
  H      -0.321798     -2.391743     -2.233554
  H      -1.683847     -1.522411     -0.396695
  H      -2.532517     -1.768222     -1.922717
  H      -4.108573     -0.828951      1.928885
  H      -5.206321     -1.530548      0.591610
  H      -5.036434      1.435054      1.444527
  H      -6.072691      0.765768      0.158612
  H      -8.357319      1.583921      2.802689
  H      -6.929600      2.571326      2.377840
  H      -7.966417      1.897914      1.087287
37
Coordinates from ORCA-job TEGDME_anion_cpcm_200_default E -770.227734027740
  C       6.204835      1.594735      1.580793
  O       6.191121      0.165749      1.563141
  C       5.398524     -0.375137      0.504906
  C       3.914934     -0.403098      0.874918
  O       3.125204     -1.045374     -0.125515
  C       2.901464     -0.238764     -1.287393
  C       1.800260     -0.856597     -2.110639
  O       0.559020     -0.716682     -1.435369
  C      -0.519650     -1.332846     -2.154110
  C      -1.840502     -1.084029     -1.423817
  O      -2.247792      0.221584     -1.387063
  C      -4.862517     -0.690104      1.155463
  C      -5.613769      0.588008      1.153977
  O      -6.709871      0.501759      2.095959
  C      -7.462535      1.713049      2.115674
  H       5.213518      2.017176      1.793385
  H       6.563334      1.993963      0.620528
  H       6.893535      1.895649      2.374387
  H       5.746308     -1.402654      0.344222
  H       5.566049      0.195318     -0.421627
  H       3.787956     -0.988949      1.792584
  H       3.536552      0.614470      1.058508
  H       2.619712      0.783380     -0.986343
  H       3.808685     -0.177006     -1.907629
  H       1.768077     -0.350016     -3.091030
  H       2.024767     -1.922430     -2.293135
  H      -0.566413     -0.907763     -3.173233
  H      -0.325493     -2.419087     -2.242236
  H      -1.706803     -1.549263     -0.409290
  H      -2.559724     -1.776709     -1.942978
  H      -4.049769     -0.852022      1.855855
  H      -5.169327     -1.509622      0.513898
  H      -4.962285      1.428897      1.443146
  H      -6.022716      0.802684      0.152986
  H      -8.268728      1.584694      2.842850
  H      -6.837295      2.567833      2.417393
  H      -7.898668      1.929203      1.127923
37
Coordinates from ORCA-job TEGDME_anion_cpcm_200_default E -770.227780630355
  C       6.219391      1.590781      1.578363
  O       6.208241      0.161963      1.554965
  C       5.415219     -0.375925      0.495631
  C       3.932466     -0.410265      0.869000
  O       3.141448     -1.049476     -0.132261
  C       2.912771     -0.238064     -1.289682
  C       1.810231     -0.853871     -2.112717
  O       0.570540     -0.717930     -1.434062
  C      -0.509742     -1.328365     -2.155070
  C      -1.830464     -1.081519     -1.422428
  O      -2.237963      0.223006     -1.378437
  C      -4.891349     -0.693194      1.181886
  C      -5.640503      0.586203      1.164909
  O      -6.742788      0.508000      2.098780
  C      -7.494299      1.720489      2.104727
  H       5.227294      2.010694      1.792321
  H       6.577403      1.994556      0.619865
  H       6.907313      1.889799      2.373291
  H       5.765794     -1.401504      0.328839
  H       5.578761      0.199747     -0.428291
  H       3.809640     -1.001179      1.783925
  H       3.551956      0.605336      1.058964
  H       2.630632      0.782288     -0.983069
  H       3.817612     -0.172063     -1.912967
  H       1.775422     -0.342649     -3.090653
  H       2.035489     -1.918576     -2.300495
  H      -0.556447     -0.897879     -3.171968
  H      -0.317859     -2.414515     -2.248707
  H      -1.696859     -1.553928     -0.410902
  H      -2.547891     -1.773515     -1.945605
  H      -4.090957     -0.853740      1.896494
  H      -5.201963     -1.519427      0.550965
  H      -4.989704      1.428244      1.451941
  H      -6.040963      0.793677      0.159041
  H      -8.305892      1.596950      2.826478
  H      -6.869974      2.575834      2.405855
  H      -7.922005      1.930021      1.112166
37
Coordinates from ORCA-job TEGDME_anion_cpcm_200_default E -770.227797310039
  C       6.246028      1.581819      1.567883
  O       6.237002      0.153383      1.532041
  C       5.435265     -0.376467      0.475314
  C       3.956482     -0.419584      0.863331
  O       3.157162     -1.051097     -0.136144
  C       2.913732     -0.228410     -1.282422
  C       1.806813     -0.840257     -2.102544
  O       0.571929     -0.716658     -1.413026
  C      -0.511399     -1.320576     -2.134758
  C      -1.829721     -1.079667     -1.395652
  O      -2.238420      0.223531     -1.338849
  C      -4.919548     -0.706658      1.194849
  C      -5.660778      0.577059      1.162157
  O      -6.775145      0.508738      2.082029
  C      -7.518083      1.726370      2.076192
  H       5.254842      1.998111      1.792877
  H       6.596247      1.994569      0.610369
  H       6.939313      1.874924      2.360311
  H       5.787615     -1.399061      0.294501
  H       5.587518      0.209144     -0.444195
  H       3.844895     -1.020145      1.773355
  H       3.574775      0.592830      1.067366
  H       2.629931      0.787277     -0.962176
  H       3.812309     -0.151438     -1.913450
  H       1.762011     -0.318766     -3.074629
  H       2.034969     -1.901939     -2.303451
  H      -0.561479     -0.881810     -3.147982
  H      -0.320594     -2.406026     -2.237773
  H      -1.692934     -1.561370     -0.388867
  H      -2.547675     -1.768322     -1.922646
  H      -4.129857     -0.868683      1.920859
  H      -5.224846     -1.533594      0.562299
  H      -5.008894      1.416457      1.454084
  H      -6.046894      0.782399      0.150357
  H      -8.339850      1.609356      2.787324
  H      -6.891699      2.577504      2.384341
  H      -7.931022      1.937057      1.077812
37
Coordinates from ORCA-job TEGDME_anion_cpcm_200_default E -770.227821401187
  C       6.315155      1.556699      1.542154
  O       6.313709      0.130042      1.465238
  C       5.486760     -0.374652      0.415706
  C       4.020346     -0.444393      0.844813
  O       3.197356     -1.052463     -0.150012
  C       2.909793     -0.195425     -1.260102
  C       1.792318     -0.797386     -2.073203
  O       0.572299     -0.717786     -1.351430
  C      -0.518898     -1.305837     -2.074027
  C      -1.829024     -1.085779     -1.314463
  O      -2.238570      0.215513     -1.221274
  C      -4.997983     -0.750526      1.223783
  C      -5.708514      0.548312      1.149925
  O      -6.856284      0.513506      2.030153
  C      -7.567160      1.749246      1.993292
  H       5.327015      1.959738      1.802036
  H       6.640421      1.999320      0.589228
  H       7.024874      1.831349      2.326558
  H       5.843150     -1.387455      0.192687
  H       5.606641      0.240785     -0.488902
  H       3.940656     -1.073804      1.738496
  H       3.636053      0.557581      1.090921
  H       2.617862      0.803604     -0.897568
  H       3.789640     -0.080926     -1.911497
  H       1.715632     -0.243563     -3.025194
  H       2.032486     -1.847451     -2.316569
  H      -0.582190     -0.841526     -3.075067
  H      -0.327339     -2.387794     -2.207695
  H      -1.681350     -1.591279     -0.321188
  H      -2.551860     -1.761209     -1.850694
  H      -4.242623     -0.922480      1.983231
  H      -5.292212     -1.576813      0.585289
  H      -5.049195      1.376187      1.457324
  H      -6.053497      0.751004      0.123035
  H      -8.416789      1.654644      2.674268
  H      -6.930989      2.585069      2.321972
  H      -7.937689      1.965948      0.979862
37
Coordinates from ORCA-job TEGDME_anion_cpcm_200_default E -770.227841158616
  C       6.311933      1.551282      1.549514
  O       6.307432      0.124864      1.468622
  C       5.481890     -0.375463      0.415887
  C       4.014113     -0.441629      0.840899
  O       3.191938     -1.046468     -0.156590
  C       2.904283     -0.186216     -1.264125
  C       1.787878     -0.787893     -2.078992
  O       0.569413     -0.717116     -1.353726
  C      -0.521617     -1.307795     -2.074339
  C      -1.829523     -1.093616     -1.309493
  O      -2.245006      0.206714     -1.218719
  C      -4.992335     -0.757113      1.235188
  C      -5.700863      0.541808      1.148741
  O      -6.846897      0.518366      2.031886
  C      -7.554734      1.755290      1.984921
  H       5.324171      1.955856      1.808370
  H       6.640371      1.995897      0.598597
  H       7.020506      1.822056      2.336303
  H       5.835924     -1.388951      0.192366
  H       5.606249      0.240989     -0.487502
  H       3.930408     -1.072003      1.733556
  H       3.631820      0.560995      1.087367
  H       2.609880      0.810898     -0.898373
  H       3.784443     -0.067839     -1.914366
  H       1.706964     -0.229425     -3.027874
  H       2.031897     -1.835628     -2.328484
  H      -0.590554     -0.841626     -3.074073
  H      -0.325389     -2.388543     -2.211527
  H      -1.673951     -1.593668     -0.314964
  H      -2.552667     -1.773185     -1.839209
  H      -4.237524     -0.922636      1.996618
  H      -5.287138     -1.589114      0.604480
  H      -5.039525      1.371761      1.446094
  H      -6.047837      0.734329      0.120600
  H      -8.402946      1.668769      2.668738
  H      -6.915903      2.592669      2.304336
  H      -7.927107      1.963385      0.970358
37
Coordinates from ORCA-job TEGDME_anion_cpcm_200_default E -770.227888144191
  C       6.349919      1.509945      1.548529
  O       6.326373      0.085316      1.443266
  C       5.487505     -0.387336      0.388196
  C       4.021901     -0.439295      0.822056
  O       3.184969     -1.016707     -0.179438
  C       2.877687     -0.126934     -1.257897
  C       1.758861     -0.719139     -2.076536
  O       0.554242     -0.700453     -1.325503
  C      -0.538965     -1.295621     -2.039289
  C      -1.834507     -1.116446     -1.246371
  O      -2.278151      0.176388     -1.146966
  C      -5.012066     -0.810249      1.297770
  C      -5.697566      0.493602      1.136425
  O      -6.854226      0.533108      2.006559
  C      -7.533498      1.781550      1.899500
  H       5.369119      1.922898      1.820278
  H       6.678896      1.966775      0.603574
  H       7.066370      1.757716      2.335830
  H       5.825867     -1.402289      0.147988
  H       5.615336      0.240177     -0.507275
  H       3.935476     -1.082994      1.705028
  H       3.655292      0.564207      1.087440
  H       2.574183      0.854659     -0.858968
  H       3.749895      0.021781     -1.912541
  H       1.648735     -0.128109     -3.002292
  H       2.018934     -1.751834     -2.369279
  H      -0.635722     -0.811814     -3.028134
  H      -0.324274     -2.369327     -2.202704
  H      -1.642572     -1.607406     -0.254579
  H      -2.557180     -1.809498     -1.756565
  H      -4.275400     -0.950757      2.081815
  H      -5.297670     -1.664576      0.693219
  H      -5.026013      1.326534      1.401149
  H      -6.030111      0.640793      0.096241
  H      -8.391168      1.741477      2.576015
  H      -6.880421      2.618052      2.191816
  H      -7.890049      1.955805      0.872728
37
Coordinates from ORCA-job TEGDME_anion_cpcm_200_default E -770.227913547269
  C       6.392151      1.477175      1.530615
  O       6.345550      0.053376      1.422562
  C       5.491831     -0.404166      0.372738
  C       4.028744     -0.433911      0.816784
  O       3.176494     -0.991332     -0.183017
  C       2.860408     -0.084094     -1.244207
  C       1.739144     -0.667657     -2.065870
  O       0.541737     -0.674240     -1.303388
  C      -0.551310     -1.274149     -2.013709
  C      -1.840166     -1.119965     -1.205451
  O      -2.303949      0.165593     -1.096622
  C      -5.032400     -0.849428      1.343410
  C      -5.701777      0.455334      1.129718
  O      -6.867203      0.536663      1.986234
  C      -7.527587      1.790353      1.834835
  H       5.419885      1.904954      1.810001
  H       6.721901      1.930839      0.584386
  H       7.117772      1.711857      2.313559
  H       5.812444     -1.423919      0.128706
  H       5.623323      0.222474     -0.522884
  H       3.937836     -1.081332      1.696676
  H       3.680684      0.573808      1.090823
  H       2.554991      0.889121     -0.826553
  H       3.728690      0.079251     -1.900580
  H       1.615743     -0.058948     -2.978322
  H       2.004513     -1.692279     -2.381596
  H      -0.664836     -0.780426     -2.995787
  H      -0.324144     -2.342906     -2.192055
  H      -1.626565     -1.609120     -0.217427
  H      -2.559243     -1.822007     -1.707801
  H      -4.309371     -0.971892      2.143094
  H      -5.308888     -1.717900      0.755006
  H      -5.024189      1.289751      1.373881
  H      -6.022170      0.570830      0.081838
  H      -8.392765      1.782726      2.502997
  H      -6.865941      2.626444      2.108922
  H      -7.871335      1.939123      0.799571
37
Coordinates from ORCA-job TEGDME_anion_cpcm_200_default E -770.227965945215
  C       6.436430      1.441113      1.502088
  O       6.355104      0.018003      1.408266
  C       5.483191     -0.429040      0.369000
  C       4.022605     -0.419256      0.821793
  O       3.153132     -0.955709     -0.174377
  C       2.836874     -0.034479     -1.223364
  C       1.716298     -0.608976     -2.052561
  O       0.520628     -0.629719     -1.288064
  C      -0.567982     -1.240041     -1.996624
  C      -1.851599     -1.117902     -1.175322
  O      -2.339656      0.156797     -1.050827
  C      -5.050103     -0.902548      1.401109
  C      -5.695136      0.403491      1.127547
  O      -6.866632      0.539752      1.969975
  C      -7.501490      1.798528      1.763167
  H       5.476857      1.894680      1.784697
  H       6.769553      1.877506      0.548914
  H       7.173642      1.665759      2.277167
  H       5.777398     -1.458586      0.133170
  H       5.623790      0.185165     -0.533824
  H       3.919649     -1.062537      1.703531
  H       3.702334      0.597446      1.096561
  H       2.530801      0.933034     -0.792980
  H       3.705853      0.137487     -1.876643
  H       1.589402      0.012135     -2.956122
  H       1.983397     -1.628823     -2.382187
  H      -0.698937     -0.737896     -2.972269
  H      -0.323467     -2.302627     -2.187949
  H      -1.615739     -1.610230     -0.193800
  H      -2.563277     -1.829361     -1.675265
  H      -4.340692     -1.005412      2.215606
  H      -5.319291     -1.785506      0.831245
  H      -5.005874      1.236040      1.344293
  H      -6.004723      0.481353      0.073062
  H      -8.372032      1.835406      2.423464
  H      -6.825763      2.632429      2.008788
  H      -7.834543      1.912524      0.719823
37
Coordinates from ORCA-job TEGDME_anion_cpcm_200_default E -770.228026816843
  C       6.463830      1.418068      1.475998
  O       6.359266     -0.004064      1.393939
  C       5.470415     -0.444561      0.366445
  C       4.013711     -0.408266      0.830406
  O       3.130449     -0.928682     -0.161974
  C       2.812855      0.003906     -1.200475
  C       1.694606     -0.563253     -2.037870
  O       0.497130     -0.590425     -1.276685
  C      -0.586578     -1.206468     -1.987732
  C      -1.866145     -1.117347     -1.156395
  O      -2.370571      0.146434     -1.002129
  C      -5.072595     -0.961362      1.457335
  C      -5.677989      0.352345      1.133205
  O      -6.856868      0.547349      1.953487
  C      -7.455246      1.814334      1.694702
  H       5.514290      1.888558      1.764760
  H       6.793905      1.841749      0.516037
  H       7.212452      1.636880      2.241769
  H       5.745985     -1.480291      0.135401
  H       5.612389      0.160940     -0.541914
  H       3.905001     -1.049536      1.712973
  H       3.713538      0.613767      1.108286
  H       2.504902      0.966094     -0.759622
  H       3.682750      0.184351     -1.850293
  H       1.569841      0.066205     -2.936017
  H       1.961756     -1.580526     -2.375103
  H      -0.730967     -0.691999     -2.955213
  H      -0.327946     -2.262621     -2.194691
  H      -1.615053     -1.627553     -0.187301
  H      -2.571392     -1.828540     -1.666602
  H      -4.380156     -1.058303      2.286983
  H      -5.342820     -1.851145      0.898800
  H      -4.969417      1.172737      1.333732
  H      -5.970228      0.404359      0.072266
  H      -8.333058      1.898394      2.340911
  H      -6.760273      2.638136      1.920171
  H      -7.771770      1.900336      0.643497
37
Coordinates from ORCA-job TEGDME_anion_cpcm_200_default E -770.228080576043
  C       6.483661      1.407960      1.448572
  O       6.365792     -0.013779      1.379177
  C       5.462270     -0.453546      0.364365
  C       4.009928     -0.402097      0.841011
  O       3.115017     -0.912870     -0.146023
  C       2.796127      0.027047     -1.177601
  C       1.679357     -0.533581     -2.021120
  O       0.478768     -0.562192     -1.264671
  C      -0.602409     -1.173198     -1.983488
  C      -1.878828     -1.117635     -1.144213
  O      -2.389322      0.136290     -0.945010
  C      -5.104997     -1.015394      1.504014
  C      -5.663952      0.309975      1.144674
  O      -6.852532      0.555908      1.937165
  C      -7.411786      1.831319      1.635251
  H       5.541065      1.888829      1.742893
  H       6.807420      1.820783      0.481749
  H       7.241967      1.626531      2.204793
  H       5.726748     -1.492965      0.137033
  H       5.599421      0.145201     -0.549098
  H       3.900995     -1.042207      1.724353
  H       3.722631      0.622780      1.122193
  H       2.487306      0.985661     -0.729767
  H       3.666369      0.213368     -1.825286
  H       1.559385      0.101570     -2.915995
  H       1.945060     -1.549461     -2.363146
  H      -0.755699     -0.638384     -2.938686
  H      -0.335958     -2.222433     -2.213864
  H      -1.621383     -1.661234     -0.194595
  H      -2.580715     -1.815690     -1.677393
  H      -4.435896     -1.120150      2.351777
  H      -5.382976     -1.905132      0.949121
  H      -4.935091      1.112588      1.344294
  H      -5.933573      0.350324      0.077316
  H      -8.298613      1.955982      2.262189
  H      -6.698807      2.641727      1.852632
  H      -7.706753      1.898103      0.576472
37
Coordinates from ORCA-job TEGDME_anion_cpcm_200_default E -770.228136898846
  C       6.529703      1.386934      1.398809
  O       6.393814     -0.033584      1.336881
  C       5.464095     -0.464814      0.342428
  C       4.022076     -0.399558      0.848613
  O       3.102739     -0.889068     -0.127012
  C       2.769086      0.071307     -1.134874
  C       1.649859     -0.475957     -1.983494
  O       0.453237     -0.529524     -1.221683
  C      -0.628779     -1.121511     -1.954441
  C      -1.895711     -1.128402     -1.098227
  O      -2.417657      0.105508     -0.820303
  C      -5.181230     -1.098655      1.572054
  C      -5.657059      0.241878      1.153907
  O      -6.862180      0.570762      1.890127
  C      -7.348102      1.858662      1.521794
  H       5.598106      1.879612      1.708165
  H       6.840359      1.792375      0.424597
  H       7.304161      1.599419      2.140192
  H       5.713601     -1.506648      0.109460
  H       5.586581      0.132898     -0.573730
  H       3.921119     -1.046894      1.727556
  H       3.753405      0.625840      1.145845
  H       2.457434      1.017346     -0.663023
  H       3.632834      0.278754     -1.784695
  H       1.521747      0.179902     -2.862207
  H       1.919033     -1.481496     -2.351905
  H      -0.801076     -0.543608     -2.880951
  H      -0.351830     -2.154961     -2.237614
  H      -1.623590     -1.725160     -0.185266
  H      -2.594552     -1.802104     -1.665632
  H      -4.564666     -1.215919      2.457300
  H      -5.470840     -1.988984      1.024042
  H      -4.896808      1.012842      1.360774
  H      -5.882350      0.263532      0.075912
  H      -8.250915      2.047245      2.108477
  H      -6.606111      2.642550      1.738528
  H      -7.599534      1.899479      0.450685
37
Coordinates from ORCA-job TEGDME_anion_cpcm_200_default E -770.228155726621
  C       6.511651      1.416723      1.410400
  O       6.395607     -0.006029      1.353877
  C       5.478049     -0.453626      0.355398
  C       4.032545     -0.407448      0.854142
  O       3.123547     -0.916264     -0.121542
  C       2.798984      0.026666     -1.148699
  C       1.681918     -0.529922     -1.993758
  O       0.477381     -0.557419     -1.242687
  C      -0.604810     -1.139668     -1.982824
  C      -1.882941     -1.126134     -1.141746
  O      -2.388716      0.115525     -0.868206
  C      -5.169607     -1.053775      1.531971
  C      -5.680202      0.288486      1.163523
  O      -6.883157      0.566394      1.922740
  C      -7.407941      1.850004      1.593126
  H       5.571188      1.898016      1.710730
  H       6.823497      1.822171      0.436588
  H       7.277823      1.643399      2.156122
  H       5.743654     -1.492491      0.126740
  H       5.596606      0.143310     -0.561786
  H       3.936874     -1.051295      1.736127
  H       3.747395      0.615738      1.143609
  H       2.489639      0.982743     -0.695988
  H       3.666127      0.218717     -1.798727
  H       1.567827      0.108166     -2.887488
  H       1.946139     -1.544797     -2.339324
  H      -0.758418     -0.564350     -2.914193
  H      -0.339715     -2.178415     -2.258077
  H      -1.636686     -1.731050     -0.226863
  H      -2.582203     -1.788488     -1.722423
  H      -4.543492     -1.185802      2.408413
  H      -5.469344     -1.934381      0.973623
  H      -4.934507      1.069227      1.385615
  H      -5.918632      0.339075      0.089241
  H      -8.307226      1.998858      2.196363
  H      -6.684166      2.647751      1.820314
  H      -7.674689      1.910385      0.526756
37
Coordinates from ORCA-job TEGDME_anion_cpcm_200_default E -770.228201846239
  C       6.545924      1.389769      1.398177
  O       6.416533     -0.031376      1.330940
  C       5.489618     -0.463230      0.334142
  C       4.048260     -0.409746      0.844036
  O       3.126330     -0.901281     -0.128513
  C       2.789744      0.057630     -1.136666
  C       1.669495     -0.492673     -1.981758
  O       0.474457     -0.550302     -1.217438
  C      -0.610399     -1.129140     -1.956673
  C      -1.882117     -1.132410     -1.105680
  O      -2.402099      0.104234     -0.828664
  C      -5.187605     -1.062189      1.558558
  C      -5.693962      0.271549      1.155590
  O      -6.900780      0.567688      1.900612
  C      -7.418489      1.846989      1.544915
  H       5.610895      1.877655      1.704705
  H       6.859184      1.800042      0.426854
  H       7.315985      1.603437      2.143730
  H       5.745497     -1.502239      0.095465
  H       5.607187      0.139866     -0.579199
  H       3.954285     -1.062037      1.720017
  H       3.774205      0.612779      1.145945
  H       2.477216      1.003314     -0.664609
  H       3.650380      0.266960     -1.789963
  H       1.538091      0.162566     -2.860514
  H       1.941523     -1.496778     -2.352118
  H      -0.775733     -0.543500     -2.879350
  H      -0.340021     -2.162097     -2.248639
  H      -1.621488     -1.731511     -0.191744
  H      -2.579022     -1.802847     -1.678888
  H      -4.577264     -1.175179      2.448678
  H      -5.479922     -1.955094      1.016146
  H      -4.948342      1.055892      1.365168
  H      -5.924883      0.298617      0.078907
  H      -8.321606      2.008195      2.139263
  H      -6.693938      2.646306      1.763923
  H      -7.677138      1.890142      0.475729
37
Coordinates from ORCA-job TEGDME_anion_cpcm_200_default E -770.228230797453
  C       6.611854      1.343470      1.355238
  O       6.449989     -0.074493      1.291963
  C       5.500306     -0.486898      0.308542
  C       4.069245     -0.408004      0.843416
  O       3.120501     -0.871231     -0.117222
  C       2.772692      0.109377     -1.099929
  C       1.650989     -0.429782     -1.950495
  O       0.464906     -0.525888     -1.176529
  C      -0.620358     -1.096098     -1.922396
  C      -1.884690     -1.137901     -1.061331
  O      -2.426483      0.084246     -0.758748
  C      -5.214186     -1.077999      1.607524
  C      -5.713273      0.240491      1.148711
  O      -6.927793      0.566077      1.867561
  C      -7.436614      1.833862      1.461614
  H       5.690287      1.853154      1.666992
  H       6.927568      1.744679      0.380950
  H       7.391659      1.541202      2.095025
  H       5.733113     -1.529895      0.063846
  H       5.614148      0.115423     -0.605809
  H       3.976869     -1.067043      1.714536
  H       3.822173      0.617097      1.159366
  H       2.456643      1.041020     -0.602848
  H       3.627341      0.340627     -1.753761
  H       1.502613      0.248418     -2.808902
  H       1.932508     -1.419052     -2.352660
  H      -0.801878     -0.487355     -2.826803
  H      -0.339837     -2.116694     -2.246710
  H      -1.606699     -1.746562     -0.159593
  H      -2.573776     -1.811450     -1.640146
  H      -4.633879     -1.159644      2.520816
  H      -5.496497     -1.989435      1.091452
  H      -4.968485      1.030843      1.338401
  H      -5.930535      0.228823      0.069024
  H      -8.346518      2.016972      2.039036
  H      -6.712493      2.638272      1.662600
  H      -7.681408      1.841372      0.388357
37
Coordinates from ORCA-job TEGDME_anion_cpcm_200_default E -770.228267878684
  C       6.612883      1.335616      1.358727
  O       6.439508     -0.081470      1.309161
  C       5.494044     -0.496548      0.322783
  C       4.060758     -0.403003      0.848904
  O       3.113281     -0.866287     -0.112901
  C       2.774761      0.110035     -1.102830
  C       1.658700     -0.432731     -1.958873
  O       0.469612     -0.529510     -1.190098
  C      -0.612728     -1.103100     -1.938107
  C      -1.880176     -1.137699     -1.081869
  O      -2.423561      0.086940     -0.793398
  C      -5.171774     -1.042146      1.600595
  C      -5.714239      0.260511      1.145468
  O      -6.920773      0.559465      1.888136
  C      -7.468771      1.812941      1.488293
  H       5.692467      1.856675      1.654735
  H       6.942719      1.723372      0.383685
  H       7.386261      1.534779      2.104862
  H       5.721415     -1.543286      0.089177
  H       5.618046      0.096293     -0.596372
  H       3.959327     -1.054987      1.724329
  H       3.819936      0.626350      1.155730
  H       2.456331      1.044388     -0.612334
  H       3.634541      0.337027     -1.751486
  H       1.513058      0.243171     -2.819539
  H       1.944211     -1.422540     -2.357140
  H      -0.790779     -0.499623     -2.846702
  H      -0.330866     -2.125439     -2.255642
  H      -1.604389     -1.736621     -0.173101
  H      -2.566926     -1.817971     -1.655923
  H      -4.575822     -1.101666      2.505347
  H      -5.445046     -1.962739      1.096289
  H      -4.985868      1.070689      1.314973
  H      -5.953538      0.237521      0.070579
  H      -8.370628      1.975984      2.084035
  H      -6.760381      2.635452      1.671297
  H      -7.735592      1.810155      0.420294
37
Coordinates from ORCA-job TEGDME_anion_cpcm_200_default E -770.228299061906
  C       6.621873      1.323893      1.347544
  O       6.430435     -0.091621      1.323520
  C       5.482208     -0.511831      0.341714
  C       4.049481     -0.396466      0.865055
  O       3.098545     -0.857134     -0.094791
  C       2.770687      0.117172     -1.090272
  C       1.665247     -0.427276     -1.958960
  O       0.467011     -0.522421     -1.204202
  C      -0.607155     -1.097514     -1.963162
  C      -1.881169     -1.139301     -1.116731
  O      -2.426227      0.082759     -0.823520
  C      -5.130698     -1.011791      1.614830
  C      -5.711631      0.270874      1.149533
  O      -6.907864      0.557966      1.913265
  C      -7.492094      1.791514      1.501364
  H       5.705801      1.862329      1.625650
  H       6.964550      1.688552      0.368014
  H       7.391699      1.527668      2.096141
  H       5.699577     -1.563905      0.122964
  H       5.612506      0.066678     -0.585575
  H       3.939233     -1.038789      1.746518
  H       3.821074      0.638589      1.162103
  H       2.446845      1.052393     -0.605025
  H       3.637899      0.343364     -1.729330
  H       1.530050      0.247483     -2.822252
  H       1.955346     -1.417890     -2.351784
  H      -0.779856     -0.491217     -2.870976
  H      -0.319528     -2.117918     -2.281427
  H      -1.611141     -1.745818     -0.210823
  H      -2.562156     -1.816678     -1.701678
  H      -4.527172     -1.042621      2.516006
  H      -5.398706     -1.945827      1.132982
  H      -4.997472      1.099544      1.288306
  H      -5.973358      0.223528      0.080591
  H      -8.384117      1.947600      2.113566
  H      -6.797822      2.632523      1.652226
  H      -7.781903      1.761590      0.439703
37
Coordinates from ORCA-job TEGDME_anion_cpcm_200_default E -770.228319851851
  C       6.646101      1.307289      1.326333
  O       6.439324     -0.106269      1.317355
  C       5.481504     -0.524971      0.343997
  C       4.052980     -0.394873      0.875653
  O       3.093027     -0.847657     -0.079115
  C       2.763517      0.133135     -1.067749
  C       1.664788     -0.408843     -1.946164
  O       0.461897     -0.512077     -1.199446
  C      -0.604648     -1.088265     -1.968350
  C      -1.884744     -1.140425     -1.130833
  O      -2.432227      0.077441     -0.828569
  C      -5.120297     -0.998793      1.635436
  C      -5.719858      0.267353      1.148751
  O      -6.910158      0.558998      1.920050
  C      -7.510676      1.778626      1.489560
  H       5.735535      1.858439      1.597781
  H       6.993266      1.657657      0.343167
  H       7.417530      1.511094      2.073285
  H       5.689221     -1.579860      0.129512
  H       5.609753      0.047442     -0.587287
  H       3.941443     -1.034101      1.759174
  H       3.836998      0.642912      1.172421
  H       2.433521      1.062783     -0.576106
  H       3.632203      0.368963     -1.701351
  H       1.532882      0.271970     -2.805217
  H       1.959898     -1.395860     -2.343911
  H      -0.773232     -0.477472     -2.873960
  H      -0.310870     -2.105935     -2.289556
  H      -1.619444     -1.757678     -0.230248
  H      -2.559762     -1.812984     -1.728458
  H      -4.520842     -1.005030      2.539916
  H      -5.381421     -1.945096      1.174198
  H      -5.012871      1.106193      1.261292
  H      -5.992690      0.193729      0.084089
  H      -8.397609      1.939358      2.107886
  H      -6.822588      2.628774      1.615619
  H      -7.811450      1.724035      0.431930
37
Coordinates from ORCA-job TEGDME_anion_cpcm_200_default E -770.228345175325
  C       6.695229      1.271002      1.283287
  O       6.462791     -0.138549      1.292840
  C       5.484254     -0.548864      0.336309
  C       4.066018     -0.395478      0.889043
  O       3.086951     -0.828912     -0.055383
  C       2.746352      0.170650     -1.021387
  C       1.656183     -0.362662     -1.915140
  O       0.450304     -0.491371     -1.176462
  C      -0.603521     -1.070684     -1.960583
  C      -1.892623     -1.140389     -1.137129
  O      -2.449386      0.069868     -0.825384
  C      -5.113241     -0.984726      1.673456
  C      -5.737987      0.249917      1.139305
  O      -6.917303      0.562178      1.918915
  C      -7.536068      1.759169      1.451415
  H       5.795380      1.841664      1.550392
  H       7.045353      1.602565      0.294663
  H       7.472532      1.470595      2.025278
  H       5.673990     -1.607378      0.123187
  H       5.605081      0.017755     -0.599452
  H       3.955575     -1.033913      1.773292
  H       3.873151      0.645218      1.191274
  H       2.404844      1.084524     -0.508684
  H       3.613481      0.431730     -1.647311
  H       1.521827      0.335550     -2.759736
  H       1.961423     -1.338452     -2.332002
  H      -0.766915     -0.453618     -2.862918
  H      -0.298224     -2.083549     -2.286063
  H      -1.631830     -1.768993     -0.242470
  H      -2.556365     -1.809917     -1.750717
  H      -4.523415     -0.944087      2.583515
  H      -5.354294     -1.953199      1.248799
  H      -5.040042      1.101706      1.200791
  H      -6.028001      0.123857      0.084248
  H      -8.414486      1.936978      2.077138
  H      -6.853563      2.619183      1.532914
  H      -7.853457      1.660633      0.401848
37
Coordinates from ORCA-job TEGDME_anion_cpcm_200_default E -770.228368087063
  C       6.734533      1.246761      1.243724
  O       6.494921     -0.161563      1.253164
  C       5.496634     -0.562740      0.313130
  C       4.089896     -0.408959      0.894336
  O       3.092847     -0.822667     -0.040275
  C       2.729095      0.201631     -0.971455
  C       1.644191     -0.319948     -1.878019
  O       0.440484     -0.484253     -1.142247
  C      -0.604112     -1.058876     -1.942004
  C      -1.900446     -1.145195     -1.130830
  O      -2.463950      0.057959     -0.805812
  C      -5.126478     -0.981865      1.707620
  C      -5.759068      0.227641      1.127301
  O      -6.927562      0.573529      1.908167
  C      -7.547057      1.755695      1.404839
  H       5.839763      1.821192      1.519769
  H       7.077394      1.578121      0.252507
  H       7.519310      1.441434      1.979105
  H       5.679440     -1.619997      0.088238
  H       5.599683      0.010717     -0.620621
  H       3.990840     -1.058204      1.772076
  H       3.909616      0.628562      1.214323
  H       2.374220      1.091969     -0.427477
  H       3.588660      0.498619     -1.591874
  H       1.499356      0.400912     -2.701614
  H       1.960737     -1.279352     -2.323242
  H      -0.762373     -0.430830     -2.837641
  H      -0.291394     -2.066164     -2.277535
  H      -1.645067     -1.787310     -0.243984
  H      -2.555572     -1.807985     -1.760690
  H      -4.552216     -0.904188      2.625273
  H      -5.349171     -1.967043      1.312636
  H      -5.060751      1.081394      1.143238
  H      -6.061676      0.055827      0.082435
  H      -8.418109      1.959204      2.032972
  H      -6.860427      2.615072      1.448551
  H      -7.876189      1.620902      0.363000
37
Coordinates from ORCA-job TEGDME_anion_cpcm_200_default E -770.228384320739
  C       6.767042      1.225852      1.208679
  O       6.526408     -0.182308      1.210427
  C       5.510223     -0.574370      0.285820
  C       4.115115     -0.427224      0.895714
  O       3.101252     -0.820480     -0.029871
  C       2.711349      0.229612     -0.920907
  C       1.631234     -0.279006     -1.840321
  O       0.432881     -0.486416     -1.106413
  C      -0.605115     -1.050366     -1.922174
  C      -1.907016     -1.151268     -1.121652
  O      -2.477278      0.045727     -0.785594
  C      -5.135775     -0.974371      1.738995
  C      -5.779699      0.206100      1.113496
  O      -6.933313      0.588924      1.898272
  C      -7.555192      1.753822      1.358768
  H       5.875614      1.798687      1.498454
  H       7.099603      1.564163      0.216334
  H       7.559598      1.414633      1.937192
  H       5.689444     -1.628955      0.046197
  H       5.594024      0.008815     -0.643924
  H       4.029037     -1.091394      1.763636
  H       3.944293      0.604876      1.237175
  H       2.342061      1.092028     -0.342588
  H       3.561288      0.566571     -1.534155
  H       1.471138      0.466328     -2.638887
  H       1.961120     -1.217840     -2.318486
  H      -0.758674     -0.408619     -2.808778
  H      -0.287823     -2.051493     -2.271661
  H      -1.656640     -1.803928     -0.241262
  H      -2.555026     -1.808197     -1.764760
  H      -4.574523     -0.856726      2.660501
  H      -5.334712     -1.975665      1.373311
  H      -5.081421      1.059597      1.077588
  H      -6.099890     -0.013558      0.083073
  H      -8.415522      1.985527      1.991857
  H      -6.864079      2.610606      1.358839
  H      -7.901026      1.580317      0.328192
37
Coordinates from ORCA-job TEGDME_anion_cpcm_200_default E -770.228403761982
  C       6.753388      1.239440      1.216887
  O       6.525259     -0.170790      1.213304
  C       5.513233     -0.569036      0.287038
  C       4.115981     -0.432092      0.894071
  O       3.106725     -0.829361     -0.034957
  C       2.712694      0.220398     -0.924491
  C       1.632908     -0.290093     -1.843360
  O       0.436463     -0.503039     -1.108122
  C      -0.604631     -1.057831     -1.925926
  C      -1.906867     -1.153740     -1.125939
  O      -2.471235      0.045393     -0.786429
  C      -5.139401     -0.977976      1.732790
  C      -5.781345      0.205673      1.111844
  O      -6.925900      0.596643      1.905419
  C      -7.543951      1.765413      1.370017
  H       5.857533      1.803274      1.510437
  H       7.081438      1.584631      0.225426
  H       7.545371      1.432056      1.944992
  H       5.700331     -1.622277      0.047556
  H       5.594765      0.014788     -0.642631
  H       4.031415     -1.098956      1.760064
  H       3.937368      0.598080      1.237189
  H       2.340725      1.080827     -0.344796
  H       3.561016      0.561059     -1.537818
  H       1.468972      0.455880     -2.640492
  H       1.965302     -1.226750     -2.324249
  H      -0.754737     -0.412321     -2.810290
  H      -0.293138     -2.059448     -2.279351
  H      -1.661951     -1.810131     -0.247175
  H      -2.558635     -1.804603     -1.771415
  H      -4.573591     -0.864157      2.651955
  H      -5.332601     -1.977430      1.359284
  H      -5.078104      1.054907      1.069461
  H      -6.111116     -0.012297      0.084106
  H      -8.397317      2.003079      2.010242
  H      -6.846949      2.617291      1.363908
  H      -7.899418      1.593495      0.342537
37
Coordinates from ORCA-job TEGDME_anion_cpcm_200_default E -770.228437490179
  C       6.742093      1.245019      1.218997
  O       6.517493     -0.165761      1.226821
  C       5.507796     -0.575238      0.303488
  C       4.108286     -0.429478      0.902680
  O       3.103053     -0.828959     -0.030259
  C       2.710579      0.219445     -0.921729
  C       1.637444     -0.295073     -1.846266
  O       0.441370     -0.521843     -1.115178
  C      -0.600999     -1.059224     -1.942740
  C      -1.905750     -1.155813     -1.148444
  O      -2.466854      0.043466     -0.800657
  C      -5.124388     -0.970591      1.733451
  C      -5.787968      0.197906      1.107548
  O      -6.900466      0.613765      1.933033
  C      -7.533506      1.771230      1.391201
  H       5.846087      1.809260      1.510973
  H       7.066450      1.583238      0.223922
  H       7.535794      1.444656      1.943314
  H       5.695236     -1.631947      0.080093
  H       5.593169     -0.005696     -0.634837
  H       4.015653     -1.091424      1.771580
  H       3.930210      0.603240      1.238155
  H       2.331099      1.077965     -0.343828
  H       3.561108      0.563993     -1.529698
  H       1.469291      0.452203     -2.641156
  H       1.979003     -1.226649     -2.331205
  H      -0.745209     -0.402713     -2.819808
  H      -0.294837     -2.058207     -2.308386
  H      -1.670227     -1.819901     -0.273717
  H      -2.559316     -1.796825     -1.802078
  H      -4.547061     -0.838499      2.642997
  H      -5.290183     -1.975078      1.360759
  H      -5.085199      1.044287      1.016964
  H      -6.156070     -0.043873      0.098359
  H      -8.360442      2.029374      2.057700
  H      -6.833786      2.619106      1.336092
  H      -7.928953      1.574639      0.382941
37
Coordinates from ORCA-job TEGDME_anion_cpcm_200_default E -770.228465473790
  C       6.728668      1.253530      1.221618
  O       6.510207     -0.158103      1.236877
  C       5.500849     -0.576972      0.317856
  C       4.100151     -0.426849      0.913044
  O       3.098063     -0.829573     -0.022368
  C       2.707630      0.216294     -0.917408
  C       1.641976     -0.302943     -1.847806
  O       0.442987     -0.535081     -1.123708
  C      -0.598122     -1.058941     -1.961139
  C      -1.905625     -1.162274     -1.173470
  O      -2.464884      0.034209     -0.812066
  C      -5.115438     -0.969034      1.734855
  C      -5.794003      0.187969      1.104636
  O      -6.871469      0.634617      1.959513
  C      -7.514814      1.783355      1.411955
  H       5.832640      1.815368      1.518110
  H       7.044003      1.588817      0.222646
  H       7.527073      1.459219      1.939026
  H       5.689531     -1.635689      0.105242
  H       5.586253     -0.017030     -0.626292
  H       4.003338     -1.085221      1.784160
  H       3.921304      0.607427      1.243134
  H       2.321788      1.074507     -0.343243
  H       3.560963      0.562452     -1.520555
  H       1.474941      0.443013     -2.644123
  H       1.990409     -1.233164     -2.330822
  H      -0.737844     -0.391105     -2.830394
  H      -0.293729     -2.054068     -2.338740
  H      -1.677201     -1.838344     -0.306275
  H      -2.558887     -1.791764     -1.838704
  H      -4.530010     -0.823386      2.637157
  H      -5.257745     -1.976433      1.360753
  H      -5.088828      1.026496      0.966908
  H      -6.199986     -0.075341      0.115603
  H      -8.313380      2.066673      2.102425
  H      -6.810617      2.622946      1.307742
  H      -7.950188      1.564422      0.424938
37
Coordinates from ORCA-job TEGDME_anion_cpcm_200_default E -770.228513363591
  C       6.709644      1.263903      1.234849
  O       6.495428     -0.148254      1.254106
  C       5.488086     -0.573451      0.336184
  C       4.084451     -0.416695      0.922960
  O       3.087828     -0.825526     -0.016042
  C       2.705779      0.212515     -0.923455
  C       1.647562     -0.314959     -1.857596
  O       0.443545     -0.542669     -1.141018
  C      -0.595266     -1.059968     -1.984924
  C      -1.902722     -1.177277     -1.200361
  O      -2.464714      0.013335     -0.823287
  C      -5.112092     -0.975482      1.733349
  C      -5.800893      0.174634      1.102609
  O      -6.833153      0.660577      1.990407
  C      -7.482061      1.805074      1.441664
  H       5.815318      1.823812      1.540074
  H       7.013465      1.598679      0.232106
  H       7.515144      1.472495      1.943446
  H       5.676148     -1.634265      0.133740
  H       5.577598     -0.021982     -0.612579
  H       3.981248     -1.069073      1.797792
  H       3.904246      0.620053      1.244436
  H       2.316901      1.076856     -0.360759
  H       3.564476      0.551230     -1.523326
  H       1.485998      0.424203     -2.661359
  H       2.000593     -1.248946     -2.330109
  H      -0.736578     -0.382172     -2.846362
  H      -0.287732     -2.049697     -2.374145
  H      -1.673762     -1.864055     -0.341681
  H      -2.554572     -1.798289     -1.874905
  H      -4.518672     -0.821898      2.629162
  H      -5.231018     -1.982736      1.351196
  H      -5.089798      0.998830      0.913596
  H      -6.251247     -0.106903      0.138128
  H      -8.244819      2.119868      2.158495
  H      -6.770361      2.630069      1.284024
  H      -7.963998      1.568165      0.480671
37
Coordinates from ORCA-job TEGDME_anion_cpcm_200_default E -770.228566651105
  C       6.697947      1.271283      1.252045
  O       6.486518     -0.141344      1.262653
  C       5.481325     -0.563374      0.340921
  C       4.075513     -0.408487      0.923577
  O       3.082270     -0.821162     -0.017331
  C       2.705865      0.211135     -0.933629
  C       1.650247     -0.321807     -1.867537
  O       0.443041     -0.542197     -1.154104
  C      -0.592733     -1.065287     -1.997946
  C      -1.896776     -1.200420     -1.210650
  O      -2.467135     -0.017459     -0.822685
  C      -5.125074     -0.986116      1.730296
  C      -5.810506      0.166514      1.100943
  O      -6.813613      0.678955      2.005914
  C      -7.455372      1.829089      1.461429
  H       5.805061      1.827277      1.568629
  H       6.992959      1.614074      0.249338
  H       7.508946      1.476219      1.955455
  H       5.669519     -1.623540      0.135293
  H       5.573541     -0.008085     -0.605275
  H       3.971604     -1.060318      1.798715
  H       3.892126      0.628207      1.243604
  H       2.318439      1.081196     -0.379041
  H       3.567296      0.542136     -1.534035
  H       1.493233      0.411785     -2.677376
  H       2.003769     -1.260184     -2.330693
  H      -0.742582     -0.383510     -2.855042
  H      -0.276681     -2.049904     -2.393238
  H      -1.657110     -1.891431     -0.357830
  H      -2.545381     -1.822007     -1.887564
  H      -4.531901     -0.835372      2.626818
  H      -5.234918     -1.990584      1.338385
  H      -5.090707      0.977454      0.886368
  H      -6.285626     -0.119382      0.149677
  H      -8.196386      2.164108      2.191763
  H      -6.733765      2.640604      1.279579
  H      -7.962955      1.591933      0.513660
37
Coordinates from ORCA-job TEGDME_anion_cpcm_200_default E -770.228625345145
  C       6.693567      1.278703      1.266901
  O       6.488479     -0.134852      1.256992
  C       5.484202     -0.547900      0.329951
  C       4.078256     -0.407258      0.916547
  O       3.085047     -0.819575     -0.024210
  C       2.704063      0.214180     -0.937197
  C       1.648472     -0.319729     -1.870588
  O       0.442272     -0.544756     -1.156512
  C      -0.589547     -1.077247     -1.999260
  C      -1.888006     -1.236449     -1.206426
  O      -2.470563     -0.064558     -0.804505
  C      -5.159381     -1.002121      1.726235
  C      -5.829933      0.158175      1.095236
  O      -6.809040      0.697904      2.009259
  C      -7.429016      1.862155      1.469999
  H       5.800623      1.825471      1.599149
  H       6.979153      1.638798      0.267512
  H       7.509242      1.476479      1.966980
  H       5.676121     -1.604171      0.108492
  H       5.573284      0.022425     -0.607464
  H       3.981845     -1.066880      1.786718
  H       3.888960      0.625538      1.245832
  H       2.317067      1.082354     -0.379590
  H       3.562976      0.548074     -1.539695
  H       1.488856      0.415977     -2.678101
  H       2.004099     -1.256257     -2.335398
  H      -0.752161     -0.391057     -2.850673
  H      -0.261364     -2.054641     -2.402354
  H      -1.631761     -1.931877     -0.361482
  H      -2.532038     -1.860747     -1.884770
  H      -4.575433     -0.859251      2.630103
  H      -5.263143     -2.002321      1.322121
  H      -5.096396      0.952884      0.864829
  H      -6.322024     -0.126177      0.152201
  H      -8.153383      2.216952      2.207608
  H      -6.690175      2.655738      1.278095
  H      -7.953221      1.636017      0.528550
37
Coordinates from ORCA-job TEGDME_anion_cpcm_200_default E -770.228694151670
  C       6.683095      1.293028      1.288829
  O       6.492589     -0.121943      1.246782
  C       5.491043     -0.524426      0.311984
  C       4.084875     -0.410238      0.904163
  O       3.093431     -0.822267     -0.038068
  C       2.699730      0.216678     -0.939863
  C       1.644298     -0.317594     -1.873336
  O       0.443086     -0.559823     -1.156128
  C      -0.585471     -1.099885     -1.997989
  C      -1.876099     -1.286254     -1.197631
  O      -2.471032     -0.127393     -0.777093
  C      -5.207899     -1.023875      1.716246
  C      -5.858493      0.147093      1.084873
  O      -6.798224      0.726788      2.014062
  C      -7.386554      1.910470      1.482076
  H       5.787633      1.822123      1.642249
  H       6.955723      1.680313      0.296001
  H       7.503193      1.482681      1.986007
  H       5.692391     -1.573767      0.067338
  H       5.573504      0.067605     -0.612461
  H       4.000711     -1.083357      1.765277
  H       3.883726      0.615267      1.249015
  H       2.309455      1.076827     -0.372302
  H       3.552593      0.562655     -1.544181
  H       1.474743      0.425153     -2.672372
  H       2.006006     -1.246481     -2.348301
  H      -0.763312     -0.407117     -2.841080
  H      -0.244913     -2.067956     -2.412955
  H      -1.601392     -1.987733     -0.363243
  H      -2.517006     -1.911347     -1.877702
  H      -4.634908     -0.891900      2.628755
  H      -5.296712     -2.016781      1.291467
  H      -5.106874      0.917145      0.827870
  H      -6.378986     -0.134085      0.156266
  H      -8.082612      2.294278      2.232273
  H      -6.623558      2.676026      1.271778
  H      -7.937779      1.700094      0.552479
37
Coordinates from ORCA-job TEGDME_anion_cpcm_200_default E -770.228778931414
  C       6.676602      1.300679      1.308867
  O       6.497361     -0.114648      1.239097
  C       5.497678     -0.507165      0.298052
  C       4.091588     -0.412952      0.893910
  O       3.101925     -0.822880     -0.050753
  C       2.694537      0.223484     -0.937807
  C       1.641597     -0.309657     -1.874894
  O       0.446722     -0.577717     -1.156096
  C      -0.578772     -1.119812     -2.000361
  C      -1.862551     -1.332515     -1.195146
  O      -2.470022     -0.187294     -0.755168
  C      -5.246663     -1.034981      1.712192
  C      -5.899063      0.131048      1.074976
  O      -6.773939      0.765187      2.029212
  C      -7.348698      1.954279      1.494521
  H       5.779754      1.815015      1.680007
  H       6.938435      1.710781      0.322317
  H       7.500573      1.482745      2.003508
  H       5.705608     -1.550827      0.035320
  H       5.575748      0.101246     -0.616161
  H       4.015951     -1.097093      1.747151
  H       3.881778      0.606417      1.251547
  H       2.297177      1.071851     -0.357519
  H       3.541509      0.586623     -1.540342
  H       1.459260      0.443242     -2.661481
  H       2.012738     -1.226548     -2.365532
  H      -0.769508     -0.418280     -2.833273
  H      -0.227752     -2.077665     -2.429969
  H      -1.573233     -2.041382     -0.372061
  H      -2.500200     -1.956337     -1.879235
  H      -4.679036     -0.896343      2.627119
  H      -5.296085     -2.022483      1.269263
  H      -5.141893      0.872584      0.754702
  H      -6.470793     -0.165871      0.181992
  H      -7.995399      2.379111      2.266452
  H      -6.572471      2.688512      1.228777
  H      -7.950462      1.739646      0.597898
37
Coordinates from ORCA-job TEGDME_anion_cpcm_200_default E -770.228892355395
  C       6.696617      1.299059      1.330957
  O       6.530872     -0.114211      1.206175
  C       5.533619     -0.479482      0.251107
  C       4.130928     -0.429666      0.859660
  O       3.139424     -0.830114     -0.085856
  C       2.697017      0.236897     -0.930895
  C       1.636810     -0.283597     -1.867375
  O       0.462533     -0.603932     -1.135236
  C      -0.561765     -1.157431     -1.974139
  C      -1.832358     -1.399008     -1.153668
  O      -2.459299     -0.271437     -0.696496
  C      -5.328879     -1.037327      1.692212
  C      -5.988094      0.122836      1.053556
  O      -6.784450      0.811380      2.032784
  C      -7.346556      2.007860      1.499404
  H       5.794021      1.790306      1.718694
  H       6.957820      1.749841      0.362223
  H       7.516583      1.462115      2.034980
  H       5.753766     -1.508465     -0.055935
  H       5.600976      0.167399     -0.637297
  H       4.077872     -1.138696      1.694276
  H       3.906523      0.574950      1.248778
  H       2.292469      1.056151     -0.314513
  H       3.525626      0.638904     -1.534059
  H       1.422945      0.494839     -2.620335
  H       2.016629     -1.172531     -2.400608
  H      -0.774071     -0.453134     -2.799001
  H      -0.197397     -2.104522     -2.415948
  H      -1.518089     -2.108982     -0.341048
  H      -2.465914     -2.031284     -1.833813
  H      -4.778379     -0.894817      2.616903
  H      -5.306252     -2.006699      1.209128
  H      -5.233491      0.831344      0.657546
  H      -6.618047     -0.190760      0.205852
  H      -7.935137      2.471453      2.295093
  H      -6.561084      2.707044      1.175047
  H      -8.003786      1.793717      0.642933
37
Coordinates from ORCA-job TEGDME_anion_cpcm_200_default E -770.229019826602
  C       6.680426      1.298191      1.339032
  O       6.513646     -0.116007      1.228278
  C       5.513650     -0.491101      0.280885
  C       4.108566     -0.417497      0.880963
  O       3.121911     -0.818250     -0.070504
  C       2.686444      0.248185     -0.919016
  C       1.641841     -0.275456     -1.871003
  O       0.464558     -0.613897     -1.153475
  C      -0.559100     -1.139144     -2.010389
  C      -1.828211     -1.412178     -1.200406
  O      -2.458923     -0.303198     -0.702916
  C      -5.316882     -1.044208      1.721691
  C      -6.037353      0.069913      1.070613
  O      -6.666746      0.880288      2.073527
  C      -7.272607      2.037264      1.503976
  H       5.783984      1.792876      1.736429
  H       6.926727      1.740584      0.362527
  H       7.511111      1.466648      2.029046
  H       5.726057     -1.528177     -0.003737
  H       5.588385      0.135152     -0.621822
  H       4.039955     -1.116313      1.722949
  H       3.890661      0.593805      1.255781
  H       2.267763      1.064022     -0.307375
  H       3.522548      0.655308     -1.508284
  H       1.427704      0.505154     -2.621529
  H       2.036085     -1.156568     -2.407585
  H      -0.773915     -0.408030     -2.810983
  H      -0.193716     -2.069821     -2.485384
  H      -1.517451     -2.150355     -0.412565
  H      -2.461850     -2.018492     -1.904458
  H      -4.744103     -0.849746      2.623245
  H      -5.194403     -1.997948      1.223292
  H      -5.332755      0.708727      0.497949
  H      -6.786652     -0.302639      0.353182
  H      -7.727952      2.599788      2.322927
  H      -6.527194      2.670262      0.999105
  H      -8.052210      1.762856      0.777119
37
Coordinates from ORCA-job TEGDME_anion_cpcm_200_default E -770.229061580630
  C       6.685381      1.289468      1.316666
  O       6.499182     -0.125102      1.252611
  C       5.497837     -0.517443      0.314299
  C       4.090312     -0.402746      0.901333
  O       3.106147     -0.808081     -0.051536
  C       2.692790      0.248286     -0.922679
  C       1.651407     -0.279267     -1.876001
  O       0.466137     -0.594253     -1.162566
  C      -0.563816     -1.104628     -2.020695
  C      -1.834242     -1.368523     -1.212399
  O      -2.449489     -0.253967     -0.708182
  C      -5.294580     -1.050374      1.737992
  C      -6.020812      0.058259      1.084421
  O      -6.644328      0.877531      2.082386
  C      -7.279636      2.010940      1.498597
  H       5.791168      1.810434      1.684459
  H       6.950734      1.693429      0.328581
  H       7.509390      1.469555      2.011678
  H       5.696664     -1.566640      0.066447
  H       5.585856      0.075511     -0.609428
  H       3.999976     -1.079362      1.759186
  H       3.887175      0.621203      1.249005
  H       2.275564      1.079345     -0.330713
  H       3.541191      0.634967     -1.508019
  H       1.451600      0.490744     -2.641365
  H       2.039838     -1.172935     -2.396419
  H      -0.772863     -0.368664     -2.818491
  H      -0.209247     -2.037497     -2.499833
  H      -1.536252     -2.115157     -0.428096
  H      -2.476598     -1.960809     -1.921211
  H      -4.719862     -0.855647      2.638328
  H      -5.166029     -1.999498      1.230548
  H      -5.323325      0.688834      0.493827
  H      -6.777608     -0.322439      0.377516
  H      -7.729301      2.584320      2.313034
  H      -6.553638      2.643858      0.965663
  H      -8.066723      1.706350      0.792143
37
Coordinates from ORCA-job TEGDME_anion_cpcm_200_default E -770.229123535268
  C       6.706769      1.285746      1.308825
  O       6.528518     -0.128473      1.219225
  C       5.522610     -0.507827      0.280029
  C       4.121473     -0.424177      0.886668
  O       3.129450     -0.816217     -0.063420
  C       2.687278      0.260281     -0.894890
  C       1.644158     -0.253098     -1.854171
  O       0.470753     -0.605673     -1.138501
  C      -0.561357     -1.105368     -2.000621
  C      -1.821842     -1.401110     -1.186811
  O      -2.438495     -0.305568     -0.646126
  C      -5.347830     -1.057494      1.748639
  C      -6.071482      0.043599      1.081757
  O      -6.627621      0.917022      2.067564
  C      -7.269544      2.037594      1.465597
  H       5.805093      1.795473      1.674295
  H       6.981726      1.707503      0.330911
  H       7.521211      1.458721      2.016779
  H       5.730310     -1.547583      0.001596
  H       5.593575      0.110918     -0.628042
  H       4.050240     -1.121986      1.729301
  H       3.912673      0.588671      1.262304
  H       2.261263      1.063321     -0.271370
  H       3.522286      0.682008     -1.475210
  H       1.425939      0.538490     -2.592193
  H       2.038456     -1.124324     -2.406841
  H      -0.784509     -0.351470     -2.777508
  H      -0.202061     -2.022574     -2.505649
  H      -1.510175     -2.167878     -0.427274
  H      -2.465890     -1.979265     -1.906066
  H      -4.798540     -0.862391      2.664493
  H      -5.177337     -1.988202      1.218400
  H      -5.387045      0.624575      0.426749
  H      -6.869062     -0.346967      0.424435
  H      -7.669498      2.653505      2.274697
  H      -6.557397      2.631703      0.873018
  H      -8.094095      1.718514      0.810501
37
Coordinates from ORCA-job TEGDME_anion_cpcm_200_default E -770.229166425264
  C       6.743897      1.270804      1.277252
  O       6.556820     -0.142205      1.184550
  C       5.539438     -0.511381      0.253050
  C       4.147431     -0.437229      0.881751
  O       3.140020     -0.813285     -0.058767
  C       2.681142      0.278665     -0.860871
  C       1.634015     -0.220872     -1.823155
  O       0.468892     -0.599634     -1.106575
  C      -0.567151     -1.083917     -1.973044
  C      -1.817782     -1.414143     -1.156022
  O      -2.439698     -0.339729     -0.580751
  C      -5.390587     -1.071145      1.764560
  C      -6.098625      0.026164      1.075087
  O      -6.634516      0.933457      2.041467
  C      -7.272334      2.043471      1.415884
  H       5.842348      1.785738      1.635808
  H       7.029410      1.691943      0.302087
  H       7.553525      1.437939      1.992117
  H       5.744414     -1.546864     -0.042634
  H       5.596468      0.120179     -0.647138
  H       4.088996     -1.148395      1.714150
  H       3.946082      0.569584      1.277030
  H       2.254726      1.063279     -0.214779
  H       3.507020      0.721038     -1.439010
  H       1.403760      0.586928     -2.539767
  H       2.030609     -1.075384     -2.399360
  H      -0.803885     -0.309298     -2.725105
  H      -0.204510     -1.983002     -2.507379
  H      -1.490424     -2.198407     -0.420843
  H      -2.460984     -1.980656     -1.885159
  H      -4.875524     -0.878358      2.700054
  H      -5.210067     -2.000971      1.236424
  H      -5.409593      0.577011      0.399157
  H      -6.907243     -0.366681      0.432016
  H      -7.658566      2.685697      2.211131
  H      -6.561046      2.614795      0.800224
  H      -8.106481      1.714862      0.777647
37
Coordinates from ORCA-job TEGDME_anion_cpcm_200_default E -770.229193072279
  C       6.769498      1.262532      1.255098
  O       6.573159     -0.149391      1.163937
  C       5.549409     -0.512117      0.236346
  C       4.162196     -0.439852      0.876284
  O       3.145718     -0.809631     -0.056828
  C       2.685899      0.284704     -0.855689
  C       1.627489     -0.210556     -1.807808
  O       0.466632     -0.584843     -1.081269
  C      -0.575587     -1.070545     -1.939552
  C      -1.818421     -1.406938     -1.112580
  O      -2.443329     -0.335206     -0.535541
  C      -5.419589     -1.088832      1.746795
  C      -6.096994      0.027460      1.055072
  O      -6.673325      0.913537      2.021354
  C      -7.290061      2.035745      1.397135
  H       5.869969      1.783982      1.609396
  H       7.061420      1.680263      0.280321
  H       7.577470      1.425532      1.972823
  H       5.750879     -1.545891     -0.067542
  H       5.600962      0.125669     -0.659776
  H       4.109956     -1.155907      1.704835
  H       3.966060      0.565027      1.279045
  H       2.271766      1.073117     -0.206376
  H       3.508574      0.720592     -1.443399
  H       1.394390      0.598127     -2.522443
  H       2.016173     -1.067124     -2.386117
  H      -0.820935     -0.294546     -2.687481
  H      -0.213944     -1.967187     -2.478603
  H      -1.477642     -2.186363     -0.377806
  H      -2.462940     -1.980943     -1.834153
  H      -4.929271     -0.920072      2.699460
  H      -5.261295     -2.022530      1.219636
  H      -5.379754      0.594750      0.424851
  H      -6.878789     -0.346712      0.369899
  H      -7.709271      2.660033      2.190099
  H      -6.558230      2.623584      0.822136
  H      -8.098242      1.720536      0.719528
37
Coordinates from ORCA-job TEGDME_anion_cpcm_200_default E -770.229210186188
  C       6.755289      1.270417      1.261902
  O       6.559612     -0.141906      1.177261
  C       5.538967     -0.510129      0.248697
  C       4.148689     -0.430920      0.881179
  O       3.136635     -0.805430     -0.054767
  C       2.685869      0.282320     -0.867595
  C       1.626460     -0.218006     -1.815944
  O       0.464466     -0.583737     -1.087250
  C      -0.581190     -1.066321     -1.942846
  C      -1.819128     -1.408994     -1.111707
  O      -2.442209     -0.341653     -0.524757
  C      -5.423400     -1.106220      1.734528
  C      -6.097373      0.017329      1.051264
  O      -6.640781      0.915874      2.023888
  C      -7.251515      2.045180      1.407388
  H       5.856650      1.792950      1.616834
  H       7.044005      1.684133      0.284450
  H       7.565402      1.436699      1.976450
  H       5.740296     -1.546624     -0.045914
  H       5.595610      0.120332     -0.652318
  H       4.090369     -1.141751      1.713760
  H       3.951761      0.576909      1.276166
  H       2.276240      1.081573     -0.228725
  H       3.512657      0.704909     -1.459256
  H       1.395638      0.584735     -2.537856
  H       2.013798     -1.080744     -2.386158
  H      -0.831341     -0.286986     -2.685773
  H      -0.220715     -1.959747     -2.488055
  H      -1.473053     -2.191847     -0.382983
  H      -2.467977     -1.978941     -1.832541
  H      -4.930686     -0.944510      2.687178
  H      -5.254805     -2.032571      1.198158
  H      -5.382947      0.572587      0.406574
  H      -6.896163     -0.347826      0.381414
  H      -7.644871      2.679319      2.205719
  H      -6.522258      2.619230      0.815376
  H      -8.078000      1.740367      0.747346
37
Coordinates from ORCA-job TEGDME_anion_cpcm_200_default E -770.229218516981
  C       6.730703      1.283653      1.271662
  O       6.542743     -0.130265      1.197701
  C       5.528237     -0.511660      0.268077
  C       4.133248     -0.427728      0.889344
  O       3.129367     -0.811069     -0.051911
  C       2.688653      0.268222     -0.881196
  C       1.631940     -0.238548     -1.828901
  O       0.463387     -0.587004     -1.102588
  C      -0.583052     -1.066275     -1.959005
  C      -1.826572     -1.393132     -1.130568
  O      -2.438481     -0.316768     -0.548194
  C      -5.396055     -1.104020      1.728117
  C      -6.078894      0.019880      1.054572
  O      -6.620873      0.910060      2.035035
  C      -7.237436      2.041324      1.427892
  H       5.829904      1.803953      1.624427
  H       7.015460      1.691606      0.290641
  H       7.541158      1.459483      1.983522
  H       5.733868     -1.551238     -0.012409
  H       5.589294      0.107645     -0.640324
  H       4.067787     -1.131290      1.727512
  H       3.932185      0.583433      1.273685
  H       2.280108      1.078145     -0.255138
  H       3.521110      0.678259     -1.473717
  H       1.410079      0.555301     -2.563264
  H       2.017383     -1.111609     -2.384780
  H      -0.823872     -0.289802     -2.708062
  H      -0.228431     -1.966329     -2.497139
  H      -1.491516     -2.177477     -0.398362
  H      -2.480809     -1.957083     -1.851321
  H      -4.890018     -0.940755      2.673916
  H      -5.235913     -2.034606      1.196086
  H      -5.369049      0.583193      0.411666
  H      -6.878481     -0.345376      0.386048
  H      -7.628382      2.669498      2.232099
  H      -6.512440      2.620551      0.835613
  H      -8.066340      1.737829      0.770351
37
Coordinates from ORCA-job TEGDME_anion_cpcm_200_default E -770.229226818449
  C       6.727870      1.287921      1.272657
  O       6.543328     -0.126414      1.197190
  C       5.531260     -0.509185      0.265360
  C       4.135534     -0.430930      0.885607
  O       3.133145     -0.814486     -0.057058
  C       2.690051      0.266032     -0.883503
  C       1.630619     -0.238969     -1.829095
  O       0.464177     -0.588319     -1.099702
  C      -0.585550     -1.065465     -1.953608
  C      -1.826118     -1.393235     -1.120711
  O      -2.433095     -0.317538     -0.532103
  C      -5.406440     -1.111169      1.723622
  C      -6.081341      0.017833      1.051100
  O      -6.617225      0.910268      2.032085
  C      -7.227483      2.045479      1.425456
  H       5.824280      1.806096      1.621376
  H       7.016369      1.696962      0.293200
  H       7.534516      1.465320      1.988443
  H       5.740609     -1.547507     -0.017047
  H       5.591367      0.112041     -0.641754
  H       4.071476     -1.136631      1.722104
  H       3.931633      0.578736      1.272450
  H       2.282934      1.074677     -0.254854
  H       3.520747      0.677512     -1.477483
  H       1.406749      0.556474     -2.561132
  H       2.014044     -1.110994     -2.387945
  H      -0.828675     -0.287443     -2.700280
  H      -0.233447     -1.964618     -2.494826
  H      -1.489153     -2.180695     -0.392757
  H      -2.484410     -1.953716     -1.840510
  H      -4.907333     -0.954349      2.674306
  H      -5.246921     -2.040485      1.188714
  H      -5.368140      0.576217      0.407482
  H      -6.883692     -0.342011      0.382391
  H      -7.613981      2.675455      2.230410
  H      -6.499096      2.620223      0.832978
  H      -8.058607      1.746913      0.768525
37
Coordinates from ORCA-job TEGDME_anion_cpcm_200_default E -770.229237432771
  C       6.721888      1.292208      1.277272
  O       6.543489     -0.122925      1.199801
  C       5.536537     -0.508724      0.263458
  C       4.138672     -0.438589      0.879679
  O       3.140135     -0.822398     -0.067018
  C       2.694652      0.260167     -0.889597
  C       1.630682     -0.241294     -1.831988
  O       0.466495     -0.588962     -1.097907
  C      -0.590110     -1.059016     -1.947776
  C      -1.828208     -1.380880     -1.108182
  O      -2.423637     -0.302683     -0.512468
  C      -5.408477     -1.115745      1.723120
  C      -6.084484      0.011360      1.049177
  O      -6.608095      0.912253      2.028703
  C      -7.219387      2.045681      1.418890
  H       5.813564      1.806739      1.618953
  H       7.016565      1.702792      0.300317
  H       7.522034      1.472686      1.999564
  H       5.752129     -1.545326     -0.020583
  H       5.596471      0.114520     -0.642285
  H       4.074988     -1.147164      1.713797
  H       3.929991      0.568953      1.269503
  H       2.290062      1.067271     -0.257364
  H       3.523248      0.673157     -1.485503
  H       1.405674      0.556246     -2.561428
  H       2.009475     -1.112927     -2.394484
  H      -0.832427     -0.278640     -2.692143
  H      -0.246014     -1.959369     -2.492081
  H      -1.492581     -2.173358     -0.385150
  H      -2.494081     -1.935061     -1.826055
  H      -4.915075     -0.957907      2.676588
  H      -5.246034     -2.045483      1.189828
  H      -5.375973      0.561501      0.393352
  H      -6.895032     -0.350043      0.390546
  H      -7.595709      2.682944      2.222950
  H      -6.493682      2.612456      0.815620
  H      -8.057744      1.745558      0.771980
37
Coordinates from ORCA-job TEGDME_anion_cpcm_200_default E -770.229247802783
  C       6.719030      1.289468      1.283496
  O       6.544631     -0.125948      1.201352
  C       5.541832     -0.511511      0.260325
  C       4.142172     -0.448282      0.873120
  O       3.146701     -0.829570     -0.077833
  C       2.700423      0.256294     -0.895674
  C       1.630884     -0.239672     -1.834794
  O       0.468827     -0.584619     -1.095925
  C      -0.595710     -1.044724     -1.941580
  C      -1.831971     -1.358506     -1.095444
  O      -2.413603     -0.277335     -0.491997
  C      -5.399763     -1.114843      1.733422
  C      -6.089944     -0.001673      1.050914
  O      -6.593783      0.918417      2.022281
  C      -7.217114      2.039888      1.402162
  H       5.807219      1.800966      1.620338
  H       7.019200      1.703202      0.309558
  H       7.513836      1.470235      2.011584
  H       5.761909     -1.546182     -0.027252
  H       5.602115      0.115392     -0.642898
  H       4.078085     -1.160894      1.703771
  H       3.930249      0.556877      1.267266
  H       2.299743      1.062148     -0.259404
  H       3.527478      0.669729     -1.493470
  H       1.405634      0.560584     -2.561212
  H       2.003715     -1.111100     -2.401463
  H      -0.835562     -0.260851     -2.682958
  H      -0.261538     -1.946526     -2.489652
  H      -1.499294     -2.157096     -0.377837
  H      -2.506438     -1.904623     -1.811634
  H      -4.910611     -0.943324      2.686587
  H      -5.228836     -2.047981      1.209042
  H      -5.396635      0.534213      0.367668
  H      -6.914225     -0.376415      0.416698
  H      -7.576211      2.693645      2.200792
  H      -6.503560      2.593161      0.772618
  H      -8.068883      1.727456      0.779120
37
Coordinates from ORCA-job TEGDME_anion_cpcm_200_default E -770.229249033537
  C       6.737963      1.262425      1.287555
  O       6.561547     -0.151805      1.189472
  C       5.560083     -0.524972      0.241725
  C       4.160462     -0.471862      0.855703
  O       3.163798     -0.839081     -0.099465
  C       2.717195      0.258258     -0.901855
  C       1.630202     -0.219157     -1.830809
  O       0.474902     -0.558453     -1.078612
  C      -0.607774     -0.996732     -1.913002
  C      -1.838339     -1.295364     -1.051590
  O      -2.391753     -0.209624     -0.431191
  C      -5.381436     -1.104960      1.767457
  C      -6.117062     -0.040060      1.055739
  O      -6.575551      0.935764      1.993207
  C      -7.240964      2.013276      1.339479
  H       5.824239      1.772423      1.621389
  H       7.047541      1.685526      0.320611
  H       7.526532      1.434444      2.024488
  H       5.781661     -1.554952     -0.061072
  H       5.619770      0.115106     -0.652300
  H       4.097312     -1.196266      1.676165
  H       3.949096      0.527549      1.264382
  H       2.331125      1.061284     -0.253121
  H       3.539983      0.670742     -1.506216
  H       1.403861      0.589999     -2.547019
  H       1.985700     -1.088879     -2.410901
  H      -0.844084     -0.204641     -2.646571
  H      -0.295337     -1.900387     -2.470763
  H      -1.510245     -2.106505     -0.346031
  H      -2.530694     -1.824824     -1.763424
  H      -4.906854     -0.889342      2.718633
  H      -5.179076     -2.046124      1.269734
  H      -5.470033      0.453463      0.299243
  H      -6.972500     -0.458120      0.492600
  H      -7.559085      2.715428      2.113938
  H      -6.567845      2.527347      0.636688
  H      -8.124339      1.659076      0.786822
37
Coordinates from ORCA-job TEGDME_anion_cpcm_200_default E -770.229261295447
  C       6.745397      1.258113      1.283618
  O       6.565240     -0.155251      1.181228
  C       5.559801     -0.522896      0.235612
  C       4.162266     -0.468585      0.854393
  O       3.161888     -0.834588     -0.097113
  C       2.716956      0.261562     -0.902061
  C       1.626665     -0.216190     -1.826939
  O       0.471918     -0.550517     -1.071833
  C      -0.609424     -0.997803     -1.902833
  C      -1.838500     -1.296069     -1.039695
  O      -2.396878     -0.208884     -0.426468
  C      -5.388938     -1.109817      1.760431
  C      -6.112760     -0.036879      1.048155
  O      -6.591672      0.925949      1.989533
  C      -7.246287      2.010903      1.337846
  H       5.834836      1.768744      1.625146
  H       7.049857      1.684292      0.316385
  H       7.538994      1.425456      2.016230
  H       5.777720     -1.552454     -0.071304
  H       5.618329      0.120335     -0.656174
  H       4.101505     -1.193782      1.674313
  H       3.953205      0.530729      1.264644
  H       2.335795      1.068582     -0.255361
  H       3.539605      0.668403     -1.510378
  H       1.400688      0.590735     -2.545750
  H       1.979455     -1.089088     -2.403988
  H      -0.849027     -0.210909     -2.641045
  H      -0.293618     -1.903652     -2.455112
  H      -1.505881     -2.100699     -0.328583
  H      -2.529070     -1.832987     -1.747482
  H      -4.917131     -0.901798      2.714622
  H      -5.194559     -2.052118      1.261816
  H      -5.450687      0.468889      0.313182
  H      -6.955528     -0.448823      0.462549
  H      -7.581518      2.701949      2.115093
  H      -6.560861      2.536397      0.655604
  H      -8.117782      1.662754      0.762803
37
Coordinates from ORCA-job TEGDME_anion_cpcm_200_default E -770.229275632993
  C       6.766701      1.238779      1.275702
  O       6.579309     -0.172752      1.162199
  C       5.566616     -0.527597      0.219509
  C       4.172948     -0.472226      0.847086
  O       3.165286     -0.830926     -0.099239
  C       2.724478      0.267511     -0.903368
  C       1.621789     -0.202392     -1.817419
  O       0.469846     -0.523606     -1.052636
  C      -0.616865     -0.975146     -1.873924
  C      -1.841345     -1.266789     -1.002625
  O      -2.395466     -0.175627     -0.392860
  C      -5.395572     -1.114902      1.763428
  C      -6.120104     -0.050090      1.039388
  O      -6.607469      0.918318      1.970574
  C      -7.265437      1.993964      1.307562
  H       5.861688      1.750159      1.630691
  H       7.063641      1.672510      0.309466
  H       7.568180      1.395892      2.001983
  H       5.777561     -1.555591     -0.097465
  H       5.623304      0.123309     -0.666731
  H       4.115604     -1.201796      1.663334
  H       3.969241      0.525532      1.263959
  H       2.357836      1.080764     -0.256006
  H       3.545734      0.663367     -1.520655
  H       1.397684      0.603912     -2.537513
  H       1.961945     -1.080820     -2.393836
  H      -0.859909     -0.192944     -2.616148
  H      -0.305284     -1.885160     -2.421757
  H      -1.505421     -2.067450     -0.288325
  H      -2.536656     -1.806651     -1.703426
  H      -4.931653     -0.900276      2.719968
  H      -5.193494     -2.058550      1.270234
  H      -5.455624      0.453188      0.304738
  H      -6.957921     -0.470125      0.452579
  H      -7.606623      2.690594      2.077221
  H      -6.580981      2.517170      0.622404
  H      -8.133565      1.636448      0.732995
37
Coordinates from ORCA-job TEGDME_anion_cpcm_200_default E -770.229271879706
  C       6.872480      1.142959      1.217036
  O       6.645329     -0.258814      1.063999
  C       5.594647     -0.557191      0.143915
  C       4.223118     -0.489568      0.818332
  O       3.176646     -0.810710     -0.097869
  C       2.751848      0.300855     -0.892548
  C       1.595923     -0.129164     -1.758644
  O       0.459237     -0.396523     -0.952348
  C      -0.651051     -0.863254     -1.730990
  C      -1.855727     -1.125619     -0.826184
  O      -2.392161     -0.017526     -0.232118
  C      -5.425439     -1.138198      1.775248
  C      -6.148751     -0.112598      0.994136
  O      -6.687018      0.875456      1.874939
  C      -7.356177      1.906146      1.156334
  H       5.997460      1.661879      1.631683
  H       7.134753      1.603950      0.253298
  H       7.710814      1.255405      1.909229
  H       5.767764     -1.579279     -0.213025
  H       5.641603      0.122626     -0.720556
  H       4.181002     -1.237503      1.618591
  H       4.051753      0.501939      1.264424
  H       2.449934      1.135964     -0.239263
  H       3.563125      0.652688     -1.548098
  H       1.378771      0.677123     -2.480903
  H       1.879728     -1.027759     -2.335245
  H      -0.908657     -0.100659     -2.489200
  H      -0.358943     -1.790671     -2.260161
  H      -1.507645     -1.909747     -0.098477
  H      -2.570531     -1.676507     -1.497949
  H      -5.000807     -0.891887      2.742224
  H      -5.182915     -2.086020      1.307736
  H      -5.468138      0.383899      0.269042
  H      -6.955853     -0.571420      0.394117
  H      -7.735265      2.623379      1.888502
  H      -6.670502      2.422785      0.466622
  H      -8.200354      1.503565      0.575260
37
Coordinates from ORCA-job TEGDME_anion_cpcm_200_default E -770.229302504000
  C       6.798697      1.187798      1.288013
  O       6.601961     -0.216546      1.117616
  C       5.578683     -0.526884      0.170786
  C       4.191325     -0.489010      0.813972
  O       3.172664     -0.826250     -0.127484
  C       2.741028      0.281122     -0.924380
  C       1.604564     -0.165023     -1.808557
  O       0.464392     -0.456663     -1.015505
  C      -0.639759     -0.918570     -1.806242
  C      -1.844966     -1.197756     -0.905455
  O      -2.382183     -0.099283     -0.294889
  C      -5.397694     -1.121042      1.792561
  C      -6.133264     -0.091993      1.028268
  O      -6.612360      0.917398      1.918411
  C      -7.284587      1.957768      1.216385
  H       5.903845      1.686828      1.684218
  H       7.077133      1.662094      0.335376
  H       7.616444      1.309823      2.002860
  H       5.779516     -1.542655     -0.189419
  H       5.632260      0.160020     -0.687882
  H       4.144945     -1.240176      1.611049
  H       3.991054      0.497505      1.258861
  H       2.413720      1.107123     -0.271942
  H       3.556133      0.651104     -1.565232
  H       1.381889      0.642844     -2.527368
  H       1.910532     -1.054369     -2.387725
  H      -0.898473     -0.146083     -2.553760
  H      -0.340370     -1.836397     -2.347814
  H      -1.492414     -1.990994     -0.190092
  H      -2.558076     -1.742730     -1.583821
  H      -4.959182     -0.875786      2.753326
  H      -5.173491     -2.073502      1.326463
  H      -5.477030      0.379322      0.265199
  H      -6.975526     -0.541023      0.469999
  H      -7.615722      2.690555      1.956326
  H      -6.614320      2.450064      0.494893
  H      -8.161370      1.571369      0.674072
37
Coordinates from ORCA-job TEGDME_anion_cpcm_200_default E -770.229309739741
  C       6.839824      1.177115      1.240757
  O       6.636723     -0.228032      1.083384
  C       5.596068     -0.542101      0.157078
  C       4.219975     -0.495314      0.823423
  O       3.183425     -0.824079     -0.102018
  C       2.739795      0.292215     -0.879210
  C       1.609066     -0.149046     -1.772432
  O       0.467947     -0.459470     -0.987596
  C      -0.629942     -0.914622     -1.790937
  C      -1.846324     -1.195606     -0.906746
  O      -2.394047     -0.097589     -0.303114
  C      -5.421253     -1.110330      1.793235
  C      -6.156026     -0.085694      1.023247
  O      -6.668159      0.909614      1.910592
  C      -7.341898      1.944531      1.200635
  H       5.952941      1.681385      1.647990
  H       7.103957      1.643828      0.280366
  H       7.669511      1.301847      1.941148
  H       5.787223     -1.561351     -0.198610
  H       5.637267      0.137575     -0.707917
  H       4.181789     -1.247098      1.620332
  H       4.033489      0.491672      1.273110
  H       2.402971      1.102592     -0.212195
  H       3.551043      0.682925     -1.512566
  H       1.382675      0.667103     -2.480714
  H       1.922993     -1.027491     -2.363857
  H      -0.879689     -0.138815     -2.537955
  H      -0.328240     -1.830884     -2.333934
  H      -1.508773     -1.990864     -0.187063
  H      -2.548915     -1.737927     -1.598403
  H      -4.977003     -0.858884      2.750286
  H      -5.185077     -2.059460      1.324952
  H      -5.489998      0.400307      0.277781
  H      -6.979823     -0.543109      0.444424
  H      -7.701997      2.664800      1.939290
  H      -6.662951      2.453471      0.499073
  H      -8.198564      1.546786      0.635253
37
Coordinates from ORCA-job TEGDME_anion_cpcm_200_default E -770.229331546927
  C       6.857413      1.150720      1.247897
  O       6.656594     -0.249244      1.047405
  C       5.610062     -0.536861      0.119091
  C       4.239077     -0.515354      0.797509
  O       3.195473     -0.829339     -0.124680
  C       2.750347      0.296368     -0.887473
  C       1.599060     -0.128347     -1.762261
  O       0.467945     -0.429355     -0.959547
  C      -0.641417     -0.887266     -1.745006
  C      -1.847246     -1.158446     -0.843846
  O      -2.383739     -0.054821     -0.240785
  C      -5.425287     -1.105942      1.808489
  C      -6.165154     -0.103241      1.014232
  O      -6.683600      0.909594      1.877561
  C      -7.363523      1.923444      1.144153
  H       5.974595      1.638281      1.683366
  H       7.107157      1.649579      0.299881
  H       7.696233      1.255309      1.940680
  H       5.800841     -1.543931     -0.270026
  H       5.643796      0.170445     -0.723655
  H       4.213689     -1.286897      1.575770
  H       4.050154      0.459100      1.273099
  H       2.435483      1.107142     -0.210224
  H       3.553879      0.680867     -1.534193
  H       1.369512      0.692639     -2.463885
  H       1.893384     -1.008262     -2.361637
  H      -0.898783     -0.116173     -2.494450
  H      -0.349189     -1.808379     -2.284967
  H      -1.502464     -1.949792     -0.123033
  H      -2.560427     -1.702948     -1.522741
  H      -4.995484     -0.835696      2.766805
  H      -5.177908     -2.061231      1.358877
  H      -5.500630      0.369609      0.259037
  H      -6.985627     -0.578717      0.445377
  H      -7.727542      2.659177      1.865458
  H      -6.688277      2.420018      0.430111
  H      -8.218397      1.507947      0.588696
37
Coordinates from ORCA-job TEGDME_anion_cpcm_200_default E -770.229363939560
  C       6.870719      1.125168      1.255013
  O       6.679029     -0.267623      1.002422
  C       5.626312     -0.528029      0.072963
  C       4.262275     -0.544472      0.765707
  O       3.210489     -0.838854     -0.153173
  C       2.757713      0.301721     -0.889228
  C       1.587155     -0.103361     -1.747769
  O       0.469147     -0.407789     -0.927980
  C      -0.651675     -0.865988     -1.696730
  C      -1.846252     -1.129343     -0.778351
  O      -2.371024     -0.020999     -0.174018
  C      -5.427975     -1.093425      1.828648
  C      -6.172484     -0.117042      1.005673
  O      -6.703641      0.912737      1.841042
  C      -7.386551      1.903654      1.079948
  H       5.990237      1.587254      1.721811
  H       7.102740      1.663128      0.324030
  H       7.718559      1.209953      1.939502
  H       5.821270     -1.517706     -0.356590
  H       5.646998      0.212071     -0.741456
  H       4.254547     -1.342465      1.517175
  H       4.068800      0.411097      1.276792
  H       2.461655      1.103598     -0.193149
  H       3.550525      0.691451     -1.545866
  H       1.349652      0.728154     -2.434082
  H       1.864670     -0.977329     -2.363611
  H      -0.917330     -0.097239     -2.445634
  H      -0.368704     -1.789996     -2.236721
  H      -1.493203     -1.917664     -0.058202
  H      -2.570038     -1.675575     -1.444392
  H      -5.011954     -0.798532      2.785444
  H      -5.170929     -2.057726      1.405162
  H      -5.508081      0.343097      0.242819
  H      -6.986119     -0.613272      0.445110
  H      -7.759968      2.653968      1.781131
  H      -6.711057      2.388118      0.357880
  H      -8.235506      1.469259      0.529768
37
Coordinates from ORCA-job TEGDME_anion_cpcm_200_default E -770.229404996037
  C       6.850772      1.127167      1.277632
  O       6.693414     -0.257520      0.964171
  C       5.642382     -0.503403      0.028615
  C       4.284160     -0.583352      0.728494
  O       3.230727     -0.860616     -0.193390
  C       2.757742      0.297563     -0.889018
  C       1.577057     -0.093005     -1.741186
  O       0.474226     -0.425878     -0.911115
  C      -0.655991     -0.879012     -1.669748
  C      -1.838804     -1.143899     -0.735205
  O      -2.350917     -0.035765     -0.119834
  C      -5.430814     -1.074196      1.843412
  C      -6.173826     -0.112749      1.000701
  O      -6.710807      0.929020      1.818877
  C      -7.385615      1.911716      1.039886
  H       5.963203      1.544366      1.772171
  H       7.060341      1.712153      0.370027
  H       7.702328      1.203552      1.958558
  H       5.859640     -1.468095     -0.444539
  H       5.640646      0.272022     -0.752576
  H       4.300966     -1.413778      1.443856
  H       4.073650      0.343699      1.283675
  H       2.465612      1.075178     -0.164447
  H       3.537359      0.714389     -1.544776
  H       1.322811      0.754736     -2.400804
  H       1.850477     -0.948641     -2.383609
  H      -0.931163     -0.105369     -2.409559
  H      -0.378974     -1.799283     -2.219256
  H      -1.474721     -1.934242     -0.023420
  H      -2.573106     -1.688572     -1.390682
  H      -5.016428     -0.758867      2.793762
  H      -5.175416     -2.049015      1.446719
  H      -5.508509      0.337504      0.233602
  H      -6.984856     -0.617868      0.445230
  H      -7.763610      2.670938      1.728857
  H      -6.703003      2.386103      0.318325
  H      -8.230956      1.473018      0.487681
37
Coordinates from ORCA-job TEGDME_anion_cpcm_200_default E -770.229439389986
  C       6.855766      1.099438      1.291749
  O       6.716382     -0.270259      0.910990
  C       5.656833     -0.487038     -0.022111
  C       4.308107     -0.618435      0.688481
  O       3.247302     -0.875190     -0.230765
  C       2.765619      0.297975     -0.894650
  C       1.563260     -0.071141     -1.725430
  O       0.475497     -0.404041     -0.875994
  C      -0.672444     -0.842991     -1.615518
  C      -1.839888     -1.103475     -0.661150
  O      -2.330063      0.005369     -0.029309
  C      -5.439224     -1.065079      1.877928
  C      -6.179848     -0.136370      0.997832
  O      -6.711651      0.939206      1.773125
  C      -7.388531      1.888990      0.956357
  H       5.972977      1.473406      1.827749
  H       7.032623      1.733899      0.410840
  H       7.722029      1.157369      1.955734
  H       5.881286     -1.425592     -0.542257
  H       5.635737      0.324021     -0.765686
  H       4.346357     -1.477727      1.367927
  H       4.089011      0.281177      1.284253
  H       2.495423      1.064637     -0.150175
  H       3.532373      0.721224     -1.561130
  H       1.302472      0.786490     -2.369566
  H       1.814985     -0.921487     -2.383696
  H      -0.955315     -0.062457     -2.345347
  H      -0.413761     -1.762180     -2.175616
  H      -1.471110     -1.902082      0.039133
  H      -2.591236     -1.636554     -1.306914
  H      -5.037748     -0.718199      2.823173
  H      -5.168300     -2.048334      1.512080
  H      -5.513569      0.279229      0.211814
  H      -6.993252     -0.661429      0.464187
  H      -7.761898      2.677791      1.613970
  H      -6.708797      2.331013      0.211688
  H      -8.237401      1.428827      0.427390
37
Coordinates from ORCA-job TEGDME_anion_cpcm_200_default E -770.229429035180
  C       6.765780      1.160129      1.346207
  O       6.714833     -0.200983      0.914809
  C       5.674724     -0.450303     -0.031967
  C       4.325755     -0.667246      0.655830
  O       3.285733     -0.930636     -0.286392
  C       2.774286      0.248398     -0.917003
  C       1.575856     -0.122884     -1.751685
  O       0.498795     -0.487085     -0.901581
  C      -0.674842     -0.857617     -1.638647
  C      -1.828867     -1.133663     -0.670997
  O      -2.268716     -0.044393      0.030437
  C      -5.454545     -1.052836      1.909076
  C      -6.178934     -0.122707      1.021131
  O      -6.666923      0.980299      1.783995
  C      -7.337051      1.928105      0.957476
  H       5.866004      1.453933      1.903413
  H       6.890338      1.836302      0.487897
  H       7.632698      1.251511      2.005544
  H       5.955752     -1.362440     -0.571240
  H       5.618550      0.374629     -0.758209
  H       4.387826     -1.549168      1.303734
  H       4.060540      0.199447      1.280509
  H       2.485100      0.984937     -0.149827
  H       3.530015      0.711255     -1.569183
  H       1.299492      0.744231     -2.376455
  H       1.834558     -0.954557     -2.430560
  H      -0.951888     -0.033550     -2.321165
  H      -0.452364     -1.752504     -2.250921
  H      -1.475026     -1.980008     -0.021707
  H      -2.610220     -1.609273     -1.326585
  H      -5.013585     -0.686549      2.831277
  H      -5.187174     -2.044166      1.558349
  H      -5.515554      0.253005      0.212293
  H      -7.016807     -0.633976      0.510429
  H      -7.677402      2.739539      1.605515
  H      -6.660148      2.334662      0.190718
  H      -8.206589      1.476162      0.456571
37
Coordinates from ORCA-job TEGDME_anion_cpcm_200_default E -770.229502205170
  C       6.829884      1.104616      1.323692
  O       6.718444     -0.259277      0.913310
  C       5.667148     -0.477036     -0.028903
  C       4.314996     -0.637865      0.667977
  O       3.265155     -0.895116     -0.264519
  C       2.772987      0.281590     -0.913996
  C       1.567460     -0.084908     -1.740848
  O       0.486508     -0.425980     -0.886377
  C      -0.680855     -0.820037     -1.620971
  C      -1.838070     -1.089519     -0.656284
  O      -2.300199      0.007482      0.017083
  C      -5.441743     -1.053640      1.922591
  C      -6.182202     -0.147875      1.021114
  O      -6.686568      0.961404      1.765268
  C      -7.371104      1.885797      0.925179
  H       5.939982      1.448837      1.867883
  H       6.992677      1.761100      0.456358
  H       7.695016      1.166197      1.988784
  H       5.909704     -1.404144     -0.561453
  H       5.638818      0.343863     -0.761458
  H       4.357118     -1.506288      1.335434
  H       4.077426      0.250404      1.273326
  H       2.499303      1.037737     -0.160133
  H       3.534265      0.718136     -1.578055
  H       1.301631      0.777293     -2.377109
  H       1.815987     -0.928783     -2.408579
  H      -0.959950     -0.011722     -2.321595
  H      -0.448906     -1.725406     -2.214062
  H      -1.475237     -1.916278      0.013855
  H      -2.607453     -1.590202     -1.307074
  H      -5.029974     -0.677715      2.853058
  H      -5.166242     -2.044692      1.579261
  H      -5.524295      0.225301      0.206734
  H      -7.012195     -0.680328      0.519383
  H      -7.723576      2.702834      1.559549
  H      -6.701761      2.291114      0.150839
  H      -8.234179      1.413107      0.431826
37
Coordinates from ORCA-job TEGDME_anion_cpcm_200_default E -770.229510205594
  C       6.827315      1.103029      1.325932
  O       6.710188     -0.263212      0.925156
  C       5.661166     -0.482410     -0.019183
  C       4.306006     -0.631110      0.674240
  O       3.259325     -0.891532     -0.261000
  C       2.768554      0.283033     -0.915071
  C       1.566321     -0.086180     -1.745595
  O       0.482744     -0.426925     -0.894391
  C      -0.684487     -0.815390     -1.632539
  C      -1.844113     -1.084796     -0.670876
  O      -2.304967      0.011277      0.004716
  C      -5.427979     -1.053583      1.931150
  C      -6.172315     -0.152383      1.028036
  O      -6.674455      0.960455      1.768650
  C      -7.360415      1.881892      0.926430
  H       5.935785      1.456836      1.861221
  H       7.000076      1.751984      0.454854
  H       7.688188      1.164413      1.996516
  H       5.900544     -1.414604     -0.544209
  H       5.639150      0.333214     -0.757982
  H       4.341799     -1.493802      1.349526
  H       4.070072      0.263566      1.270606
  H       2.491375      1.040890     -0.164241
  H       3.531975      0.718483     -1.577583
  H       1.302112      0.774997     -2.383914
  H       1.818010     -0.930733     -2.411286
  H      -0.959304     -0.004191     -2.331449
  H      -0.454496     -1.719822     -2.227874
  H      -1.483611     -1.914154     -0.002670
  H      -2.613608     -1.581852     -1.324193
  H      -5.015321     -0.672757      2.858937
  H      -5.156458     -2.047236      1.593197
  H      -5.517108      0.217199      0.209922
  H      -7.003732     -0.687392      0.531467
  H      -7.711714      2.701105      1.558601
  H      -6.692366      2.284437      0.149595
  H      -8.224258      1.407253      0.436391
37
Coordinates from ORCA-job TEGDME_anion_cpcm_200_default E -770.229516289308
  C       6.826994      1.094125      1.333116
  O       6.707429     -0.270237      0.926690
  C       5.659000     -0.483590     -0.019578
  C       4.302536     -0.629587      0.671699
  O       3.257868     -0.889432     -0.266032
  C       2.764321      0.286313     -0.915570
  C       1.562816     -0.082073     -1.747677
  O       0.480129     -0.428874     -0.897728
  C      -0.689767     -0.807265     -1.637311
  C      -1.849725     -1.077228     -0.676182
  O      -2.306980      0.017212      0.004902
  C      -5.416133     -1.047305      1.950872
  C      -6.166953     -0.160971      1.038270
  O      -6.663511      0.964341      1.763837
  C      -7.351577      1.874195      0.910612
  H       5.935256      1.447974      1.867968
  H       7.003069      1.746280      0.465090
  H       7.686622      1.150834      2.005680
  H       5.895660     -1.415378     -0.546511
  H       5.640500      0.333731     -0.756760
  H       4.336260     -1.491316      1.348411
  H       4.066543      0.266190      1.266215
  H       2.484935      1.040477     -0.161907
  H       3.526740      0.726387     -1.576358
  H       1.296909      0.781662     -2.381802
  H       1.816191     -0.922740     -2.417579
  H      -0.960660      0.009251     -2.331351
  H      -0.465169     -1.709326     -2.238366
  H      -1.491287     -1.910744     -0.012298
  H      -2.621417     -1.568456     -1.331113
  H      -5.000489     -0.650947      2.870660
  H      -5.143793     -2.044894      1.626016
  H      -5.517277      0.194416      0.209592
  H      -7.002143     -0.703600      0.556464
  H      -7.700155      2.702325      1.532560
  H      -6.685565      2.265196      0.126291
  H      -8.217177      1.393054      0.430266
37
Coordinates from ORCA-job TEGDME_anion_cpcm_200_default E -770.229524491090
  C       6.825730      1.072107      1.349518
  O       6.705116     -0.284738      0.919042
  C       5.655753     -0.481090     -0.029705
  C       4.298948     -0.633919      0.659470
  O       3.255928     -0.887842     -0.281649
  C       2.760567      0.292089     -0.921868
  C       1.554052     -0.069674     -1.749803
  O       0.475247     -0.419759     -0.896314
  C      -0.701724     -0.783799     -1.632020
  C      -1.857979     -1.053201     -0.666315
  O      -2.304222      0.039130      0.025730
  C      -5.397622     -1.036358      1.987673
  C      -6.159553     -0.181644      1.054094
  O      -6.637711      0.973727      1.743406
  C      -7.333239      1.855339      0.866934
  H       5.935574      1.416252      1.893211
  H       6.999285      1.739906      0.492935
  H       7.687331      1.116825      2.020455
  H       5.889199     -1.405753     -0.570433
  H       5.639291      0.347109     -0.754814
  H       4.333757     -1.500606      1.329827
  H       4.060970      0.256978      1.260359
  H       2.485994      1.042469     -0.162730
  H       3.520036      0.734821     -1.584422
  H       1.286473      0.798471     -2.377140
  H       1.802612     -0.906482     -2.426298
  H      -0.969929      0.039951     -2.318387
  H      -0.487789     -1.682929     -2.241405
  H      -1.501026     -1.893882     -0.010926
  H      -2.636974     -1.533894     -1.320213
  H      -4.982977     -0.611280      2.894842
  H      -5.120085     -2.040608      1.689182
  H      -5.522159      0.136987      0.201327
  H      -7.005860     -0.737540      0.607815
  H      -7.669068      2.707281      1.463185
  H      -6.676275      2.214093      0.059972
  H      -8.207672      1.361461      0.416551
37
Coordinates from ORCA-job TEGDME_anion_cpcm_200_default E -770.229521617985
  C       6.825850      1.001781      1.389974
  O       6.698351     -0.331529      0.893317
  C       5.644244     -0.477919     -0.058662
  C       4.287104     -0.645155      0.626776
  O       3.246740     -0.879650     -0.322064
  C       2.746996      0.313317     -0.933162
  C       1.527917     -0.027851     -1.751943
  O       0.458988     -0.390375     -0.891284
  C      -0.736225     -0.712739     -1.617441
  C      -1.883999     -0.979351     -0.640848
  O      -2.300424      0.107521      0.079154
  C      -5.342395     -0.996366      2.096041
  C      -6.135026     -0.239566      1.104589
  O      -6.566924      0.994444      1.676780
  C      -7.281616      1.787885      0.733894
  H       5.941902      1.319864      1.958906
  H       6.992724      1.711819      0.566629
  H       7.694085      1.011363      2.053737
  H       5.864755     -1.382812     -0.636919
  H       5.634871      0.379016     -0.750086
  H       4.323674     -1.524964      1.279927
  H       4.047136      0.232866      1.245125
  H       2.484590      1.050397     -0.157058
  H       3.498936      0.766014     -1.598017
  H       1.256379      0.854313     -2.357541
  H       1.764111     -0.851218     -2.448977
  H      -0.994260      0.130887     -2.282785
  H      -0.552207     -1.603205     -2.249252
  H      -1.533580     -1.838879     -0.007589
  H      -2.681895     -1.430719     -1.292224
  H      -4.931403     -0.487420      2.960319
  H      -5.048326     -2.016057      1.877392
  H      -5.532013     -0.032742      0.194498
  H      -7.008156     -0.827011      0.761510
  H      -7.586857      2.702798      1.247497
  H      -6.647868      2.049430     -0.126933
  H      -8.176178      1.261813      0.367806
37
Coordinates from ORCA-job TEGDME_anion_cpcm_200_default E -770.229480211046
  C       6.853718      0.999574      1.353318
  O       6.714648     -0.339187      0.875156
  C       5.644873     -0.493731     -0.057357
  C       4.295797     -0.639531      0.650312
  O       3.240954     -0.869537     -0.282899
  C       2.732475      0.329439     -0.874199
  C       1.535122     -0.010029     -1.725494
  O       0.456818     -0.411823     -0.893398
  C      -0.716685     -0.748712     -1.648034
  C      -1.888003     -1.010690     -0.696377
  O      -2.339564      0.087798     -0.013136
  C      -5.336045     -0.968710      2.093874
  C      -6.142200     -0.218572      1.108563
  O      -6.615769      0.991672      1.698775
  C      -7.329494      1.787810      0.755485
  H       5.978307      1.329094      1.928630
  H       7.015142      1.698518      0.519521
  H       7.729701      1.013239      2.006817
  H       5.848232     -1.411135     -0.621810
  H       5.632278      0.349992     -0.764802
  H       4.335041     -1.512228      1.313040
  H       4.074246      0.245450      1.265072
  H       2.442586      1.041227     -0.084675
  H       3.488902      0.812904     -1.511957
  H       1.259416      0.883516     -2.311881
  H       1.797711     -0.810371     -2.439165
  H      -0.963213      0.084850     -2.329224
  H      -0.509647     -1.644612     -2.265183
  H      -1.548076     -1.850620     -0.034344
  H      -2.661539     -1.485464     -1.360071
  H      -4.889312     -0.448049      2.934346
  H      -5.050482     -1.992988      1.882709
  H      -5.538475      0.022502      0.208290
  H      -6.995809     -0.824496      0.751136
  H      -7.676077      2.677318      1.286950
  H      -6.679267      2.091265     -0.078343
  H      -8.196310      1.244321      0.351443
37
Coordinates from ORCA-job TEGDME_anion_cpcm_200_default E -770.229533188048
  C       6.820885      1.046665      1.373956
  O       6.706899     -0.295513      0.898403
  C       5.653084     -0.467169     -0.049857
  C       4.299055     -0.642932      0.640436
  O       3.255508     -0.887803     -0.302119
  C       2.751724      0.299528     -0.921712
  C       1.543039     -0.054373     -1.750123
  O       0.468966     -0.420477     -0.897015
  C      -0.711155     -0.775757     -1.631798
  C      -1.867511     -1.039436     -0.663531
  O      -2.306970      0.055476      0.029506
  C      -5.374854     -1.011821      2.033630
  C      -6.147342     -0.194314      1.075478
  O      -6.617019      0.987916      1.723735
  C      -7.315768      1.837374      0.818083
  H       5.932460      1.365661      1.935432
  H       6.983853      1.744731      0.539680
  H       7.687079      1.074787      2.039907
  H       5.884850     -1.376373     -0.616847
  H       5.631891      0.380751     -0.751678
  H       4.344061     -1.520869      1.295447
  H       4.055483      0.234425      1.258691
  H       2.476944      1.036582     -0.149762
  H       3.505865      0.756604     -1.580638
  H       1.269936      0.822618     -2.362486
  H       1.791391     -0.879855     -2.440298
  H      -0.975245      0.050803     -2.316080
  H      -0.503703     -1.675059     -2.243250
  H      -1.514614     -1.882006     -0.009080
  H      -2.649845     -1.515745     -1.316560
  H      -4.950091     -0.552029      2.919036
  H      -5.105754     -2.029484      1.775093
  H      -5.520965      0.089408      0.203020
  H      -7.000055     -0.766271      0.663144
  H      -7.651362      2.708668      1.385788
  H      -6.660346      2.168381     -0.001717
  H      -8.190375      1.326910      0.387175
37
Coordinates from ORCA-job TEGDME_anion_cpcm_200_default E -770.229537442506
  C       6.820804      1.030785      1.381418
  O       6.699955     -0.309157      0.901091
  C       5.646345     -0.472114     -0.048795
  C       4.290332     -0.640212      0.638818
  O       3.248923     -0.883734     -0.306623
  C       2.749265      0.303640     -0.929081
  C       1.536463     -0.047096     -1.752753
  O       0.463082     -0.406714     -0.896374
  C      -0.723556     -0.746361     -1.628278
  C      -1.876974     -1.013048     -0.658297
  O      -2.306446      0.076433      0.049244
  C      -5.360691     -1.012306      2.058711
  C      -6.140197     -0.216160      1.088303
  O      -6.586598      0.990708      1.706166
  C      -7.291761      1.819462      0.786706
  H       5.934290      1.352085      1.944577
  H       6.986338      1.731098      0.549498
  H       7.687631      1.052389      2.046743
  H       5.872655     -1.381749     -0.617336
  H       5.631475      0.377365     -0.749089
  H       4.329953     -1.516674      1.296182
  H       4.048166      0.240119      1.253274
  H       2.480471      1.045376     -0.159509
  H       3.503823      0.753848     -1.592408
  H       1.265747      0.829549     -2.366708
  H       1.779462     -0.875198     -2.441850
  H      -0.984655      0.088898     -2.303176
  H      -0.526387     -1.641028     -2.249939
  H      -1.526177     -1.865299     -0.015036
  H      -2.665827     -1.476151     -1.312903
  H      -4.939879     -0.534855      2.936265
  H      -5.082212     -2.030473      1.813425
  H      -5.523998      0.033055      0.197724
  H      -7.004854     -0.791714      0.706294
  H      -7.608843      2.711546      1.332348
  H      -6.647427      2.118393     -0.054011
  H      -8.178696      1.305295      0.386465
37
Coordinates from ORCA-job TEGDME_anion_cpcm_200_default E -770.229540634826
  C       6.811258      1.039150      1.389094
  O       6.696100     -0.300569      0.906745
  C       5.645226     -0.465908     -0.045748
  C       4.288117     -0.639057      0.638568
  O       3.249593     -0.885920     -0.309030
  C       2.750342      0.299454     -0.935705
  C       1.538588     -0.054402     -1.759659
  O       0.464818     -0.412217     -0.902984
  C      -0.720064     -0.758842     -1.634379
  C      -1.873067     -1.024724     -0.663494
  O      -2.306533      0.067024      0.038314
  C      -5.361851     -1.015250      2.050319
  C      -6.139477     -0.209103      1.086755
  O      -6.583805      0.993052      1.715276
  C      -7.288215      1.830680      0.803221
  H       5.922565      1.356551      1.951001
  H       6.975984      1.741153      0.558446
  H       7.676731      1.062893      2.056121
  H       5.875699     -1.374341     -0.614528
  H       5.629483      0.384173     -0.745266
  H       4.329454     -1.515637      1.295686
  H       4.041420      0.240056      1.252982
  H       2.480364      1.043288     -0.168596
  H       3.505548      0.748023     -1.599373
  H       1.267779      0.820239     -2.376406
  H       1.782699     -0.884416     -2.446017
  H      -0.983677      0.072524     -2.313054
  H      -0.519223     -1.655522     -2.251951
  H      -1.519611     -1.872299     -0.015660
  H      -2.660121     -1.493971     -1.315836
  H      -4.935703     -0.545748      2.929716
  H      -5.088428     -2.033085      1.797716
  H      -5.523035      0.046753      0.198305
  H      -7.005302     -0.779605      0.699935
  H      -7.603433      2.718606      1.356654
  H      -6.643918      2.135547     -0.035364
  H      -8.176306      1.321451      0.399281
37
Coordinates from ORCA-job TEGDME_anion_cpcm_200_default E -770.229547448856
  C       6.782660      1.051833      1.416536
  O       6.683268     -0.283707      0.919317
  C       5.639458     -0.449012     -0.040814
  C       4.279565     -0.639280      0.633665
  O       3.249304     -0.892123     -0.321058
  C       2.750581      0.289905     -0.954578
  C       1.539716     -0.068674     -1.777959
  O       0.465532     -0.422530     -0.920110
  C      -0.717962     -0.776590     -1.650054
  C      -1.869824     -1.041103     -0.677058
  O      -2.306133      0.053314      0.019165
  C      -5.352762     -1.016841      2.048669
  C      -6.131316     -0.201899      1.093299
  O      -6.556558      1.004407      1.727059
  C      -7.264126      1.848566      0.823439
  H       5.888347      1.354144      1.977798
  H       6.944075      1.764400      0.594277
  H       7.644904      1.077070      2.087695
  H       5.880312     -1.350712     -0.615971
  H       5.621462      0.407067     -0.732894
  H       4.326110     -1.518615      1.286758
  H       4.019840      0.233990      1.251086
  H       2.479655      1.037562     -0.191587
  H       3.506372      0.735232     -1.619699
  H       1.269030      0.802721     -2.399316
  H       1.784685     -0.902100     -2.459790
  H      -0.984498      0.050419     -2.332799
  H      -0.513792     -1.675595     -2.263145
  H      -1.513406     -1.883860     -0.024861
  H      -2.655901     -1.516275     -1.326118
  H      -4.912538     -0.553268      2.924429
  H      -5.093348     -2.037729      1.793083
  H      -5.522023      0.047759      0.198394
  H      -7.007375     -0.762901      0.715809
  H      -7.563927      2.739375      1.380751
  H      -6.627348      2.147139     -0.023052
  H      -8.162039      1.347909      0.430719
37
Coordinates from ORCA-job TEGDME_anion_cpcm_200_default E -770.229557768042
  C       6.726998      1.066982      1.472790
  O       6.658002     -0.256203      0.938665
  C       5.626623     -0.415172     -0.035655
  C       4.262870     -0.642028      0.619859
  O       3.248055     -0.903477     -0.348545
  C       2.749366      0.273884     -0.990921
  C       1.537800     -0.090722     -1.810738
  O       0.463950     -0.437255     -0.949455
  C      -0.719545     -0.798177     -1.675895
  C      -1.869174     -1.060525     -0.699364
  O      -2.306560      0.036624     -0.007694
  C      -5.329870     -1.017011      2.061397
  C      -6.112613     -0.197659      1.113186
  O      -6.491107      1.028636      1.738032
  C      -7.206322      1.873470      0.841057
  H       5.823129      1.335685      2.035746
  H       6.879393      1.804963      0.671478
  H       7.584231      1.091147      2.150386
  H       5.886546     -1.300019     -0.628481
  H       5.603203      0.456318     -0.708037
  H       4.320931     -1.529013      1.261581
  H       3.977843      0.217004      1.246197
  H       2.479411      1.027509     -0.233532
  H       3.504683      0.713653     -1.660166
  H       1.267232      0.775824     -2.438889
  H       1.781991     -0.929663     -2.486014
  H      -0.989365      0.024367     -2.362650
  H      -0.513733     -1.699842     -2.284524
  H      -1.509865     -1.899099     -0.043661
  H      -2.655568     -1.540395     -1.344366
  H      -4.861803     -0.553645      2.922779
  H      -5.097960     -2.046315      1.812724
  H      -5.521872      0.022308      0.198508
  H      -7.012280     -0.742323      0.768568
  H      -7.468912      2.780096      1.391575
  H      -6.588873      2.142914     -0.029153
  H      -8.126835      1.387158      0.484298
37
Coordinates from ORCA-job TEGDME_anion_cpcm_200_default E -770.229566732803
  C       6.696392      1.063212      1.509918
  O       6.648674     -0.244072      0.935729
  C       5.622040     -0.388929     -0.045738
  C       4.259707     -0.651649      0.599352
  O       3.251604     -0.911461     -0.376302
  C       2.748729      0.267482     -1.012679
  C       1.531249     -0.095133     -1.824453
  O       0.462168     -0.440304     -0.956703
  C      -0.725554     -0.799991     -1.676840
  C      -1.871225     -1.060530     -0.695304
  O      -2.304296      0.037005     -0.001650
  C      -5.317986     -1.010852      2.085285
  C      -6.101999     -0.202456      1.128686
  O      -6.451236      1.044955      1.728195
  C      -7.168947      1.877624      0.821924
  H       5.788358      1.299914      2.080427
  H       6.836671      1.827606      0.731465
  H       7.553268      1.080622      2.188166
  H       5.894726     -1.253640     -0.662182
  H       5.589760      0.500789     -0.693391
  H       4.330934     -1.550390      1.223099
  H       3.957933      0.189758      1.241761
  H       2.484717      1.019866     -0.251932
  H       3.499180      0.708021     -1.686816
  H       1.257969      0.771768     -2.450972
  H       1.770044     -0.934318     -2.501398
  H      -0.997632      0.022591     -2.362722
  H      -0.524130     -1.702219     -2.286080
  H      -1.510668     -1.899969     -0.041275
  H      -2.660891     -1.539076     -1.337327
  H      -4.834347     -0.535273      2.931171
  H      -5.104318     -2.048820      1.857148
  H      -5.521859     -0.014914      0.200145
  H      -7.015366     -0.740885      0.811169
  H      -7.408979      2.801741      1.353331
  H      -6.562379      2.115682     -0.064971
  H      -8.102310      1.396243      0.492851
37
Coordinates from ORCA-job TEGDME_anion_cpcm_200_default E -770.229584540446
  C       6.667502      1.053951      1.544473
  O       6.647742     -0.226908      0.911884
  C       5.620870     -0.350882     -0.072359
  C       4.267445     -0.671575      0.564896
  O       3.260767     -0.921937     -0.414731
  C       2.746853      0.263411     -1.030452
  C       1.517082     -0.092000     -1.826160
  O       0.458829     -0.440327     -0.946506
  C      -0.736365     -0.797000     -1.655710
  C      -1.874702     -1.059417     -0.667150
  O      -2.302394      0.035282      0.033476
  C      -5.324097     -1.008540      2.117043
  C      -6.095970     -0.212150      1.140811
  O      -6.412084      1.061242      1.703100
  C      -7.117651      1.880963      0.775959
  H       5.757860      1.241741      2.130388
  H       6.783148      1.855795      0.800393
  H       7.528506      1.062092      2.217633
  H       5.910570     -1.181194     -0.727366
  H       5.567367      0.566061     -0.679331
  H       4.362982     -1.591303      1.153638
  H       3.946971      0.138053      1.238732
  H       2.495329      1.008354     -0.258072
  H       3.485985      0.710429     -1.712679
  H       1.236446      0.778240     -2.444821
  H       1.745327     -0.928102     -2.510731
  H      -1.014103      0.027894     -2.336878
  H      -0.541720     -1.697747     -2.269220
  H      -1.511143     -1.902427     -0.018633
  H      -2.668862     -1.534697     -1.306428
  H      -4.821508     -0.517672      2.942691
  H      -5.137681     -2.058101      1.920576
  H      -5.516681     -0.066267      0.203982
  H      -7.022818     -0.739492      0.844389
  H      -7.332365      2.827509      1.277966
  H      -6.513099      2.076003     -0.122945
  H      -8.064338      1.410718      0.469228
37
Coordinates from ORCA-job TEGDME_anion_cpcm_200_default E -770.229605765609
  C       6.645353      1.031739      1.572698
  O       6.643186     -0.222335      0.888163
  C       5.614481     -0.322577     -0.097110
  C       4.268321     -0.686922      0.531604
  O       3.262717     -0.923645     -0.452536
  C       2.739728      0.269800     -1.044608
  C       1.497954     -0.075775     -1.825679
  O       0.451320     -0.430141     -0.934718
  C      -0.751933     -0.783744     -1.631782
  C      -1.880568     -1.047510     -0.633602
  O      -2.302001      0.045690      0.072776
  C      -5.324737     -1.004430      2.158981
  C      -6.084915     -0.230054      1.156178
  O      -6.371927      1.070412      1.670249
  C      -7.059670      1.870036      0.712955
  H       5.736803      1.179159      2.171711
  H       6.741503      1.865213      0.861334
  H       7.510917      1.027410      2.240029
  H       5.914222     -1.122240     -0.785031
  H       5.545903      0.616720     -0.667342
  H       4.380457     -1.623733      1.089568
  H       3.935941      0.095673      1.231306
  H       2.500391      1.005413     -0.259373
  H       3.468780      0.724505     -1.732602
  H       1.209891      0.799823     -2.433247
  H       1.715365     -0.906589     -2.520349
  H      -1.036062      0.043357     -2.307857
  H      -0.564726     -1.683034     -2.249701
  H      -1.510663     -1.891710      0.010347
  H      -2.680909     -1.521407     -1.266294
  H      -4.806731     -0.491335      2.961124
  H      -5.158153     -2.063565      2.000091
  H      -5.505810     -0.131357      0.212807
  H      -7.023154     -0.749339      0.882195
  H      -7.251621      2.840492      1.177187
  H      -6.452156      2.015678     -0.193425
  H      -8.017498      1.410323      0.425041
37
Coordinates from ORCA-job TEGDME_anion_cpcm_200_default E -770.229631705199
  C       6.635633      1.003954      1.582568
  O       6.634806     -0.231538      0.864955
  C       5.601661     -0.310883     -0.117970
  C       4.259871     -0.696191      0.506922
  O       3.252661     -0.914562     -0.480003
  C       2.723728      0.289073     -1.045260
  C       1.471982     -0.043039     -1.816388
  O       0.435610     -0.408010     -0.917955
  C      -0.773710     -0.759014     -1.605682
  C      -1.892177     -1.030073     -0.599333
  O      -2.311128      0.059015      0.114813
  C      -5.330543     -1.007855      2.208362
  C      -6.071026     -0.258123      1.172474
  O      -6.328612      1.068853      1.631323
  C      -6.982704      1.847892      0.634716
  H       5.730456      1.130945      2.191404
  H       6.723004      1.856509      0.893046
  H       7.505564      0.985815      2.243984
  H       5.902708     -1.090794     -0.827640
  H       5.525894      0.642506     -0.663509
  H       4.376864     -1.645240      1.042661
  H       3.926678      0.069779      1.224326
  H       2.494445      1.012709     -0.245887
  H       3.445810      0.753240     -1.734456
  H       1.177642      0.840546     -2.409088
  H       1.680130     -0.865279     -2.524199
  H      -1.065150      0.071904     -2.274106
  H      -0.590803     -1.654296     -2.230723
  H      -1.512466     -1.874830      0.038624
  H      -2.697494     -1.503831     -1.225704
  H      -4.798008     -0.471650      2.985524
  H      -5.182624     -2.074951      2.089746
  H      -5.485996     -0.210639      0.228428
  H      -7.019709     -0.766620      0.915057
  H      -7.149631      2.842764      1.054890
  H      -6.362162      1.936607     -0.270284
  H      -7.951201      1.405309      0.355449
37
Coordinates from ORCA-job TEGDME_anion_cpcm_200_default E -770.229664115356
  C       6.614351      0.958466      1.612208
  O       6.627332     -0.236143      0.828549
  C       5.589678     -0.278108     -0.152214
  C       4.257435     -0.715483      0.458359
  O       3.249775     -0.908207     -0.533543
  C       2.709720      0.308529     -1.058888
  C       1.440976     -0.005789     -1.809483
  O       0.422073     -0.383189     -0.896379
  C      -0.798538     -0.729207     -1.566421
  C      -1.901479     -1.004229     -0.544875
  O      -2.311163      0.082045      0.178826
  C      -5.332858     -0.992226      2.275859
  C      -6.053623     -0.286080      1.196069
  O      -6.272165      1.073424      1.572747
  C      -6.896574      1.810734      0.526966
  H       5.712198      1.037428      2.233564
  H       6.682587      1.848488      0.969482
  H       7.489685      0.918388      2.265491
  H       5.898682     -1.014100     -0.904167
  H       5.496810      0.702084     -0.645108
  H       4.392686     -1.685588      0.950107
  H       3.913780      0.012413      1.209744
  H       2.498400      1.014512     -0.238956
  H       3.417405      0.787160     -1.753104
  H       1.136929      0.888235     -2.381195
  H       1.632216     -0.816649     -2.535114
  H      -1.099464      0.105773     -2.225671
  H      -0.626432     -1.621241     -2.199136
  H      -1.511154     -1.850512      0.084950
  H      -2.715800     -1.476615     -1.160517
  H      -4.782606     -0.423124      3.016332
  H      -5.216023     -2.068312      2.221556
  H      -5.467991     -0.312652      0.251420
  H      -7.016594     -0.781863      0.968783
  H      -7.031773      2.834867      0.883460
  H      -6.270180      1.822789     -0.378403
  H      -7.878301      1.383982      0.269790
37
Coordinates from ORCA-job TEGDME_anion_cpcm_200_default E -770.229745909953
  C       6.654757      0.877437      1.576208
  O       6.623278     -0.297883      0.765189
  C       5.570869     -0.290230     -0.200951
  C       4.241476     -0.730019      0.414432
  O       3.219892     -0.866541     -0.573272
  C       2.671893      0.376869     -1.021686
  C       1.383400      0.104673     -1.756899
  O       0.385904     -0.308386     -0.835497
  C      -0.842280     -0.658071     -1.488859
  C      -1.920044     -0.957520     -0.445827
  O      -2.333153      0.119282      0.291839
  C      -5.372637     -0.980018      2.365538
  C      -6.039539     -0.344463      1.208528
  O      -6.224752      1.047377      1.464695
  C      -6.772331      1.719413      0.336139
  H       5.758169      0.974384      2.203401
  H       6.753511      1.779822      0.955106
  H       7.529701      0.789927      2.225374
  H       5.859860     -1.001466     -0.983602
  H       5.481109      0.708266     -0.655968
  H       4.365665     -1.719146      0.869577
  H       3.922342     -0.023401      1.195532
  H       2.479629      1.040554     -0.162986
  H       3.366240      0.889573     -1.704868
  H       1.070667      1.025400     -2.279027
  H       1.552091     -0.673279     -2.522749
  H      -1.162982      0.182490     -2.130891
  H      -0.671140     -1.539663     -2.136553
  H      -1.500835     -1.797932      0.171527
  H      -2.739369     -1.441813     -1.044339
  H      -4.812987     -0.371898      3.067397
  H      -5.309023     -2.061343      2.408064
  H      -5.430676     -0.468862      0.287231
  H      -7.013109     -0.824594      0.994580
  H      -6.872763      2.774593      0.601758
  H      -6.110345      1.629107     -0.538990
  H      -7.762488      1.317360      0.071936
37
Coordinates from ORCA-job TEGDME_anion_cpcm_200_default E -770.229874236906
  C       6.671759      0.765636      1.547457
  O       6.594013     -0.365131      0.679464
  C       5.527614     -0.281540     -0.267687
  C       4.201989     -0.745669      0.338892
  O       3.169911     -0.805351     -0.646352
  C       2.616238      0.467537     -0.992920
  C       1.297291      0.250732     -1.694598
  O       0.332412     -0.202158     -0.757067
  C      -0.906103     -0.565654     -1.381466
  C      -1.942927     -0.898845     -0.304760
  O      -2.363114      0.166062      0.449047
  C      -5.436957     -0.953076      2.485167
  C      -6.011645     -0.416685      1.230880
  O      -6.095694      1.005603      1.309421
  C      -6.523384      1.577031      0.079454
  H       5.781448      0.866101      2.183412
  H       6.805061      1.694179      0.973165
  H       7.543674      0.610912      2.188115
  H       5.797841     -0.940778     -1.100402
  H       5.438505      0.746055     -0.652100
  H       4.317877     -1.761881      0.731867
  H       3.903344     -0.083910      1.165127
  H       2.457986      1.076567     -0.088537
  H       3.290722      1.019527     -1.665029
  H       0.975556      1.201914     -2.152179
  H       1.427509     -0.485503     -2.507301
  H      -1.259700      0.277177     -2.002011
  H      -0.735041     -1.434888     -2.045991
  H      -1.479502     -1.725562      0.296484
  H      -2.767220     -1.406286     -0.875111
  H      -4.846713     -0.310633      3.129681
  H      -5.479780     -2.022191      2.662142
  H      -5.387511     -0.700755      0.357565
  H      -7.014903     -0.839972      1.036395
  H      -6.532004      2.661489      0.212446
  H      -5.833319      1.320351     -0.739205
  H      -7.535233      1.239593     -0.192381
37
Coordinates from ORCA-job TEGDME_anion_cpcm_200_default E -770.229647624536
  C       6.495726      0.815970      1.649882
  O       6.500386     -0.268642      0.723943
  C       5.460550     -0.183151     -0.247519
  C       4.134859     -0.731683      0.291893
  O       3.141341     -0.806642     -0.730122
  C       2.591379      0.460297     -1.105772
  C       1.260378      0.234096     -1.783153
  O       0.308446     -0.193489     -0.819176
  C      -0.924442     -0.619176     -1.412787
  C      -1.911871     -1.004132     -0.296425
  O      -2.364625      0.045437      0.467403
  C      -5.477575     -1.013898      2.518782
  C      -5.997870     -0.403211      1.278385
  O      -5.741295      1.000805      1.294675
  C      -6.154184      1.631143      0.086895
  H       5.586948      0.837313      2.266597
  H       6.595434      1.780039      1.129441
  H       7.359958      0.674014      2.303870
  H       5.773416     -0.794948     -1.101129
  H       5.340662      0.857758     -0.583669
  H       4.292587     -1.754421      0.652131
  H       3.770450     -0.128689      1.136885
  H       2.450929      1.089191     -0.213825
  H       3.253839      0.997312     -1.800337
  H       0.939089      1.179704     -2.253186
  H       1.372272     -0.516723     -2.583336
  H      -1.338580      0.199238     -2.026301
  H      -0.723969     -1.480451     -2.079418
  H      -1.398690     -1.804303      0.291632
  H      -2.722859     -1.556532     -0.842198
  H      -4.748935     -0.506182      3.142489
  H      -5.732375     -2.047734      2.732871
  H      -5.537108     -0.855533      0.379768
  H      -7.087871     -0.571657      1.186102
  H      -5.885879      2.685689      0.184485
  H      -5.639538      1.203971     -0.786880
  H      -7.240984      1.549223     -0.061812
37
Coordinates from ORCA-job TEGDME_anion_cpcm_200_default E -770.229892061686
  C       6.625974      0.846405      1.566997
  O       6.605676     -0.288241      0.701456
  C       5.545206     -0.248139     -0.251285
  C       4.224807     -0.738631      0.350015
  O       3.195664     -0.835442     -0.633414
  C       2.640630      0.427698     -1.013852
  C       1.333690      0.193503     -1.730671
  O       0.359718     -0.263211     -0.802522
  C      -0.874508     -0.629575     -1.435246
  C      -1.911228     -0.995628     -0.361194
  O      -2.338438      0.053029      0.414827
  C      -5.492730     -0.988871      2.457383
  C      -6.076409     -0.382966      1.244969
  O      -6.016457      1.039534      1.348731
  C      -6.494472      1.675331      0.165519
  H       5.735411      0.899950      2.207684
  H       6.705598      1.779543      0.989876
  H       7.509787      0.744116      2.201946
  H       5.828048     -0.920883     -1.069312
  H       5.438528      0.769863     -0.656466
  H       4.371902     -1.748477      0.750291
  H       3.898975     -0.091091      1.178310
  H       2.469811      1.044322     -0.117767
  H       3.315574      0.980095     -1.684907
  H       1.013318      1.142992     -2.194260
  H       1.478130     -0.541092     -2.540984
  H      -1.242462      0.216528     -2.041323
  H      -0.693234     -1.484112     -2.115523
  H      -1.455109     -1.836199      0.221210
  H      -2.728044     -1.494605     -0.950089
  H      -4.841482     -0.426295      3.117804
  H      -5.619326     -2.053223      2.627021
  H      -5.537368     -0.711536      0.334178
  H      -7.128084     -0.702492      1.113706
  H      -6.398050      2.750927      0.332192
  H      -5.898723      1.386154     -0.712678
  H      -7.550323      1.430718     -0.021534
37
Coordinates from ORCA-job TEGDME_anion_cpcm_200_default E -770.229700497125
  C       6.763524      0.645636      1.451904
  O       6.585768     -0.484320      0.595843
  C       5.495472     -0.344803     -0.320658
  C       4.170344     -0.747649      0.322241
  O       3.112884     -0.737920     -0.637839
  C       2.565961      0.558958     -0.890479
  C       1.240375      0.399337     -1.595310
  O       0.283868     -0.109784     -0.679656
  C      -0.967400     -0.423994     -1.307511
  C      -1.997853     -0.779140     -0.239174
  O      -2.396454      0.262791      0.552737
  C      -5.504144     -0.892777      2.596144
  C      -5.989393     -0.492369      1.253232
  O      -6.089208      0.926703      1.178438
  C      -6.377472      1.365448     -0.141887
  H       5.896280      0.815194      2.105622
  H       6.949337      1.557298      0.865484
  H       7.634733      0.433942      2.077004
  H       5.715302     -1.009424     -1.163794
  H       5.440654      0.686855     -0.702149
  H       4.239405     -1.772793      0.703779
  H       3.932482     -0.072406      1.156575
  H       2.415294      1.108966      0.053502
  H       3.247228      1.146003     -1.526879
  H       0.919213      1.379348     -1.987387
  H       1.359265     -0.284904     -2.454849
  H      -1.310725      0.452872     -1.886469
  H      -0.819629     -1.267024     -2.010312
  H      -1.528329     -1.628305      0.331202
  H      -2.835470     -1.258922     -0.814499
  H      -4.961995     -0.166846      3.191960
  H      -5.580099     -1.929833      2.900478
  H      -5.290919     -0.854931      0.464830
  H      -6.965346     -0.956669      1.018820
  H      -6.396414      2.458022     -0.134762
  H      -5.603108      1.026872     -0.847733
  H      -7.353432      0.990568     -0.487366
37
Coordinates from ORCA-job TEGDME_anion_cpcm_200_default E -770.230190624257
  C       6.772316      0.708840      1.405591
  O       6.619195     -0.443528      0.577111
  C       5.516970     -0.348062     -0.325351
  C       4.201419     -0.746146      0.346571
  O       3.122887     -0.752528     -0.589137
  C       2.573529      0.543109     -0.845543
  C       1.259509      0.383694     -1.570904
  O       0.292106     -0.148639     -0.677742
  C      -0.952692     -0.448892     -1.325211
  C      -1.991931     -0.849520     -0.270620
  O      -2.398106      0.163894      0.558810
  C      -5.579216     -0.916260      2.580956
  C      -6.056709     -0.480723      1.251978
  O      -6.034474      0.944455      1.182394
  C      -6.342244      1.413640     -0.127146
  H       5.912535      0.862106      2.072264
  H       6.915786      1.613948      0.797284
  H       7.663484      0.543123      2.016381
  H       5.722648     -1.043202     -1.147408
  H       5.448903      0.669405     -0.740575
  H       4.289143     -1.766688      0.737146
  H       3.971974     -0.075730      1.187912
  H       2.410453      1.078796      0.103001
  H       3.252459      1.147186     -1.467260
  H       0.940158      1.371590     -1.945654
  H       1.393498     -0.278546     -2.443580
  H      -1.300813      0.441077     -1.878292
  H      -0.794518     -1.266668     -2.054902
  H      -1.540519     -1.723856      0.267568
  H      -2.820829     -1.305270     -0.877388
  H      -4.980811     -0.248797      3.191959
  H      -5.730377     -1.943750      2.892849
  H      -5.416502     -0.897921      0.446895
  H      -7.079635     -0.851618      1.053194
  H      -6.277905      2.503926     -0.095680
  H      -5.623858      1.028647     -0.866098
  H      -7.357834      1.118908     -0.430284
37
Coordinates from ORCA-job TEGDME_anion_cpcm_200_default E -770.230335471798
  C       6.760973      0.740994      1.390047
  O       6.604803     -0.434883      0.595716
  C       5.503086     -0.361313     -0.308679
  C       4.185438     -0.725250      0.378619
  O       3.103784     -0.751390     -0.553354
  C       2.567184      0.540264     -0.854074
  C       1.257326      0.367526     -1.583657
  O       0.282757     -0.142864     -0.686000
  C      -0.962720     -0.436732     -1.333990
  C      -1.992529     -0.874728     -0.285218
  O      -2.399486      0.108955      0.578251
  C      -5.610307     -0.961720      2.574608
  C      -6.067764     -0.483680      1.253183
  O      -5.958217      0.937419      1.195345
  C      -6.258710      1.438151     -0.103717
  H       5.901402      0.915282      2.051484
  H       6.906023      1.627533      0.755275
  H       7.652049      0.591507      2.005040
  H       5.700597     -1.086351     -1.106501
  H       5.443537      0.641842     -0.758197
  H       4.265297     -1.734389      0.799394
  H       3.964280     -0.028355      1.200434
  H       2.402630      1.106002      0.076573
  H       3.253778      1.119763     -1.490209
  H       0.943964      1.347783     -1.982726
  H       1.394551     -0.314392     -2.440564
  H      -1.321700      0.463952     -1.862530
  H      -0.801704     -1.234824     -2.084488
  H      -1.533873     -1.763350      0.222702
  H      -2.822014     -1.317016     -0.901297
  H      -4.999933     -0.329392      3.210458
  H      -5.787201     -1.993420      2.858024
  H      -5.462928     -0.933593      0.438463
  H      -7.113453     -0.788892      1.058868
  H      -6.124130      2.521693     -0.064839
  H      -5.580358      1.015602     -0.860170
  H      -7.296434      1.212266     -0.391188
37
Coordinates from ORCA-job TEGDME_anion_cpcm_200_default E -770.230397556112
  C       6.830218      0.736488      1.256044
  O       6.615062     -0.485197      0.548727
  C       5.482171     -0.439091     -0.317970
  C       4.181577     -0.711560      0.440955
  O       3.059043     -0.725856     -0.441994
  C       2.543702      0.575119     -0.738887
  C       1.248580      0.426310     -1.498328
  O       0.253851     -0.105473     -0.636133
  C      -0.992655     -0.328107     -1.309741
  C      -2.034918     -0.836891     -0.306432
  O      -2.425412      0.071017      0.642079
  C      -5.701711     -0.969620      2.607969
  C      -6.095613     -0.527273      1.255103
  O      -5.913120      0.883003      1.141225
  C      -6.142724      1.338226     -0.189184
  H       5.997157      0.980306      1.928951
  H       6.978964      1.573091      0.557527
  H       7.736183      0.602507      1.852450
  H       5.626035     -1.224095     -1.069114
  H       5.436018      0.531235     -0.835839
  H       4.235466     -1.704860      0.901763
  H       4.028921      0.027620      1.241165
  H       2.367266      1.130195      0.196108
  H       3.248476      1.155627     -1.353845
  H       0.947649      1.419048     -1.875847
  H       1.399872     -0.231602     -2.371570
  H      -1.337543      0.617810     -1.763896
  H      -0.839617     -1.064457     -2.122272
  H      -1.598963     -1.778674      0.119810
  H      -2.869273     -1.204600     -0.964434
  H      -5.101791     -0.330223      3.246520
  H      -5.928874     -1.980229      2.929034
  H      -5.490004     -1.040732      0.479384
  H      -7.148721     -0.791257      1.039866
  H      -5.957684      2.414963     -0.192726
  H      -5.458549      0.850502     -0.900018
  H      -7.179039      1.146733     -0.505367
37
Coordinates from ORCA-job TEGDME_anion_cpcm_200_default E -770.230401290927
  C       6.795428      0.826609      1.310708
  O       6.617476     -0.417993      0.630971
  C       5.498092     -0.417917     -0.255976
  C       4.190739     -0.682361      0.492807
  O       3.078423     -0.769514     -0.397990
  C       2.578766      0.501725     -0.825132
  C       1.293599      0.289654     -1.584018
  O       0.283445     -0.164540     -0.697451
  C      -0.961240     -0.389885     -1.372111
  C      -2.009168     -0.897015     -0.380044
  O      -2.390032     -0.004024      0.581874
  C      -5.663600     -1.051354      2.540552
  C      -6.109364     -0.485878      1.250212
  O      -5.933279      0.929221      1.255106
  C      -6.246432      1.499582     -0.010579
  H       5.951369      1.061644      1.972645
  H       6.923612      1.649530      0.592092
  H       7.701470      0.731977      1.914288
  H       5.666810     -1.226867     -0.976248
  H       5.452244      0.532483     -0.809189
  H       4.259670     -1.652326      0.998658
  H       4.009122      0.092270      1.253237
  H       2.399183      1.147873      0.049827
  H       3.296108      1.009926     -1.487150
  H       1.001308      1.245676     -2.052316
  H       1.454497     -0.443535     -2.394453
  H      -1.304406      0.556669     -1.829464
  H      -0.806385     -1.128919     -2.181447
  H      -1.582407     -1.852844      0.031807
  H      -2.846841     -1.245306     -1.045949
  H      -5.080456     -0.457707      3.235043
  H      -5.837747     -2.101086      2.748958
  H      -5.535797     -0.926886      0.406485
  H      -7.169072     -0.739036      1.049548
  H      -6.065464      2.574853      0.059204
  H      -5.609290      1.078565     -0.804591
  H      -7.300381      1.326739     -0.278828
37
Coordinates from ORCA-job TEGDME_anion_cpcm_200_default E -770.230524221131
  C       6.824060      0.761913      1.290130
  O       6.630488     -0.450160      0.559068
  C       5.499784     -0.407405     -0.312392
  C       4.201683     -0.716574      0.435533
  O       3.081134     -0.753225     -0.448331
  C       2.562757      0.539648     -0.775664
  C       1.265574      0.370499     -1.525844
  O       0.271504     -0.137035     -0.648839
  C      -0.978039     -0.362981     -1.315937
  C      -2.022900     -0.851947     -0.309547
  O      -2.398796      0.064494      0.634519
  C      -5.694537     -0.983357      2.584652
  C      -6.106524     -0.507288      1.248095
  O      -5.963436      0.910661      1.178192
  C      -6.214327      1.398768     -0.135646
  H       5.990573      0.973465      1.973490
  H       6.949374      1.615032      0.607217
  H       7.736904      0.635161      1.877578
  H       5.663535     -1.175993     -1.076683
  H       5.442424      0.570952     -0.813721
  H       4.277024     -1.712729      0.886664
  H       4.028140      0.013717      1.240350
  H       2.390860      1.120030      0.145382
  H       3.265483      1.101547     -1.409648
  H       0.963050      1.352129     -1.930365
  H       1.414447     -0.312267     -2.380845
  H      -1.318386      0.580005     -1.781455
  H      -0.830757     -1.110253     -2.119229
  H      -1.593922     -1.797343      0.120968
  H      -2.864579     -1.212897     -0.962708
  H      -5.113400     -0.344634      3.239983
  H      -5.888373     -2.011834      2.867624
  H      -5.489326     -0.979783      0.454415
  H      -7.152198     -0.795794      1.025657
  H      -6.060318      2.480374     -0.114842
  H      -5.522078      0.949469     -0.864655
  H      -7.246904      1.185635     -0.452079
37
Coordinates from ORCA-job TEGDME_anion_cpcm_200_default E -770.230569474797
  C       6.857493      0.726852      1.238348
  O       6.638119     -0.481827      0.509186
  C       5.492962     -0.425146     -0.342253
  C       4.205727     -0.727583      0.426711
  O       3.068921     -0.739317     -0.436804
  C       2.553674      0.563644     -0.726334
  C       1.252159      0.420030     -1.474052
  O       0.260605     -0.107290     -0.605718
  C      -0.993769     -0.310202     -1.271492
  C      -2.040223     -0.803035     -0.268610
  O      -2.404073      0.104401      0.689228
  C      -5.742796     -0.958877      2.605941
  C      -6.111682     -0.534738      1.239740
  O      -5.979147      0.881474      1.125676
  C      -6.171292      1.319288     -0.215943
  H       6.038577      0.946526      1.936716
  H       6.980070      1.579588      0.554497
  H       7.779128      0.589338      1.809482
  H       5.637203     -1.190792     -1.113468
  H       5.434979      0.556319     -0.837386
  H       4.277252     -1.729876      0.864766
  H       4.056688     -0.005186      1.243565
  H       2.388622      1.118993      0.211193
  H       3.255213      1.140461     -1.348220
  H       0.951375      1.413605     -1.849698
  H       1.393843     -0.239414     -2.348274
  H      -1.325635      0.642976     -1.721920
  H      -0.857463     -1.046693     -2.086693
  H      -1.619623     -1.758404      0.147599
  H      -2.887620     -1.146204     -0.923914
  H      -5.174987     -0.295095      3.248152
  H      -5.954095     -1.972595      2.926986
  H      -5.460201     -1.026878      0.486445
  H      -7.145613     -0.842215      0.990558
  H      -6.029176      2.402682     -0.226083
  H      -5.439946      0.852395     -0.893793
  H      -7.185268      1.082790     -0.573048
37
Coordinates from ORCA-job TEGDME_anion_cpcm_200_default E -770.230657806043
  C       6.907720      0.666033      1.162882
  O       6.642895     -0.541164      0.446648
  C       5.479153     -0.462519     -0.377434
  C       4.204802     -0.737451      0.422481
  O       3.048124     -0.715049     -0.414285
  C       2.543418      0.600818     -0.659658
  C       1.237162      0.493484     -1.405146
  O       0.244396     -0.050092     -0.548182
  C      -1.015969     -0.219242     -1.212481
  C      -2.067686     -0.710138     -0.214159
  O      -2.413773      0.187754      0.759162
  C      -5.801474     -0.925402      2.631937
  C      -6.110231     -0.582177      1.228593
  O      -6.017669      0.830825      1.050376
  C      -6.123320      1.192873     -0.323570
  H       6.110615      0.909640      1.878417
  H       7.034887      1.511640      0.471069
  H       7.838652      0.509887      1.713799
  H       5.589426     -1.231812     -1.150608
  H       5.428692      0.519113     -0.873155
  H       4.262186     -1.743397      0.854382
  H       4.094298     -0.016030      1.246153
  H       2.387375      1.127113      0.296000
  H       3.247356      1.191330     -1.265978
  H       0.944893      1.501274     -1.748208
  H       1.367909     -0.139703     -2.300169
  H      -1.331709      0.746921     -1.646196
  H      -0.896669     -0.944473     -2.040473
  H      -1.662513     -1.679223      0.185228
  H      -2.922846     -1.027790     -0.872508
  H      -5.265467     -0.218232      3.254970
  H      -6.022215     -1.919679      3.002862
  H      -5.400957     -1.085945      0.537623
  H      -7.117744     -0.938463      0.940679
  H      -6.019653      2.279215     -0.379897
  H      -5.325897      0.721784     -0.918985
  H      -7.098162      0.898277     -0.741082
37
Coordinates from ORCA-job TEGDME_anion_cpcm_200_default E -770.230687037565
  C       6.931880      0.608505      1.124008
  O       6.634984     -0.587013      0.401138
  C       5.461283     -0.480280     -0.405516
  C       4.194187     -0.742807      0.409676
  O       3.027656     -0.698579     -0.412373
  C       2.537011      0.625644     -0.640114
  C       1.219371      0.541989     -1.368432
  O       0.230062      0.008079     -0.501640
  C      -1.040225     -0.142683     -1.151400
  C      -2.087920     -0.616649     -0.141654
  O      -2.414104      0.288170      0.831919
  C      -5.842392     -0.907699      2.640903
  C      -6.091568     -0.623746      1.212250
  O      -6.041450      0.785079      0.986631
  C      -6.069577      1.093287     -0.403989
  H       6.150676      0.858635      1.854803
  H       7.062051      1.458565      0.438221
  H       7.868886      0.431497      1.658097
  H       5.547582     -1.242771     -1.188476
  H       5.420057      0.507462     -0.889999
  H       4.243441     -1.752339      0.834248
  H       4.104149     -0.025171      1.239036
  H       2.401196      1.146438      0.321698
  H       3.240432      1.211226     -1.252010
  H       0.937354      1.555878     -1.701982
  H       1.329103     -0.087819     -2.268718
  H      -1.345314      0.827230     -1.584364
  H      -0.942078     -0.871652     -1.979031
  H      -1.690398     -1.589492      0.256734
  H      -2.954099     -0.925095     -0.790286
  H      -5.341883     -0.168038      3.255409
  H      -6.060011     -1.892464      3.037371
  H      -5.328551     -1.122461      0.576900
  H      -7.068419     -1.029000      0.887022
  H      -6.006331      2.180383     -0.495491
  H      -5.215523      0.635636     -0.926884
  H      -7.001520      0.742055     -0.872618
37
Coordinates from ORCA-job TEGDME_anion_cpcm_200_default E -770.230727868675
  C       6.904999      0.625802      1.150578
  O       6.625127     -0.570354      0.422217
  C       5.458033     -0.471190     -0.394765
  C       4.185627     -0.739900      0.410115
  O       3.024921     -0.715096     -0.420490
  C       2.542146      0.604033     -0.692516
  C       1.215981      0.504147     -1.402699
  O       0.231496      0.010251     -0.507728
  C      -1.046417     -0.149779     -1.139428
  C      -2.081847     -0.606041     -0.110565
  O      -2.391824      0.312222      0.854475
  C      -5.830670     -0.945865      2.617082
  C      -6.069224     -0.624445      1.194492
  O      -6.037826      0.791332      1.008153
  C      -6.063307      1.138109     -0.372800
  H       6.116802      0.863953      1.877877
  H       7.028734      1.479613      0.468239
  H       7.841312      0.457665      1.688773
  H       5.554639     -1.234218     -1.176128
  H       5.416602      0.516036     -0.880190
  H       4.241307     -1.746111      0.841584
  H       4.079869     -0.017433      1.233619
  H       2.423180      1.162049      0.250603
  H       3.242760      1.158915     -1.335335
  H       0.938089      1.507188     -1.770793
  H       1.311380     -0.159816     -2.280015
  H      -1.355540      0.813210     -1.585517
  H      -0.958916     -0.893428     -1.955084
  H      -1.680619     -1.574806      0.295441
  H      -2.958403     -0.920576     -0.742638
  H      -5.344003     -0.221536      3.260013
  H      -6.031655     -1.946957      2.979818
  H      -5.292735     -1.092735      0.552238
  H      -7.036118     -1.035784      0.848332
  H      -6.016355      2.228108     -0.435533
  H      -5.200201      0.707587     -0.903809
  H      -6.987346      0.785850     -0.856530
37
Coordinates from ORCA-job TEGDME_anion_cpcm_200_default E -770.230758695949
  C       6.889320      0.633442      1.139644
  O       6.613545     -0.566422      0.415820
  C       5.445761     -0.473470     -0.400585
  C       4.174655     -0.740634      0.407192
  O       3.010108     -0.721669     -0.418047
  C       2.536230      0.596387     -0.712287
  C       1.201087      0.493410     -1.404390
  O       0.223963      0.022389     -0.489522
  C      -1.063371     -0.134525     -1.102149
  C      -2.083691     -0.586140     -0.056458
  O      -2.365790      0.331387      0.916731
  C      -5.855450     -0.968023      2.594997
  C      -6.044872     -0.636002      1.168182
  O      -6.022983      0.782049      0.997192
  C      -6.005101      1.143079     -0.380335
  H       6.100936      0.870027      1.867125
  H       7.007721      1.485367      0.454006
  H       7.827376      0.471870      1.676784
  H       5.542097     -1.240525     -1.178065
  H       5.403062      0.511236     -0.890714
  H       4.232749     -1.745584      0.841182
  H       4.069081     -0.016454      1.229515
  H       2.434773      1.174384      0.220764
  H       3.233134      1.131367     -1.375391
  H       0.926151      1.491802     -1.787226
  H       1.281376     -0.186849     -2.270714
  H      -1.376785      0.829168     -1.544000
  H      -0.990086     -0.879205     -1.918196
  H      -1.683716     -1.560188      0.338500
  H      -2.974757     -0.890981     -0.673259
  H      -5.387782     -0.252936      3.262251
  H      -6.068183     -1.971595      2.944628
  H      -5.240142     -1.088038      0.549464
  H      -6.993522     -1.055451      0.783757
  H      -5.968885      2.234104     -0.430424
  H      -5.119896      0.727445     -0.886014
  H      -6.908115      0.785780     -0.898871
