37
Coordinates from ORCA-job TEGDME_anion_cpcm_20_default E -770.223079042202
  C           6.86386892161723      0.65413567402293      1.34437778702131
  O           6.66202640215807     -0.62398334852496      0.74040259137420
  C           5.58720143940743     -0.63770698670087     -0.19986517353687
  C           4.23581803449042     -0.80721484995832      0.49597236580883
  O           3.16733816436009     -0.95853563377239     -0.43644138243661
  C           2.77815350167337      0.26117672086712     -1.07701367030973
  C           1.43222184612411      0.06309701555873     -1.72739783887072
  O           0.43241532397451     -0.05077334620668     -0.72826481881374
  C          -0.86234067487683     -0.32680204974359     -1.28337284725300
  C          -1.91941072980690     -0.30838329891549     -0.17545259490114
  O          -2.15614954507977      0.91384803131734      0.38314343085085
  C          -5.08969407280219     -0.37765421564106      2.44639353144770
  C          -5.82543277963103     -0.20597636337691      1.17728489295032
  O          -6.83633958978176      0.79039570349517      1.33881920165714
  C          -7.50869679178595      1.05525323158865      0.11200920385254
  H           6.00155449416641      0.97056622157804      1.94665284018013
  H           7.06459697787299      1.42047643214571      0.58102524742912
  H           7.73516789215946      0.56203883099792      1.99782067185920
  H           5.75771054388861     -1.49613321536918     -0.86061755597903
  H           5.60712017288490      0.27820194471941     -0.81061577299458
  H           4.25703858336967     -1.72660349010691      1.09240817926977
  H           4.03172908653437      0.03834098827978      1.17117365794325
  H           2.72073883892845      1.07433662103432     -0.33530880041201
  H           3.50500809935482      0.55077128724252     -1.85141712415128
  H           1.22754885488453      0.92533658047994     -2.38628959497621
  H           1.45637056973506     -0.84178527497841     -2.36063752132715
  H          -1.10495736444494      0.43966306601089     -2.04170868574316
  H          -0.83823422036742     -1.31360457777288     -1.78510577569618
  H          -1.58391746996231     -1.09278909700227      0.55813742117108
  H          -2.82056086758767     -0.77287330663561     -0.66880845667198
  H          -5.05238713216912      0.43441813220964      3.16412344639552
  H          -4.43424801152549     -1.23194792206715      2.57198605248311
  H          -5.13583790826860      0.10145777195606      0.36238408637254
  H          -6.27899404526410     -1.16003357012553      0.84864771412889
  H          -8.25975016243910      1.82337209883461      0.31259813064589
  H          -6.80835336829401      1.42320806690521     -0.65344218722235
  H          -8.00832302349713      0.15270614765508     -0.27251411154440
