13
 energy: -23.972718170137 gnorm: 0.000414379619 xtb: 6.7.1pre (5071a88)
C            1.65112366805939       -0.32412547940779        0.17851060896513
C            0.12637682663642       -0.43504050742580        0.22553312738123
C           -0.57361979381256        0.94976993038932        0.36630842238881
O           -1.35268062995826        1.08994988145018       -0.77327458539284
C           -1.62597580301509       -0.26537296044686       -1.28186695546057
O           -2.72714089723854       -0.82311059947227       -1.01122618703812
O           -0.36693052472048       -0.95826709292406       -0.96757897017885
H            2.03055607585025        0.08345181598995        1.11537184734132
H            1.94275094938151        0.32487304591134       -0.64420891048663
H            2.08407389098590       -1.30892338671250        0.01415540424992
H           -0.15929783030379       -1.08018738897753        1.08074876750682
H            0.15823553525916        1.77100992468817        0.41266073969877
H           -1.18747145712384        0.97597282693782        1.28486668102506
