21
Coordinates from ORCA-job SN_m1_shell2_reduced_opt_relaxed E -536.012962117849
  N          -1.79245062047242      1.67589868477101     -0.40509216302188
  C          -0.91716421863325      0.90736253498944     -0.32220335202115
  C           0.00890328450516     -0.20905539410135     -0.19761275001990
  C           1.37440017430291      0.17506372764455      0.44006392226035
  C           1.94144523456525      1.44668636986055     -0.16826995222062
  N           1.31300740091701      2.26280178944167     -0.81169967559319
  H          -0.48539710463284     -0.99179389814758      0.38945514269049
  H           0.17769020920460     -0.59271998308191     -1.20979558475443
  H           1.26005735120176      0.34153159113701      1.51727949010234
  H           2.06344649372540     -0.66656056918243      0.32420264394948
  Li         -0.41107135705859      3.12091060672667     -1.06366350704900
  N           0.08945167355891      5.12540492388621      0.29855608481109
  C           1.18468771376957      5.11248532887021     -0.07352887562825
  C           2.50288518219156      5.00796813640324     -0.67247924392487
  C           2.40119985178880      5.01330446139732     -2.22834903603098
  C           1.14737788114948      4.45486616857578     -2.70495662726011
  N           0.09471423987038      4.10922591462834     -3.03327015466986
  H           3.13383906914868      5.84273651788384     -0.34998478198427
  H           2.92731459562872      4.05929713647916     -0.32796547280433
  H           2.46001835804001      6.04091494363508     -2.60851224057868
  H           3.24041458722884      4.44823300818301     -2.64538686625217
