21
Coordinates from ORCA-job SN_m1_shell2_oxidized_opt_relaxed E -535.344631255111
  N      -0.743161      1.695390     -0.961378
  C      -0.785441      0.581389     -0.661489
  C      -0.588740     -0.786378     -0.215036
  C       0.481224     -0.812788      0.929419
  C       1.467344      0.226028      0.689911
  N       2.094164      1.149169      0.394104
  H      -1.526385     -1.220485      0.144533
  H      -0.247646     -1.377144     -1.071880
  H       0.010656     -0.619566      1.899336
  H       0.953203     -1.798846      0.972258
  Li      1.120092      2.726250     -0.681297
  N       1.124759      4.651922      0.253936
  C       1.668637      5.513823     -0.288181
  C       2.398333      6.418277     -1.158823
  C       2.237631      5.951247     -2.645556
  C       2.156559      4.501926     -2.689661
  N       2.009899      3.367965     -2.530761
  H       2.034333      7.444458     -1.051761
  H       3.452526      6.399647     -0.862443
  H       1.316549      6.356742     -3.077684
  H       3.080234      6.315536     -3.240760
21
Coordinates from ORCA-job SN_m1_shell2_oxidized_opt_relaxed E -535.347710182441
  N      -0.743207      1.684357     -0.959483
  C      -0.796725      0.564441     -0.645194
  C      -0.617294     -0.794736     -0.187400
  C       0.494556     -0.845492      0.916897
  C       1.464592      0.200682      0.684543
  N       2.088385      1.139745      0.393833
  H      -1.558151     -1.216583      0.190588
  H      -0.307231     -1.403075     -1.055770
  H       0.042997     -0.673010      1.910190
  H       0.973102     -1.833663      0.938877
  Li      1.119790      2.726144     -0.682083
  N       1.128532      4.659357      0.248106
  C       1.664072      5.536277     -0.299337
  C       2.375671      6.449205     -1.164949
  C       2.274909      5.962582     -2.651851
  C       2.174566      4.521091     -2.691866
  N       2.011243      3.379416     -2.531734
  H       1.992584      7.473658     -1.066116
  H       3.433462      6.459660     -0.846813
  H       1.363578      6.376425     -3.119304
  H       3.135337      6.318080     -3.234348
21
Coordinates from ORCA-job SN_m1_shell2_oxidized_opt_relaxed E -535.349116772220
  N      -0.741835      1.665017     -0.954773
  C      -0.809250      0.547350     -0.623799
  C      -0.651278     -0.801900     -0.150609
  C       0.511520     -0.884157      0.897327
  C       1.462394      0.172279      0.673963
  N       2.077168      1.123956      0.392772
  H      -1.590822     -1.202664      0.256466
  H      -0.392463     -1.432092     -1.025999
  H       0.092589     -0.746823      1.915084
  H       0.995233     -1.871530      0.885853
  Li      1.119330      2.725950     -0.683467
  N       1.135282      4.671793      0.236009
  C       1.655287      5.560524     -0.313970
  C       2.344722      6.484802     -1.174123
  C       2.322668      5.974233     -2.655995
  C       2.197345      4.541335     -2.691645
  N       2.013302      3.399486     -2.532081
  H       1.933378      7.501126     -1.091399
  H       3.396810      6.541056     -0.827354
  H       1.437033      6.398363     -3.171795
  H       3.206359      6.316460     -3.213680
21
Coordinates from ORCA-job SN_m1_shell2_oxidized_opt_relaxed E -535.350075379965
  N      -0.738520      1.638594     -0.946777
  C      -0.821287      0.527352     -0.599533
  C      -0.685499     -0.813993     -0.109655
  C       0.525225     -0.928221      0.877003
  C       1.458120      0.140526      0.661703
  N       2.060857      1.102327      0.390868
  H      -1.620121     -1.187029      0.334281
  H      -0.489989     -1.468112     -0.986308
  H       0.146260     -0.835015      1.917049
  H       1.012552     -1.912772      0.823292
  Li      1.119100      2.725646     -0.685134
  N       1.144838      4.688475      0.217980
  C       1.646555      5.587108     -0.331966
  C       2.314662      6.524905     -1.187535
  C       2.373135      5.991709     -2.658955
  C       2.222180      4.565152     -2.690032
  N       2.016841      3.427294     -2.530968
  H       1.868407      7.528280     -1.126895
  H       3.353647      6.637026     -0.810336
  H       1.524409      6.427284     -3.228271
  H       3.283398      6.318026     -3.183024
21
Coordinates from ORCA-job SN_m1_shell2_oxidized_opt_relaxed E -535.350875470029
  N      -0.733573      1.606893     -0.934941
  C      -0.832694      0.503433     -0.574442
  C      -0.717192     -0.833259     -0.069488
  C       0.532790     -0.975978      0.860336
  C       1.450853      0.105715      0.651244
  N       2.039921      1.075958      0.389397
  H      -1.643927     -1.174331      0.415009
  H      -0.588964     -1.509256     -0.941679
  H       0.196667     -0.930725      1.917816
  H       1.022649     -1.955521      0.758793
  Li      1.119201      2.725451     -0.686204
  N       1.157283      4.709004      0.195394
  C       1.640755      5.616553     -0.351868
  C       2.290941      6.568371     -1.204259
  C       2.420649      6.016360     -2.662542
  C       2.247018      4.593106     -2.688639
  N       2.022033      3.461337     -2.527912
  H       1.805823      7.554845     -1.169255
  H       3.310658      6.739462     -0.798394
  H       1.615453      6.462296     -3.284105
  H       3.358427      6.324849     -3.147474
21
Coordinates from ORCA-job SN_m1_shell2_oxidized_opt_relaxed E -535.351592130616
  N      -0.727790      1.569988     -0.918143
  C      -0.845004      0.473756     -0.548397
  C      -0.746923     -0.861257     -0.031524
  C       0.534222     -1.028087      0.848894
  C       1.440170      0.066504      0.644589
  N       2.013658      1.045239      0.389580
  H      -1.662667     -1.166298      0.496528
  H      -0.686537     -1.555314     -0.894615
  H       0.242576     -1.033422      1.918690
  H       1.026436     -1.999563      0.693203
  Li      1.119018      2.725769     -0.685918
  N       1.172952      4.734151      0.168542
  C       1.639148      5.651121     -0.373295
  C       2.275098      6.616281     -1.223687
  C       2.464697      6.048868     -2.668444
  C       2.271580      4.626635     -2.689011
  N       2.027942      3.501825     -2.522799
  H       1.746871      7.581308     -1.217550
  H       3.270131      6.847090     -0.791583
  H       1.708126      6.503653     -3.339682
  H       3.431064      6.336315     -3.108590
21
Coordinates from ORCA-job SN_m1_shell2_oxidized_opt_relaxed E -535.352166269093
  N      -0.722195      1.530363     -0.898215
  C      -0.859402      0.439666     -0.522301
  C      -0.774962     -0.894805      0.003701
  C       0.532010     -1.081801      0.841481
  C       1.428175      0.023990      0.641410
  N       1.984480      1.012537      0.390786
  H      -1.675925     -1.159828      0.578261
  H      -0.780564     -1.603383     -0.846949
  H       0.284467     -1.137809      1.918879
  H       1.025912     -2.041847      0.626309
  Li      1.118196      2.726526     -0.684787
  N       1.189747      4.762070      0.139247
  C       1.640226      5.690115     -0.394827
  C       2.265244      6.666271     -1.243973
  C       2.505502      6.085795     -2.676114
  C       2.296159      4.663910     -2.692117
  N       2.034103      3.545703     -2.516720
  H       1.690763      7.605070     -1.269832
  H       3.232062      6.954699     -0.788306
  H       1.800090      6.548073     -3.393056
  H       3.500682      6.349247     -3.066089
21
Coordinates from ORCA-job SN_m1_shell2_oxidized_opt_relaxed E -535.352760119733
  N      -0.717716      1.483632     -0.873645
  C      -0.879755      0.398403     -0.490797
  C      -0.807657     -0.933676      0.045600
  C       0.529387     -1.145003      0.831424
  C       1.415971     -0.029204      0.638749
  N       1.951384      0.972466      0.393069
  H      -1.685011     -1.149532      0.676940
  H      -0.889543     -1.656749     -0.786669
  H       0.332533     -1.260487      1.912984
  H       1.021066     -2.088301      0.542961
  Li      1.117383      2.727465     -0.682966
  N       1.208678      4.796858      0.105332
  C       1.640582      5.739477     -0.419245
  C       2.252994      6.724880     -1.268518
  C       2.553858      6.128775     -2.684217
  C       2.328226      4.708537     -2.698158
  N       2.044120      3.597341     -2.510519
  H       1.624281      7.627668     -1.336547
  H       3.183607      7.079205     -0.788456
  H       1.910298      6.598494     -3.450399
  H       3.580086      6.364311     -3.010133
21
Coordinates from ORCA-job SN_m1_shell2_oxidized_opt_relaxed E -535.352484694791
  N      -0.718089      1.420421     -0.838746
  C      -0.911070      0.341951     -0.448044
  C      -0.849300     -0.985965      0.100466
  C       0.523575     -1.228992      0.818137
  C       1.401454     -0.104259      0.638398
  N       1.910652      0.914018      0.400359
  H      -1.688544     -1.143471      0.800176
  H      -1.021118     -1.722439     -0.703693
  H       0.386648     -1.417908      1.897077
  H       1.004938     -2.146998      0.438468
  Li      1.117015      2.728976     -0.678920
  N       1.233626      4.849239      0.063425
  C       1.641385      5.809886     -0.449925
  C       2.238069      6.802359     -1.302672
  C       2.616167      6.186826     -2.694385
  C       2.374325      4.769276     -2.709658
  N       2.063386      3.666927     -2.506363
  H       1.547613      7.654632     -1.427676
  H       3.119827      7.235245     -0.799135
  H       2.050565      6.663631     -3.513689
  H       3.673644      6.391206     -2.936814
21
Coordinates from ORCA-job SN_m1_shell2_oxidized_opt_relaxed E -535.352887502772
  N      -0.721828      1.457960     -0.858489
  C      -0.897225      0.374774     -0.472297
  C      -0.826690     -0.954497      0.069706
  C       0.528431     -1.181680      0.823834
  C       1.412628     -0.063386      0.640766
  N       1.936760      0.946674      0.399836
  H      -1.686199     -1.144582      0.734502
  H      -0.946525     -1.684111     -0.751737
  H       0.355950     -1.330841      1.905190
  H       1.015016     -2.113824      0.490574
  Li      1.117325      2.728437     -0.679799
  N       1.219077      4.821581      0.091122
  C       1.639970      5.772528     -0.429774
  C       2.244331      6.758428     -1.283338
  C       2.582120      6.152074     -2.688686
  C       2.350630      4.733576     -2.706006
  N       2.054694      3.625480     -2.511303
  H       1.585877      7.638137     -1.379931
  H       3.155517      7.147743     -0.793967
  H       1.970985      6.625803     -3.478269
  H       3.623926      6.374288     -2.975149
21
Coordinates from ORCA-job SN_m1_shell2_oxidized_opt_relaxed E -535.352925267573
  N      -0.723384      1.479241     -0.867392
  C      -0.889257      0.393476     -0.484076
  C      -0.814597     -0.936611      0.053758
  C       0.531298     -1.156520      0.825318
  C       1.418379     -0.041322      0.641688
  N       1.950410      0.964530      0.400225
  H      -1.683245     -1.143274      0.700588
  H      -0.907112     -1.661732     -0.776022
  H       0.339897     -1.286250      1.906595
  H       1.019660     -2.094904      0.514661
  Li      1.117813      2.728338     -0.679231
  N       1.211451      4.806576      0.105838
  C       1.638883      5.752158     -0.419580
  C       2.246484      6.734683     -1.273748
  C       2.564514      6.132569     -2.685024
  C       2.338741      4.713736     -2.702839
  N       2.051146      3.602618     -2.512551
  H       1.604169      7.626921     -1.356829
  H       3.172128      7.101744     -0.792961
  H       1.930031      6.604227     -3.458138
  H       3.597361      6.364357     -2.993492
21
Coordinates from ORCA-job SN_m1_shell2_oxidized_opt_relaxed E -535.352938575169
  N      -0.723897      1.473041     -0.863653
  C      -0.892607      0.387892     -0.479644
  C      -0.819051     -0.941830      0.059397
  C       0.530838     -1.165328      0.823786
  C       1.417022     -0.049106      0.641930
  N       1.946591      0.958387      0.401566
  H      -1.683905     -1.142651      0.713354
  H      -0.920611     -1.668383     -0.767809
  H       0.345346     -1.302818      1.904962
  H       1.018185     -2.101152      0.503452
  Li      1.117855      2.728549     -0.678478
  N       1.213998      4.812242      0.102006
  C       1.638980      5.759474     -0.422567
  C       2.244717      6.742743     -1.277297
  C       2.571048      6.138409     -2.686180
  C       2.343704      4.719806     -2.704124
  N       2.053678      3.609495     -2.512397
  H       1.595873      7.629840     -1.366357
  H       3.165650      7.117939     -0.794196
  H       1.944155      6.610788     -3.464778
  H       3.607199      6.367225     -2.986185
21
Coordinates from ORCA-job SN_m1_shell2_oxidized_opt_relaxed E -535.352942322034
  N      -0.724455      1.473595     -0.862673
  C      -0.892943      0.388366     -0.478782
  C      -0.819728     -0.941305      0.060240
  C       0.531310     -1.166243      0.822552
  C       1.417223     -0.049706      0.642028
  N       1.946868      0.957986      0.402613
  H      -1.683687     -1.141276      0.715577
  H      -0.922439     -1.667906     -0.766779
  H       0.346326     -1.305667      1.903571
  H       1.018225     -2.101410      0.499756
  Li      1.118082      2.728696     -0.677612
  N       1.214068      4.812844      0.102427
  C       1.638638      5.759946     -0.422725
  C       2.243436      6.743296     -1.277902
  C       2.572207      6.138095     -2.686046
  C       2.344821      4.719594     -2.703920
  N       2.055035      3.609187     -2.512294
  H       1.593153      7.629127     -1.368525
  H       3.163783      7.120037     -0.794899
  H       1.946076      6.610446     -3.465291
  H       3.608773      6.366860     -2.984527
