21
Coordinates from ORCA-job SN_m1_shell2_oxidized_opt_relaxed E -535.352942322034
  N          -0.72445466977492      1.47359454573902     -0.86267326257344
  C          -0.89294264342942      0.38836611557503     -0.47878186640739
  C          -0.81972818235589     -0.94130481780801      0.06024000836263
  C           0.53130972854066     -1.16624280159823      0.82255247075874
  C           1.41722341784870     -0.04970605259652      0.64202762861037
  N           1.94686766527193      0.95798637511150      0.40261291919307
  H          -1.68368727503309     -1.14127569159823      0.71557671674599
  H          -0.92243881768095     -1.66790563941897     -0.76677945259117
  H           0.34632565550462     -1.30566710513939      1.90357133817584
  H           1.01822544641845     -2.10141008811384      0.49975607281913
  Li          1.11808160692848      2.72869570838352     -0.67761241761981
  N           1.21406778939139      4.81284432600146      0.10242653741422
  C           1.63863801941281      5.75994558373940     -0.42272478936078
  C           2.24343579512560      6.74329594920408     -1.27790218429496
  C           2.57220705089404      6.13809453250731     -2.68604599110703
  C           2.34482076527733      4.71959351650601     -2.70392041085408
  N           2.05503458014819      3.60918710935719     -2.51229391776119
  H           1.59315264882041      7.62912728987649     -1.36852495787730
  H           3.16378276220664      7.12003740080916     -0.79489891066540
  H           1.94607598363374      6.61044564549618     -3.46529132930333
  H           3.60877267285126      6.36686009796682     -2.98452720166411
