21
Coordinates from ORCA-job SN_m1_shell2_reduced_opt_relaxed E -535.977912945888
  N      -0.743161      1.695390     -0.961378
  C      -0.785441      0.581389     -0.661489
  C      -0.588740     -0.786378     -0.215036
  C       0.481224     -0.812788      0.929419
  C       1.467344      0.226028      0.689911
  N       2.094164      1.149169      0.394104
  H      -1.526385     -1.220485      0.144533
  H      -0.247646     -1.377144     -1.071880
  H       0.010656     -0.619566      1.899336
  H       0.953203     -1.798846      0.972258
  Li      1.120092      2.726250     -0.681297
  N       1.124759      4.651922      0.253936
  C       1.668637      5.513823     -0.288181
  C       2.398333      6.418277     -1.158823
  C       2.237631      5.951247     -2.645556
  C       2.156559      4.501926     -2.689661
  N       2.009899      3.367965     -2.530761
  H       2.034333      7.444458     -1.051761
  H       3.452526      6.399647     -0.862443
  H       1.316549      6.356742     -3.077684
  H       3.080234      6.315536     -3.240760
21
Coordinates from ORCA-job SN_m1_shell2_reduced_opt_relaxed E -535.987137041257
  N      -0.764621      1.725317     -0.977768
  C      -0.823810      0.597463     -0.682039
  C      -0.599933     -0.756823     -0.232098
  C       0.510142     -0.792027      0.928894
  C       1.511357      0.225955      0.708458
  N       2.129827      1.167573      0.399946
  H      -1.532027     -1.201997      0.128936
  H      -0.255985     -1.344686     -1.088377
  H       0.036792     -0.599183      1.896246
  H       0.971004     -1.783441      0.973975
  Li      1.119642      2.726654     -0.680733
  N       1.106395      4.642359      0.288111
  C       1.653557      5.525330     -0.245603
  C       2.382831      6.402230     -1.132164
  C       2.236693      5.916127     -2.656325
  C       2.166813      4.474863     -2.727529
  N       2.012060      3.331373     -2.548861
  H       2.026748      7.432184     -1.033375
  H       3.436467      6.381472     -0.838077
  H       1.315287      6.321381     -3.085110
  H       3.075532      6.292436     -3.249718
21
Coordinates from ORCA-job SN_m1_shell2_reduced_opt_relaxed E -535.990535272363
  N      -0.783949      1.764062     -0.992375
  C      -0.856817      0.629847     -0.707343
  C      -0.597398     -0.708776     -0.255330
  C       0.539453     -0.749324      0.921078
  C       1.560886      0.241713      0.723169
  N       2.166833      1.192932      0.401071
  H      -1.514552     -1.175836      0.114539
  H      -0.239866     -1.293634     -1.108136
  H       0.053584     -0.554208      1.881854
  H       0.975510     -1.751383      0.963891
  Li      1.118774      2.727349     -0.679797
  N       1.083403      4.625996      0.322234
  C       1.633384      5.521602     -0.197460
  C       2.364493      6.363018     -1.103854
  C       2.224833      5.863469     -2.655771
  C       2.171181      4.431589     -2.760100
  N       2.013539      3.287107     -2.561444
  H       2.022687      7.399158     -1.028308
  H       3.420975      6.334355     -0.820720
  H       1.298709      6.271599     -3.071737
  H       3.059106      6.263927     -3.238674
21
Coordinates from ORCA-job SN_m1_shell2_reduced_opt_relaxed E -535.991436141751
  N      -0.791182      1.791438     -0.996259
  C      -0.866634      0.654949     -0.722398
  C      -0.585653     -0.678147     -0.272516
  C       0.550407     -0.716848      0.916187
  C       1.585096      0.260111      0.729109
  N       2.184818      1.211978      0.397570
  H      -1.489875     -1.166357      0.101681
  H      -0.210298     -1.258202     -1.121160
  H       0.050201     -0.516360      1.868711
  H       0.965759     -1.727667      0.958682
  Li      1.117630      2.728364     -0.678252
  N       1.067992      4.612176      0.338385
  C       1.622933      5.509735     -0.172174
  C       2.358590      6.331415     -1.090274
  C       2.209308      5.830797     -2.649773
  C       2.166963      4.401575     -2.770776
  N       2.013300      3.258667     -2.561110
  H       2.032086      7.373629     -1.033465
  H       3.418323      6.290931     -0.820308
  H       1.276601      6.240666     -3.049553
  H       3.038404      6.251712     -3.225521
21
Coordinates from ORCA-job SN_m1_shell2_reduced_opt_relaxed E -535.992127841496
  N      -0.794695      1.825486     -0.995131
  C      -0.866697      0.686016     -0.738190
  C      -0.563130     -0.644581     -0.294923
  C       0.555315     -0.676443      0.911824
  C       1.604520      0.287340      0.733714
  N       2.200300      1.236193      0.389908
  H      -1.452235     -1.160868      0.077242
  H      -0.160481     -1.213325     -1.138676
  H       0.035753     -0.464542      1.851381
  H       0.946299     -1.696585      0.958874
  Li      1.115982      2.730142     -0.675134
  N       1.049687      4.593703      0.351674
  C       1.614785      5.488885     -0.149448
  C       2.358342      6.290817     -1.079073
  C       2.183916      5.795433     -2.638807
  C       2.155357      4.366723     -2.773477
  N       2.012297      3.225596     -2.552526
  H       2.055077      7.340696     -1.040931
  H       3.421420      6.229323     -0.826875
  H       1.240385      6.203778     -3.013867
  H       3.002572      6.240776     -3.210771
21
Coordinates from ORCA-job SN_m1_shell2_reduced_opt_relaxed E -535.992615235022
  N      -0.794376      1.857213     -0.989454
  C      -0.856966      0.714144     -0.750679
  C      -0.535811     -0.616747     -0.316900
  C       0.553354     -0.638952      0.909164
  C       1.614088      0.315533      0.736550
  N       2.209886      1.259033      0.380440
  H      -1.414650     -1.158611      0.042640
  H      -0.104821     -1.168865     -1.157578
  H       0.016319     -0.411489      1.834993
  H       0.926323     -1.665059      0.968284
  Li      1.114195      2.732289     -0.671084
  N       1.032629      4.576253      0.358987
  C       1.611403      5.465467     -0.135347
  C       2.363866      6.252012     -1.072982
  C       2.155433      5.766343     -2.626044
  C       2.139283      4.336734     -2.768021
  N       2.011026      3.196240     -2.538615
  H       2.086061      7.309029     -1.042818
  H       3.428585      6.164816     -0.836165
  H       1.199530      6.168402     -2.975258
  H       2.959413      6.230777     -3.203326
21
Coordinates from ORCA-job SN_m1_shell2_reduced_opt_relaxed E -535.993078657590
  N      -0.792625      1.891694     -0.980520
  C      -0.839073      0.744101     -0.762887
  C      -0.501750     -0.588456     -0.341060
  C       0.547158     -0.598852      0.906648
  C       1.618656      0.347886      0.739359
  N       2.217561      1.283851      0.368908
  H      -1.374997     -1.155334     -0.007352
  H      -0.039427     -1.117412     -1.179956
  H      -0.006921     -0.351031      1.817003
  H       0.907640     -1.627920      0.987628
  Li      1.111895      2.735071     -0.665669
  N       1.013104      4.558111      0.363867
  C       1.610660      5.437591     -0.124963
  C       2.373362      6.209193     -1.069616
  C       2.121757      5.737201     -2.610236
  C       2.117694      4.306030     -2.756742
  N       2.009564      3.165040     -2.520253
  H       2.126422      7.273741     -1.036108
  H       3.437943      6.089519     -0.846961
  H       1.151263      6.128139     -2.930419
  H       2.904884      6.216400     -3.203885
21
Coordinates from ORCA-job SN_m1_shell2_reduced_opt_relaxed E -535.993471445028
  N      -0.793002      1.922703     -0.971085
  C      -0.819752      0.770894     -0.772766
  C      -0.470241     -0.563701     -0.361874
  C       0.540946     -0.565570      0.903486
  C       1.620406      0.376898      0.743707
  N       2.223707      1.305784      0.360306
  H      -1.344050     -1.148668     -0.061875
  H       0.018292     -1.069046     -1.200648
  H      -0.025851     -0.300412      1.801220
  H       0.898554     -1.593539      1.009537
  Li      1.109018      2.738348     -0.659117
  N       0.994222      4.544899      0.368360
  C       1.611309      5.412990     -0.117548
  C       2.382223      6.171888     -1.068698
  C       2.092398      5.712114     -2.595728
  C       2.095831      4.279344     -2.744699
  N       2.007749      3.137016     -2.503721
  H       2.164238      7.242409     -1.021466
  H       3.445117      6.022248     -0.855687
  H       1.109612      6.091430     -2.891947
  H       2.854042      6.196534     -3.212972
21
Coordinates from ORCA-job SN_m1_shell2_reduced_opt_relaxed E -535.993811928319
  N      -0.799099      1.949516     -0.961591
  C      -0.803789      0.794350     -0.779786
  C      -0.445130     -0.542171     -0.378489
  C       0.538002     -0.542164      0.899031
  C       1.622436      0.400108      0.752216
  N       2.229402      1.324167      0.358862
  H      -1.323610     -1.138057     -0.114669
  H       0.062758     -1.026439     -1.218593
  H      -0.037843     -0.268635      1.788859
  H       0.901207     -1.566047      1.026137
  Li      1.104786      2.742668     -0.650226
  N       0.976796      4.539769      0.375662
  C       1.612199      5.395606     -0.110289
  C       2.387887      6.143046     -1.069146
  C       2.071269      5.690331     -2.584987
  C       2.075371      4.256096     -2.735475
  N       2.004111      3.112155     -2.492149
  H       2.193510      7.217425     -1.003778
  H       3.448768      5.970765     -0.861748
  H       1.080609      6.061942     -2.865522
  H       2.815129      6.170131     -3.227534
21
Coordinates from ORCA-job SN_m1_shell2_reduced_opt_relaxed E -535.994084577444
  N      -0.812575      1.971011     -0.951914
  C      -0.793782      0.813838     -0.783610
  C      -0.427157     -0.524035     -0.391499
  C       0.539326     -0.529116      0.893702
  C       1.625932      0.416506      0.766583
  N       2.234150      1.338963      0.367050
  H      -1.310463     -1.126304     -0.159025
  H       0.094251     -0.991706     -1.233212
  H      -0.044579     -0.259619      1.779942
  H       0.911908     -1.548551      1.030853
  Li      1.098401      2.748450     -0.638233
  N       0.961939      4.544506      0.386881
  C       1.613262      5.387641     -0.101919
  C       2.390513      6.123390     -1.070249
  C       2.059078      5.671419     -2.579168
  C       2.056591      4.236144     -2.730898
  N       1.996645      3.090934     -2.486743
  H       2.212509      7.199907     -0.991126
  H       3.450285      5.937705     -0.866856
  H       1.065917      6.043132     -2.852062
  H       2.792621      6.140348     -3.241710
21
Coordinates from ORCA-job SN_m1_shell2_reduced_opt_relaxed E -535.994338062880
  N      -0.834387      1.991471     -0.939047
  C      -0.785942      0.833586     -0.785108
  C      -0.408480     -0.505236     -0.405904
  C       0.542970     -0.519982      0.887585
  C       1.629798      0.431718      0.789034
  N       2.236604      1.354805      0.384773
  H      -1.293479     -1.115861     -0.202414
  H       0.127637     -0.955829     -1.248160
  H      -0.053025     -0.265517      1.770588
  H       0.924749     -1.536281      1.024219
  Li      1.087858      2.756972     -0.620843
  N       0.946673      4.558532      0.401934
  C       1.615450      5.385376     -0.091959
  C       2.393874      6.105299     -1.072271
  C       2.049243      5.650974     -2.575561
  C       2.033785      4.215062     -2.728151
  N       1.982136      3.069081     -2.483758
  H       2.230948      7.183957     -0.987317
  H       3.453268      5.908845     -0.875309
  H       1.057241      6.030944     -2.842555
  H       2.777849      6.106648     -3.252989
21
Coordinates from ORCA-job SN_m1_shell2_reduced_opt_relaxed E -535.994680703901
  N      -0.873693      2.018118     -0.914564
  C      -0.774941      0.861903     -0.782319
  C      -0.377410     -0.478082     -0.429297
  C       0.548713     -0.510391      0.878776
  C       1.631715      0.453465      0.829486
  N       2.233196      1.379755      0.419503
  H      -1.258937     -1.105803     -0.265256
  H       0.183429     -0.899667     -1.270879
  H      -0.069853     -0.288480      1.755278
  H       0.942513     -1.523957      1.002726
  Li      1.066522      2.772725     -0.589162
  N       0.924486      4.589228      0.424100
  C       1.620549      5.387323     -0.079316
  C       2.402674      6.079515     -1.077253
  C       2.035414      5.620828     -2.572050
  C       1.994800      4.184561     -2.722625
  N       1.950736      3.038092     -2.478412
  H       2.262487      7.161753     -0.994596
  H       3.461297      5.866476     -0.892378
  H       1.048673      6.020669     -2.830416
  H       2.762399      6.056530     -3.264561
21
Coordinates from ORCA-job SN_m1_shell2_reduced_opt_relaxed E -535.995116127614
  N      -0.932945      2.044962     -0.876505
  C      -0.761183      0.896503     -0.769775
  C      -0.332872     -0.444101     -0.460313
  C       0.556747     -0.503926      0.867914
  C       1.626938      0.480140      0.888627
  N       2.216620      1.413496      0.471452
  H      -1.203024     -1.098330     -0.344873
  H       0.261603     -0.820947     -1.300178
  H      -0.093492     -0.335975      1.733391
  H       0.967923     -1.514017      0.962170
  Li      1.030251      2.796750     -0.541689
  N       0.895631      4.641010      0.448717
  C       1.628200      5.395580     -0.068630
  C       2.419328      6.047808     -1.086160
  C       2.019629      5.583636     -2.569765
  C       1.938347      4.148066     -2.711303
  N       1.895720      3.001347     -2.468965
  H       2.309613      7.134680     -1.016955
  H       3.475310      5.810404     -0.916580
  H       1.044716      6.016764     -2.819259
  H       2.751710      5.990710     -3.274531
21
Coordinates from ORCA-job SN_m1_shell2_reduced_opt_relaxed E -535.995611747833
  N      -1.006273      2.061908     -0.827756
  C      -0.748981      0.929762     -0.743028
  C      -0.281537     -0.409223     -0.491876
  C       0.567515     -0.505666      0.856128
  C       1.612869      0.505754      0.956024
  N       2.180840      1.451933      0.531134
  H      -1.132222     -1.095298     -0.426597
  H       0.347669     -0.727217     -1.330515
  H      -0.114857     -0.408322      1.707217
  H       1.003627     -1.508686      0.904680
  Li      0.979050      2.826744     -0.483757
  N       0.863540      4.709583      0.466789
  C       1.634966      5.411070     -0.066182
  C       2.442769      6.016757     -1.098265
  C       2.008110      5.547062     -2.570399
  C       1.872915      4.114492     -2.692878
  N       1.817714      2.968154     -2.454181
  H       2.367086      7.107813     -1.052747
  H       3.492717      5.748566     -0.939888
  H       1.052565      6.022318     -2.816627
  H       2.754689      5.917059     -3.280491
21
Coordinates from ORCA-job SN_m1_shell2_reduced_opt_relaxed E -535.996162253432
  N      -1.090007      2.068480     -0.763398
  C      -0.741286      0.961359     -0.699995
  C      -0.224303     -0.371325     -0.523150
  C       0.582006     -0.515190      0.840709
  C       1.589897      0.529546      1.024363
  N       2.121715      1.497025      0.593498
  H      -1.046503     -1.094038     -0.514755
  H       0.439409     -0.609850     -1.360876
  H      -0.127953     -0.499586      1.673856
  H       1.052517     -1.503863      0.833756
  Li      0.912134      2.862249     -0.414514
  N       0.829167      4.790036      0.475112
  C       1.638073      5.431968     -0.074023
  C       2.471385      5.985415     -1.113702
  C       2.002331      5.509611     -2.573760
  C       1.802352      4.083526     -2.664159
  N       1.716760      2.939747     -2.427124
  H       2.434864      7.079188     -1.098622
  H       3.510253      5.678273     -0.957412
  H       1.072252      6.029634     -2.824387
  H       2.769707      5.832358     -3.284631
21
Coordinates from ORCA-job SN_m1_shell2_reduced_opt_relaxed E -535.990810266842
  N      -1.588822      1.971724     -0.335684
  C      -0.837903      1.065660     -0.455598
  C       0.076925     -0.075169     -0.642342
  C       0.764572     -0.522034      0.682501
  C       1.453897      0.669524      1.305871
  N       1.622490      1.780966      0.869088
  H      -0.486336     -0.976077     -0.951240
  H       0.823779      0.241002     -1.403062
  H       0.043809     -0.994222      1.378037
  H       1.487248     -1.294781      0.349920
  Li      0.436278      3.075810     -0.014612
  N       0.617181      5.212572      0.397228
  C       1.584768      5.508855     -0.186291
  C       2.622140      5.739486     -1.163719
  C       2.043405      5.243627     -2.588042
  C       1.421350      3.943277     -2.458042
  N       0.993216      2.878073     -2.226385
  H       2.828052      6.805777     -1.328003
  H       3.535528      5.194041     -0.902145
  H       1.329292      5.991711     -2.956751
  H       2.943901      5.224741     -3.223943
21
Coordinates from ORCA-job SN_m1_shell2_reduced_opt_relaxed E -535.992649835108
  N      -1.569720      1.953515     -0.341725
  C      -0.835030      1.035767     -0.446781
  C       0.050576     -0.125612     -0.626247
  C       0.758635     -0.549860      0.695275
  C       1.465928      0.653682      1.276141
  N       1.615677      1.771243      0.843034
  H      -0.538994     -1.014638     -0.913483
  H       0.789192      0.158287     -1.402628
  H       0.047253     -0.997237      1.412487
  H       1.470974     -1.335478      0.378324
  Li      0.440232      3.074682     -0.031773
  N       0.628886      5.206973      0.391855
  C       1.586375      5.523552     -0.195836
  C       2.624477      5.776993     -1.166467
  C       2.063093      5.280181     -2.596703
  C       1.440613      3.981948     -2.469012
  N       1.004286      2.920891     -2.242769
  H       2.819883      6.846102     -1.317612
  H       3.540695      5.240963     -0.898581
  H       1.347537      6.022051     -2.971738
  H       2.964203      5.260557     -3.228973
21
Coordinates from ORCA-job SN_m1_shell2_reduced_opt_relaxed E -535.998310318589
  N      -1.565333      1.942236     -0.302784
  C      -0.836002      1.043013     -0.416693
  C       0.035949     -0.106046     -0.625774
  C       0.790238     -0.528297      0.661521
  C       1.486477      0.679731      1.247018
  N       1.581939      1.802954      0.812928
  H      -0.577795     -0.939278     -0.982486
  H       0.750426      0.197467     -1.391414
  H       0.117350     -0.977727      1.392441
  H       1.525546     -1.290050      0.387800
  Li      0.418190      3.076971     -0.026771
  N       0.608804      5.199316      0.385398
  C       1.561369      5.509169     -0.198897
  C       2.604058      5.760547     -1.165338
  C       2.089736      5.246602     -2.589105
  C       1.456161      3.958126     -2.454075
  N       1.009170      2.908447     -2.225304
  H       2.821396      6.826304     -1.258182
  H       3.505197      5.222090     -0.864843
  H       1.373306      5.965868     -2.990527
  H       2.958587      5.187119     -3.248125
21
Coordinates from ORCA-job SN_m1_shell2_reduced_opt_relaxed E -535.999828533219
  N      -1.558086      1.933698     -0.322447
  C      -0.851726      1.016921     -0.424278
  C      -0.012449     -0.153468     -0.616990
  C       0.809842     -0.512966      0.655147
  C       1.531812      0.700918      1.193173
  N       1.596214      1.823304      0.767644
  H      -0.649306     -0.994401     -0.913975
  H       0.661725      0.107036     -1.438816
  H       0.168428     -0.926484      1.438705
  H       1.538786     -1.285640      0.390802
  Li      0.412262      3.076571     -0.043732
  N       0.595195      5.194162      0.387188
  C       1.547437      5.514732     -0.193267
  C       2.595240      5.776935     -1.153991
  C       2.117792      5.260485     -2.581069
  C       1.479472      3.971173     -2.460716
  N       1.028913      2.923020     -2.237169
  H       2.814391      6.845493     -1.220737
  H       3.496539      5.241838     -0.840534
  H       1.404311      5.977070     -2.998468
  H       2.987978      5.194164     -3.239682
21
Coordinates from ORCA-job SN_m1_shell2_reduced_opt_relaxed E -536.000582782297
  N      -1.545325      1.930594     -0.320867
  C      -0.850599      1.003559     -0.408440
  C      -0.046184     -0.185744     -0.597744
  C       0.827319     -0.499190      0.656085
  C       1.586139      0.721637      1.123903
  N       1.617006      1.847966      0.693503
  H      -0.709843     -1.015485     -0.868289
  H       0.618919      0.018387     -1.450355
  H       0.200640     -0.871704      1.477438
  H       1.538500     -1.297633      0.413833
  Li      0.394934      3.076978     -0.087020
  N       0.565718      5.183470      0.386241
  C       1.523931      5.512791     -0.182288
  C       2.578504      5.775534     -1.138418
  C       2.141595      5.275432     -2.571215
  C       1.490992      3.985615     -2.490600
  N       1.037185      2.937670     -2.274296
  H       2.815944      6.843583     -1.167440
  H       3.475261      5.231925     -0.817363
  H       1.440093      6.001289     -3.000252
  H       3.014039      5.207886     -3.229631
21
Coordinates from ORCA-job SN_m1_shell2_reduced_opt_relaxed E -536.001467459920
  N      -1.566080      1.912317     -0.366455
  C      -0.884227      0.972244     -0.426346
  C      -0.090055     -0.230814     -0.568165
  C       0.880699     -0.456362      0.639077
  C       1.665087      0.773259      1.015525
  N       1.624218      1.897876      0.593664
  H      -0.750709     -1.093443     -0.695647
  H       0.488916     -0.105963     -1.492392
  H       0.310663     -0.774141      1.519390
  H       1.566478     -1.271560      0.386087
  Li      0.342602      3.089178     -0.126541
  N       0.512266      5.193923      0.364986
  C       1.489173      5.511241     -0.176232
  C       2.577516      5.753733     -1.099134
  C       2.177025      5.284850     -2.549439
  C       1.488166      4.012053     -2.513109
  N       1.000641      2.975137     -2.320535
  H       2.846533      6.813706     -1.110053
  H       3.449903      5.184965     -0.758301
  H       1.515558      6.036567     -2.993842
  H       3.070397      5.205793     -3.175752
21
Coordinates from ORCA-job SN_m1_shell2_reduced_opt_relaxed E -536.002412842372
  N      -1.590530      1.894037     -0.375560
  C      -0.902281      0.956988     -0.420649
  C      -0.101381     -0.244668     -0.536002
  C       0.936566     -0.408172      0.628511
  C       1.732392      0.837579      0.898689
  N       1.624981      1.958103      0.477549
  H      -0.753153     -1.122700     -0.569922
  H       0.426790     -0.179561     -1.492774
  H       0.410043     -0.679553      1.549238
  H       1.596458     -1.244213      0.378171
  Li      0.268488      3.102295     -0.190691
  N       0.438209      5.201367      0.324147
  C       1.443818      5.492704     -0.174460
  C       2.576419      5.690804     -1.052765
  C       2.201537      5.287126     -2.525923
  C       1.459584      4.043169     -2.556323
  N       0.927499      3.023317     -2.394358
  H       2.906454      6.733131     -1.033158
  H       3.403874      5.067740     -0.696986
  H       1.593837      6.081868     -2.970450
  H       3.115166      5.193200     -3.119495
21
Coordinates from ORCA-job SN_m1_shell2_reduced_opt_relaxed E -536.004849920801
  N      -1.661992      1.872083     -0.352317
  C      -0.933963      0.963427     -0.391689
  C      -0.079921     -0.203905     -0.483396
  C       1.081506     -0.248412      0.569500
  C       1.856396      1.031911      0.647353
  N       1.602557      2.133821      0.230556
  H      -0.688502     -1.106164     -0.362068
  H       0.347141     -0.224499     -1.487304
  H       0.658307     -0.454726      1.557347
  H       1.716340     -1.102817      0.320926
  Li      0.078900      3.145046     -0.312551
  N       0.257642      5.239174      0.220726
  C       1.328628      5.427092     -0.172385
  C       2.552170      5.475374     -0.942736
  C       2.245491      5.220474     -2.453445
  C       1.372889      4.073671     -2.633527
  N       0.729993      3.110512     -2.543891
  H       3.038798      6.449408     -0.836499
  H       3.239315      4.715395     -0.557427
  H       1.783319      6.110951     -2.889736
  H       3.189756      5.056746     -2.980648
21
Coordinates from ORCA-job SN_m1_shell2_reduced_opt_relaxed E -536.006494000849
  N      -1.722722      1.859745     -0.313467
  C      -0.950547      0.987493     -0.358721
  C      -0.033993     -0.131249     -0.443008
  C       1.234759     -0.044919      0.476217
  C       1.955139      1.263308      0.377994
  N       1.554339      2.333955     -0.013646
  H      -0.570655     -1.048534     -0.178040
  H       0.288823     -0.230367     -1.478472
  H       0.923929     -0.188238      1.515220
  H       1.864707     -0.902441      0.229493
  Li     -0.106136      3.202010     -0.407957
  N       0.097950      5.299394      0.114553
  C       1.213843      5.355821     -0.170963
  C       2.495890      5.219514     -0.827487
  C       2.288164      5.094081     -2.362094
  C       1.283249      4.091461     -2.685440
  N       0.519348      3.217494     -2.674183
  H       3.131397      6.086736     -0.622804
  H       3.000354      4.334630     -0.426908
  H       2.003942      6.062749     -2.782457
  H       3.242992      4.821919     -2.821043
21
Coordinates from ORCA-job SN_m1_shell2_reduced_opt_relaxed E -536.008438495001
  N      -1.745400      1.826087     -0.257229
  C      -0.947973      0.980484     -0.331655
  C      -0.007624     -0.112384     -0.457253
  C       1.255496     -0.040041      0.464823
  C       1.950030      1.293150      0.419603
  N       1.515221      2.361177      0.035147
  H      -0.549597     -1.039883     -0.240543
  H       0.321671     -0.149913     -1.499487
  H       0.962058     -0.247022      1.499964
  H       1.917275     -0.859255      0.170075
  Li     -0.163373      3.229586     -0.382304
  N       0.078066      5.357216      0.086166
  C       1.196925      5.375497     -0.200812
  C       2.494520      5.211669     -0.822441
  C       2.311025      5.042521     -2.362436
  C       1.253958      4.091791     -2.667727
  N       0.441261      3.268514     -2.680114
  H       3.137682      6.076323     -0.626080
  H       2.954718      4.318201     -0.385772
  H       2.085785      6.010369     -2.820959
  H       3.253047      4.690473     -2.794180
21
Coordinates from ORCA-job SN_m1_shell2_reduced_opt_relaxed E -536.009867901450
  N      -1.752153      1.789052     -0.185479
  C      -0.932771      0.970117     -0.298345
  C       0.027242     -0.097759     -0.474349
  C       1.278113     -0.012870      0.448315
  C       1.941056      1.347981      0.420546
  N       1.463870      2.405952      0.048410
  H      -0.509006     -1.040974     -0.311360
  H       0.349808     -0.063120     -1.523585
  H       1.008015     -0.246013      1.486534
  H       1.977909     -0.794027      0.131415
  Li     -0.239566      3.252473     -0.364069
  N       0.057349      5.405061      0.057588
  C       1.176186      5.376227     -0.236761
  C       2.492836      5.182649     -0.814957
  C       2.341324      4.979687     -2.350699
  C       1.219996      4.101061     -2.639131
  N       0.344203      3.351426     -2.690475
  H       3.153496      6.031066     -0.609734
  H       2.877472      4.265524     -0.347514
  H       2.181113      5.943808     -2.845708
  H       3.258278      4.537240     -2.753852
21
Coordinates from ORCA-job SN_m1_shell2_reduced_opt_relaxed E -536.010213739291
  N      -1.752793      1.771558     -0.178617
  C      -0.929639      0.956007     -0.292722
  C       0.027421     -0.115952     -0.473443
  C       1.278737     -0.021058      0.444391
  C       1.939165      1.343889      0.406462
  N       1.438771      2.397049      0.045793
  H      -0.506176     -1.061182     -0.314951
  H       0.347113     -0.078096     -1.523625
  H       1.011828     -0.243048      1.485863
  H       1.984406     -0.799061      0.132440
  Li     -0.266018      3.253162     -0.356598
  N       0.064272      5.417117      0.073777
  C       1.177307      5.386988     -0.241708
  C       2.496981      5.206038     -0.818541
  C       2.358109      4.972779     -2.352340
  C       1.215407      4.118154     -2.626809
  N       0.315455      3.397767     -2.695819
  H       3.146571      6.062618     -0.618049
  H       2.882303      4.293613     -0.338988
  H       2.220001      5.928407     -2.870502
  H       3.265549      4.497812     -2.739227
21
Coordinates from ORCA-job SN_m1_shell2_reduced_opt_relaxed E -536.010267896861
  N      -1.762952      1.755931     -0.159251
  C      -0.921040      0.958079     -0.282147
  C       0.056416     -0.099763     -0.470103
  C       1.336532      0.051423      0.398596
  C       1.961804      1.434415      0.298740
  N       1.390240      2.461086     -0.030179
  H      -0.441231     -1.057125     -0.274607
  H       0.340641     -0.080683     -1.529694
  H       1.107246     -0.138764      1.454643
  H       2.048832     -0.720631      0.087964
  Li     -0.355454      3.280430     -0.367332
  N       0.035319      5.468898      0.067922
  C       1.146555      5.379334     -0.239697
  C       2.472651      5.135350     -0.778678
  C       2.379604      4.883831     -2.315656
  C       1.167409      4.140912     -2.618514
  N       0.201563      3.518116     -2.741382
  H       3.154441      5.960801     -0.560957
  H       2.791385      4.205674     -0.281167
  H       2.354178      5.834276     -2.860087
  H       3.250633      4.312970     -2.651628
21
Coordinates from ORCA-job SN_m1_shell2_reduced_opt_relaxed E -536.010686769726
  N      -1.755068      1.757995     -0.174883
  C      -0.925745      0.945031     -0.290735
  C       0.037850     -0.129067     -0.469133
  C       1.304692      0.004365      0.425104
  C       1.939748      1.382856      0.331510
  N       1.403570      2.416140     -0.011439
  H      -0.467185     -1.084601     -0.285179
  H       0.340701     -0.108116     -1.522937
  H       1.049287     -0.176119      1.476624
  H       2.010798     -0.779682      0.131470
  Li     -0.320152      3.257806     -0.368966
  N       0.064209      5.445065      0.107381
  C       1.169320      5.390135     -0.228400
  C       2.487684      5.191346     -0.800209
  C       2.374098      4.931831     -2.335950
  C       1.184879      4.146655     -2.622903
  N       0.237316      3.493123     -2.739619
  H       3.141266      6.044853     -0.602288
  H       2.866098      4.281591     -0.311502
  H       2.308916      5.879441     -2.881430
  H       3.262488      4.393914     -2.679727
21
Coordinates from ORCA-job SN_m1_shell2_reduced_opt_relaxed E -536.010827412958
  N      -1.753411      1.765004     -0.202461
  C      -0.920992      0.956020     -0.296444
  C       0.029732     -0.128724     -0.458898
  C       1.299494     -0.003720      0.427221
  C       1.957937      1.360634      0.312510
  N       1.403582      2.391105     -0.038841
  H      -0.485769     -1.075050     -0.259102
  H       0.331937     -0.131241     -1.513362
  H       1.040754     -0.159842      1.482263
  H       1.988443     -0.807068      0.147337
  Li     -0.308772      3.243850     -0.380085
  N       0.072458      5.426794      0.130408
  C       1.175260      5.386591     -0.214611
  C       2.488313      5.204557     -0.801542
  C       2.367344      4.947344     -2.332738
  C       1.194370      4.139306     -2.624673
  N       0.260090      3.468211     -2.745301
  H       3.129835      6.068827     -0.606091
  H       2.896024      4.305611     -0.319700
  H       2.282708      5.895481     -2.874995
  H       3.265432      4.430871     -2.684109
21
Coordinates from ORCA-job SN_m1_shell2_reduced_opt_relaxed E -536.011020754490
  N      -1.758873      1.762426     -0.217280
  C      -0.926707      0.952326     -0.305985
  C       0.028939     -0.129621     -0.451600
  C       1.311935      0.018795      0.416114
  C       1.960371      1.385594      0.280713
  N       1.404832      2.406021     -0.076536
  H      -0.472065     -1.075645     -0.216924
  H       0.307156     -0.151661     -1.512476
  H       1.068750     -0.117148      1.477440
  H       1.999878     -0.785528      0.138144
  Li     -0.316645      3.238919     -0.399681
  N       0.071686      5.430094      0.145716
  C       1.173245      5.378425     -0.201683
  C       2.485005      5.185877     -0.786867
  C       2.365454      4.931885     -2.318288
  C       1.184648      4.142359     -2.628288
  N       0.242767      3.489070     -2.775490
  H       3.129087      6.049269     -0.592752
  H       2.894158      4.288831     -0.305621
  H       2.302120      5.881836     -2.860036
  H       3.259031      4.402440     -2.661835
21
Coordinates from ORCA-job SN_m1_shell2_reduced_opt_relaxed E -536.011205462412
  N      -1.755821      1.759967     -0.225038
  C      -0.917620      0.954103     -0.307796
  C       0.035980     -0.130919     -0.445058
  C       1.317706      0.022409      0.421932
  C       1.958095      1.392706      0.263245
  N       1.397285      2.405885     -0.106203
  H      -0.473350     -1.071842     -0.207278
  H       0.321349     -0.160492     -1.504183
  H       1.074430     -0.103196      1.484562
  H       2.007257     -0.783958      0.154024
  Li     -0.327286      3.234596     -0.422413
  N       0.076166      5.431952      0.163507
  C       1.174585      5.372140     -0.192762
  C       2.484492      5.174377     -0.780537
  C       2.362122      4.926082     -2.312400
  C       1.170367      4.158475     -2.633956
  N       0.218400      3.527096     -2.806521
  H       3.130231      6.037123     -0.587440
  H       2.895290      4.277441     -0.302141
  H       2.317301      5.878357     -2.852155
  H       3.247792      4.382260     -2.654603
21
Coordinates from ORCA-job SN_m1_shell2_reduced_opt_relaxed E -536.011384795750
  N      -1.753184      1.753170     -0.252145
  C      -0.906237      0.952903     -0.315764
  C       0.040094     -0.142321     -0.427463
  C       1.324978      0.026565      0.428406
  C       1.957605      1.396740      0.227298
  N       1.385509      2.396883     -0.162065
  H      -0.481346     -1.069876     -0.162905
  H       0.323663     -0.202214     -1.486113
  H       1.090817     -0.075299      1.495801
  H       2.015435     -0.783672      0.173981
  Li     -0.338372      3.228061     -0.463824
  N       0.084235      5.432901      0.192056
  C       1.177945      5.363931     -0.177464
  C       2.486626      5.163478     -0.768842
  C       2.359880      4.925784     -2.302679
  C       1.153765      4.188488     -2.640267
  N       0.189672      3.588680     -2.855506
  H       3.131963      6.026869     -0.576366
  H       2.901013      4.266943     -0.294247
  H       2.337162      5.882323     -2.836711
  H       3.233549      4.364225     -2.648393
21
Coordinates from ORCA-job SN_m1_shell2_reduced_opt_relaxed E -536.011501482041
  N      -1.749904      1.748778     -0.280873
  C      -0.898886      0.950699     -0.323624
  C       0.035492     -0.158159     -0.406257
  C       1.328061      0.026950      0.433488
  C       1.958348      1.391677      0.193206
  N       1.382000      2.382627     -0.214602
  H      -0.497097     -1.068505     -0.105699
  H       0.309901     -0.257816     -1.464384
  H       1.106852     -0.051568      1.505644
  H       2.016910     -0.788060      0.189388
  Li     -0.336620      3.221719     -0.505161
  N       0.089722      5.425676      0.211278
  C       1.181337      5.356533     -0.164789
  C       2.489680      5.159225     -0.759483
  C       2.359153      4.938628     -2.295795
  C       1.148368      4.215413     -2.648014
  N       0.181197      3.631335     -2.893549
  H       3.134600      6.021991     -0.562489
  H       2.905808      4.260008     -0.292029
  H       2.342253      5.902256     -2.817484
  H       3.227596      4.375156     -2.651986
21
Coordinates from ORCA-job SN_m1_shell2_reduced_opt_relaxed E -536.011629207312
  N      -1.745992      1.745630     -0.310536
  C      -0.893112      0.948301     -0.329904
  C       0.023955     -0.178212     -0.377610
  C       1.329469      0.027108      0.438342
  C       1.960318      1.381881      0.154841
  N       1.385528      2.363347     -0.278091
  H      -0.519917     -1.064227     -0.028855
  H       0.282008     -0.331314     -1.433076
  H       1.125207     -0.025870      1.515207
  H       2.015012     -0.793650      0.204424
  Li     -0.324536      3.212322     -0.559828
  N       0.093083      5.407027      0.226160
  C       1.184366      5.344764     -0.151899
  C       2.492824      5.155486     -0.749891
  C       2.359483      4.964044     -2.289416
  C       1.150382      4.246013     -2.660198
  N       0.185729      3.669460     -2.934151
  H       3.139115      6.014149     -0.540521
  H       2.906608      4.247787     -0.296770
  H       2.337580      5.939287     -2.789067
  H       3.227662      4.411231     -2.662374
21
Coordinates from ORCA-job SN_m1_shell2_reduced_opt_relaxed E -536.011746002296
  N      -1.743358      1.743235     -0.331958
  C      -0.889650      0.946828     -0.332263
  C       0.010709     -0.195447     -0.348684
  C       1.330318      0.026801      0.442212
  C       1.962767      1.370736      0.123273
  N       1.392858      2.343666     -0.334763
  H      -0.539150     -1.057510      0.046516
  H       0.249743     -0.398599     -1.399409
  H       1.141763     -0.005042      1.522471
  H       2.011328     -0.799640      0.215383
  Li     -0.310133      3.202457     -0.614729
  N       0.092226      5.381336      0.230856
  C       1.185060      5.330231     -0.144080
  C       2.494596      5.151069     -0.743043
  C       2.361884      4.995079     -2.286191
  C       1.157862      4.276312     -2.673303
  N       0.198044      3.700768     -2.966030
  H       3.145404      6.001036     -0.514843
  H       2.899591      4.229245     -0.310009
  H       2.329018      5.982599     -2.760438
  H       3.233888      4.459401     -2.674180
21
Coordinates from ORCA-job SN_m1_shell2_reduced_opt_relaxed E -536.004564957986
  N      -1.729683      1.755531     -0.334135
  C      -0.847690      0.988433     -0.325647
  C       0.046347     -0.157546     -0.352950
  C       1.325029      0.033296      0.426386
  C       1.958560      1.359521      0.134135
  N       1.365081      2.308795     -0.316837
  H      -0.525049     -0.993342      0.003315
  H       0.314499     -0.359504     -1.380661
  H       1.132936     -0.015027      1.481819
  H       2.012401     -0.785294      0.191546
  Li     -0.310372      3.210276     -0.608995
  N       0.109679      5.397864      0.247482
  C       1.186866      5.334501     -0.143288
  C       2.473001      5.150449     -0.744467
  C       2.351044      4.942515     -2.275638
  C       1.162525      4.258726     -2.644754
  N       0.210028      3.734139     -2.952823
  H       3.097628      5.997423     -0.521382
  H       2.861486      4.253929     -0.309849
  H       2.336674      5.894955     -2.757875
  H       3.183778      4.374920     -2.668596
21
Coordinates from ORCA-job SN_m1_shell2_reduced_opt_relaxed E -536.011593239018
  N      -1.746873      1.739981     -0.322425
  C      -0.884398      0.957567     -0.316243
  C       0.007791     -0.187016     -0.336134
  C       1.337363      0.025522      0.430499
  C       1.973926      1.358808      0.097809
  N       1.389206      2.316906     -0.358395
  H      -0.546594     -1.035549      0.057435
  H       0.240778     -0.394122     -1.384695
  H       1.162467     -0.001931      1.514895
  H       2.019282     -0.802632      0.200802
  Li     -0.328734      3.196707     -0.631661
  N       0.084101      5.372280      0.234260
  C       1.175868      5.326431     -0.147271
  C       2.485967      5.162924     -0.740193
  C       2.373912      4.986661     -2.280749
  C       1.166125      4.270909     -2.670703
  N       0.190136      3.724247     -2.970563
  H       3.126720      6.022331     -0.500370
  H       2.890844      4.241419     -0.300773
  H       2.353923      5.968866     -2.776822
  H       3.242960      4.434253     -2.651915
21
Coordinates from ORCA-job SN_m1_shell2_reduced_opt_relaxed E -536.008621358304
  N      -1.753829      1.756712     -0.334226
  C      -0.891843      0.945615     -0.328174
  C       0.001918     -0.223773     -0.340290
  C       1.342732      0.019290      0.442026
  C       1.975605      1.379335      0.084544
  N       1.388109      2.354116     -0.378501
  H      -0.552078     -1.105864      0.104566
  H       0.212660     -0.451148     -1.418037
  H       1.167406      0.018452      1.535740
  H       2.000885     -0.819785      0.230430
  Li     -0.322079      3.204279     -0.640342
  N       0.093708      5.371823      0.245240
  C       1.180956      5.327485     -0.135228
  C       2.491933      5.159076     -0.738414
  C       2.369007      5.005735     -2.287579
  C       1.179362      4.292179     -2.679149
  N       0.213255      3.744735     -2.971635
  H       3.133199      6.007486     -0.511493
  H       2.902029      4.247071     -0.307248
  H       2.342656      5.974232     -2.766261
  H       3.239177      4.477510     -2.659179
21
Coordinates from ORCA-job SN_m1_shell2_reduced_opt_relaxed E -536.009141343313
  N      -1.774009      1.726928     -0.317717
  C      -0.911520      0.939279     -0.323079
  C       0.019952     -0.188325     -0.343647
  C       1.348228      0.034931      0.425416
  C       1.918222      1.394915      0.123264
  N       1.351439      2.376337     -0.346665
  H      -0.492440     -1.056249      0.080627
  H       0.229317     -0.376095     -1.384584
  H       1.176440     -0.014758      1.482346
  H       2.046754     -0.765412      0.186696
  Li     -0.324461      3.210929     -0.630547
  N       0.077727      5.396370      0.220613
  C       1.164333      5.327317     -0.146612
  C       2.487990      5.124230     -0.736052
  C       2.376240      4.982280     -2.283988
  C       1.180399      4.273210     -2.663132
  N       0.185725      3.730244     -2.953606
  H       3.138207      5.957244     -0.528860
  H       2.884038      4.203439     -0.297671
  H       2.362074      5.969448     -2.766617
  H       3.270115      4.438301     -2.649400
21
Coordinates from ORCA-job SN_m1_shell2_reduced_opt_relaxed E -536.009815664514
  N      -1.748345      1.715688     -0.319040
  C      -0.897454      0.935934     -0.319022
  C      -0.003000     -0.191643     -0.333647
  C       1.331373      0.035203      0.422039
  C       1.952009      1.373774      0.109920
  N       1.389943      2.333102     -0.347519
  H      -0.527747     -1.032578      0.077675
  H       0.210710     -0.403426     -1.372755
  H       1.158821     -0.002673      1.505398
  H       2.024911     -0.784220      0.174825
  Li     -0.319090      3.195220     -0.636121
  N       0.066759      5.376616      0.221373
  C       1.173803      5.325462     -0.155511
  C       2.495944      5.154088     -0.739797
  C       2.373761      4.995127     -2.283801
  C       1.179552      4.259167     -2.675834
  N       0.204751      3.714217     -2.957095
  H       3.152677      6.018668     -0.495841
  H       2.902687      4.219531     -0.308141
  H       2.342569      5.983065     -2.769961
  H       3.250137      4.464238     -2.650358
21
Coordinates from ORCA-job SN_m1_shell2_reduced_opt_relaxed E -536.011143216527
  N      -1.759880      1.732825     -0.305587
  C      -0.900856      0.941228     -0.311883
  C      -0.002084     -0.197092     -0.333711
  C       1.340068      0.036519      0.421149
  C       1.970546      1.380722      0.102013
  N       1.399140      2.341097     -0.358207
  H      -0.544575     -1.054780      0.093585
  H       0.209223     -0.416527     -1.400337
  H       1.178748     -0.000227      1.517581
  H       2.019838     -0.786524      0.172156
  Li     -0.312656      3.201223     -0.639816
  N       0.092898      5.377313      0.211934
  C       1.181270      5.328781     -0.153913
  C       2.478341      5.152789     -0.734282
  C       2.377327      4.993638     -2.281175
  C       1.176261      4.262075     -2.686351
  N       0.198826      3.715710     -2.967820
  H       3.122070      6.000207     -0.484438
  H       2.869711      4.238671     -0.303952
  H       2.357332      5.983202     -2.765833
  H       3.263226      4.453709     -2.644326
21
Coordinates from ORCA-job SN_m1_shell2_reduced_opt_relaxed E -536.011515544256
  N      -1.773189      1.742228     -0.311912
  C      -0.902829      0.944724     -0.315707
  C       0.006752     -0.202418     -0.335378
  C       1.342262      0.024486      0.426203
  C       1.961046      1.376283      0.110689
  N       1.381517      2.347884     -0.354305
  H      -0.532584     -1.066334      0.088795
  H       0.219138     -0.416668     -1.390871
  H       1.174584     -0.013205      1.507162
  H       2.018639     -0.796615      0.187422
  Li     -0.324092      3.206652     -0.639161
  N       0.073366      5.380468      0.216428
  C       1.170991      5.332747     -0.152062
  C       2.491065      5.155760     -0.740632
  C       2.378944      4.998074     -2.285679
  C       1.183669      4.269907     -2.679586
  N       0.201748      3.726082     -2.957603
  H       3.139597      6.006052     -0.501980
  H       2.893518      4.228072     -0.307705
  H       2.350336      5.975603     -2.764944
  H       3.260292      4.464782     -2.652387
21
Coordinates from ORCA-job SN_m1_shell2_reduced_opt_relaxed E -536.011556417985
  N      -1.751396      1.728180     -0.306836
  C      -0.905680      0.940183     -0.310036
  C      -0.008380     -0.200416     -0.330130
  C       1.339686      0.017506      0.434191
  C       1.956860      1.364149      0.107255
  N       1.384800      2.336039     -0.357789
  H      -0.545697     -1.056977      0.083485
  H       0.212069     -0.406766     -1.381729
  H       1.171324     -0.028842      1.519428
  H       2.024275     -0.803980      0.183447
  Li     -0.320880      3.199250     -0.644360
  N       0.071500      5.372953      0.218311
  C       1.164035      5.329536     -0.154675
  C       2.488195      5.162349     -0.744822
  C       2.384303      5.005580     -2.290149
  C       1.197452      4.277364     -2.676626
  N       0.209844      3.737958     -2.950140
  H       3.127665      6.010847     -0.511306
  H       2.895935      4.238485     -0.307084
  H       2.352008      5.981391     -2.780081
  H       3.266850      4.479775     -2.653567
21
Coordinates from ORCA-job SN_m1_shell2_reduced_opt_relaxed E -536.011824135382
  N      -1.755206      1.732507     -0.304033
  C      -0.895003      0.946833     -0.307869
  C       0.002762     -0.194310     -0.328396
  C       1.335200      0.030632      0.423534
  C       1.967793      1.368959      0.098877
  N       1.393653      2.328851     -0.362807
  H      -0.536358     -1.044930      0.090272
  H       0.217418     -0.415148     -1.377287
  H       1.170462     -0.001505      1.503189
  H       2.008709     -0.795777      0.181844
  Li     -0.319552      3.198805     -0.647344
  N       0.074734      5.367487      0.209843
  C       1.171945      5.323321     -0.157039
  C       2.485995      5.154496     -0.738728
  C       2.379239      5.000980     -2.283426
  C       1.181715      4.266711     -2.683671
  N       0.198027      3.724072     -2.959299
  H       3.132846      6.003714     -0.485289
  H       2.880898      4.229809     -0.311130
  H       2.351888      5.995359     -2.766244
  H       3.267605      4.463696     -2.648210
21
Coordinates from ORCA-job SN_m1_shell2_reduced_opt_relaxed E -536.011846446098
  N      -1.765867      1.741840     -0.294383
  C      -0.902474      0.941542     -0.303717
  C      -0.002489     -0.206390     -0.328864
  C       1.341124      0.022927      0.424432
  C       1.961044      1.373122      0.094439
  N       1.388921      2.340345     -0.371297
  H      -0.539612     -1.065570      0.098917
  H       0.201787     -0.422691     -1.388054
  H       1.181338     -0.007004      1.512679
  H       2.016086     -0.800914      0.185487
  Li     -0.321526      3.199391     -0.656605
  N       0.076557      5.362516      0.211413
  C       1.167786      5.324877     -0.155615
  C       2.481922      5.159962     -0.739883
  C       2.384626      5.005133     -2.286461
  C       1.196817      4.270504     -2.685195
  N       0.209317      3.738616     -2.954685
  H       3.131513      6.013723     -0.491725
  H       2.882928      4.233221     -0.307698
  H       2.354342      5.981608     -2.772226
  H       3.270633      4.477804     -2.644172
21
Coordinates from ORCA-job SN_m1_shell2_reduced_opt_relaxed E -536.012084480820
  N      -1.759671      1.740907     -0.306995
  C      -0.897150      0.951658     -0.303850
  C      -0.004172     -0.199520     -0.316667
  C       1.345005      0.023473      0.425551
  C       1.966910      1.365726      0.079591
  N       1.387448      2.327980     -0.392000
  H      -0.546903     -1.048349      0.118212
  H       0.199807     -0.430023     -1.369430
  H       1.190132     -0.004321      1.512595
  H       2.021059     -0.805359      0.183738
  Li     -0.326793      3.196503     -0.673882
  N       0.063872      5.358324      0.215122
  C       1.163164      5.317591     -0.154041
  C       2.486367      5.154351     -0.736845
  C       2.388998      5.007454     -2.281827
  C       1.195964      4.278606     -2.685503
  N       0.204628      3.750148     -2.965039
  H       3.122023      5.997823     -0.487336
  H       2.884451      4.232192     -0.307480
  H       2.356852      5.989390     -2.759014
  H       3.272779      4.480007     -2.648113
21
Coordinates from ORCA-job SN_m1_shell2_reduced_opt_relaxed E -536.011814153935
  N      -1.747866      1.736691     -0.306510
  C      -0.892977      0.955162     -0.302066
  C      -0.000091     -0.193834     -0.313556
  C       1.339637      0.032396      0.431324
  C       1.969014      1.361601      0.073487
  N       1.390362      2.317435     -0.403649
  H      -0.546397     -1.042511      0.118890
  H       0.216813     -0.426427     -1.361643
  H       1.181353      0.017003      1.508225
  H       2.008085     -0.797587      0.198865
  Li     -0.320971      3.191777     -0.689121
  N       0.071791      5.342507      0.206364
  C       1.164560      5.307446     -0.153801
  C       2.486039      5.145538     -0.732888
  C       2.377927      5.012110     -2.281190
  C       1.190513      4.282552     -2.690438
  N       0.197896      3.755303     -2.970619
  H       3.139768      5.992577     -0.469665
  H       2.881085      4.203009     -0.314975
  H       2.342705      6.005827     -2.749403
  H       3.265525      4.485987     -2.650845
21
Coordinates from ORCA-job SN_m1_shell2_reduced_opt_relaxed E -536.012134616061
  N      -1.756539      1.737476     -0.299024
  C      -0.895034      0.947526     -0.296972
  C      -0.009826     -0.204869     -0.308471
  C       1.343683      0.022155      0.423003
  C       1.965032      1.363466      0.071512
  N       1.393328      2.324088     -0.404336
  H      -0.548617     -1.039267      0.138477
  H       0.177835     -0.447098     -1.359125
  H       1.197063     -0.000228      1.511981
  H       2.017630     -0.806967      0.179673
  Li     -0.319926      3.192031     -0.693189
  N       0.062654      5.344435      0.210133
  C       1.158923      5.311105     -0.155165
  C       2.477923      5.153271     -0.735738
  C       2.388895      5.019345     -2.284050
  C       1.205219      4.283202     -2.690401
  N       0.216836      3.757011     -2.965582
  H       3.125863      5.999486     -0.471787
  H       2.871990      4.220984     -0.313345
  H       2.356248      6.012016     -2.765135
  H       3.285590      4.495394     -2.645675
21
Coordinates from ORCA-job SN_m1_shell2_reduced_opt_relaxed E -536.011849253524
  N      -1.763446      1.741775     -0.300883
  C      -0.898244      0.949414     -0.298394
  C      -0.004300     -0.203108     -0.308441
  C       1.347306      0.035141      0.421639
  C       1.966591      1.374654      0.060611
  N       1.387163      2.329808     -0.417777
  H      -0.542058     -1.052596      0.143187
  H       0.189166     -0.444147     -1.363306
  H       1.202323      0.023037      1.510936
  H       2.018194     -0.794409      0.185740
  Li     -0.328564      3.192225     -0.701878
  N       0.066006      5.342290      0.205559
  C       1.165933      5.305594     -0.156917
  C       2.488200      5.144134     -0.729095
  C       2.392424      5.008425     -2.276077
  C       1.197834      4.282417     -2.695825
  N       0.196868      3.767161     -2.978911
  H       3.127181      5.985488     -0.466539
  H       2.880283      4.218712     -0.309851
  H       2.356835      5.987100     -2.735667
  H       3.269075      4.491447     -2.641322
21
Coordinates from ORCA-job SN_m1_shell2_reduced_opt_relaxed E -536.012305486035
  N      -1.755428      1.744703     -0.308604
  C      -0.892719      0.957160     -0.297007
  C      -0.009139     -0.203869     -0.294994
  C       1.347545      0.026738      0.424443
  C       1.969719      1.358553      0.046135
  N       1.390684      2.311878     -0.439435
  H      -0.555548     -1.037773      0.169166
  H       0.180876     -0.463808     -1.344967
  H       1.207056      0.021598      1.511281
  H       2.015498     -0.807577      0.191179
  Li     -0.322404      3.187371     -0.724771
  N       0.060002      5.329085      0.213522
  C       1.157478      5.300624     -0.150095
  C       2.481257      5.145579     -0.729073
  C       2.389724      5.023900     -2.277930
  C       1.205051      4.293574     -2.695795
  N       0.210073      3.778330     -2.981654
  H       3.124051      5.987266     -0.460913
  H       2.875895      4.209499     -0.314570
  H       2.352636      6.016198     -2.741825
  H       3.282462      4.505535     -2.647308
21
Coordinates from ORCA-job SN_m1_shell2_reduced_opt_relaxed E -536.012252034215
  N      -1.753649      1.732126     -0.303502
  C      -0.888445      0.948019     -0.295225
  C      -0.004912     -0.203503     -0.298239
  C       1.349345      0.035944      0.426157
  C       1.966282      1.370936      0.044645
  N       1.383934      2.320217     -0.443172
  H      -0.542178     -1.034525      0.153881
  H       0.183020     -0.454561     -1.343701
  H       1.208374      0.034945      1.514014
  H       2.020339     -0.795712      0.193223
  Li     -0.334488      3.187344     -0.726599
  N       0.064720      5.329430      0.209823
  C       1.160173      5.295240     -0.154170
  C       2.480611      5.137813     -0.726896
  C       2.390435      5.013416     -2.276139
  C       1.195912      4.298462     -2.695624
  N       0.192440      3.799462     -2.985044
  H       3.130535      5.979206     -0.452308
  H       2.869531      4.199924     -0.313478
  H       2.367638      6.006185     -2.745748
  H       3.275155      4.484195     -2.635110
21
Coordinates from ORCA-job SN_m1_shell2_reduced_opt_relaxed E -536.012373525937
  N      -1.754107      1.738033     -0.312432
  C      -0.890697      0.952367     -0.299202
  C      -0.008697     -0.205638     -0.288535
  C       1.351059      0.036764      0.422900
  C       1.967163      1.368251      0.032866
  N       1.386479      2.315339     -0.458332
  H      -0.549055     -1.032983      0.186464
  H       0.171492     -0.476019     -1.336059
  H       1.217362      0.040893      1.512150
  H       2.020224     -0.796979      0.190059
  Li     -0.327394      3.184958     -0.744160
  N       0.060334      5.322743      0.213990
  C       1.157937      5.292155     -0.149148
  C       2.480130      5.134986     -0.723572
  C       2.390862      5.020148     -2.273725
  C       1.201191      4.301347     -2.698682
  N       0.200685      3.802143     -2.991717
  H       3.127949      5.975100     -0.448035
  H       2.870521      4.197230     -0.314921
  H       2.361888      6.015193     -2.732989
  H       3.279445      4.498533     -2.640133
21
Coordinates from ORCA-job SN_m1_shell2_reduced_opt_relaxed E -536.012378450144
  N      -1.756506      1.745455     -0.311385
  C      -0.889481      0.960937     -0.292033
  C      -0.010456     -0.203534     -0.277358
  C       1.355152      0.034894      0.422386
  C       1.972953      1.358822      0.011485
  N       1.387176      2.301679     -0.486822
  H      -0.555435     -1.023400      0.204598
  H       0.167459     -0.483200     -1.322702
  H       1.227257      0.050973      1.510736
  H       2.019476     -0.804256      0.197727
  Li     -0.331329      3.180327     -0.768652
  N       0.054870      5.305292      0.214798
  C       1.152593      5.283689     -0.146023
  C       2.478047      5.133493     -0.720729
  C       2.394888      5.027303     -2.270981
  C       1.206599      4.307436     -2.702128
  N       0.202220      3.813053     -2.996759
  H       3.120184      5.970455     -0.439995
  H       2.870729      4.192675     -0.313930
  H       2.361809      6.022307     -2.725607
  H       3.286564      4.510161     -2.639839
21
Coordinates from ORCA-job SN_m1_shell2_reduced_opt_relaxed E -536.012443386014
  N      -1.754708      1.740643     -0.319746
  C      -0.887302      0.957725     -0.296681
  C      -0.010231     -0.206194     -0.269889
  C       1.357440      0.042349      0.422847
  C       1.970438      1.364525     -0.001171
  N       1.382393      2.301876     -0.505693
  H      -0.552284     -1.021370      0.225305
  H       0.161495     -0.498966     -1.312624
  H       1.234416      0.068001      1.511950
  H       2.021847     -0.797300      0.200253
  Li     -0.334239      3.178043     -0.788468
  N       0.055358      5.298311      0.218025
  C       1.153407      5.275782     -0.143579
  C       2.478400      5.124658     -0.716439
  C       2.394763      5.027068     -2.267817
  C       1.203295      4.317426     -2.703894
  N       0.195474      3.836272     -3.005267
  H       3.123737      5.959648     -0.431058
  H       2.869176      4.181734     -0.316134
  H       2.367524      6.026242     -2.716329
  H       3.284373      4.508087     -2.636805
21
Coordinates from ORCA-job SN_m1_shell2_reduced_opt_relaxed E -536.012504064615
  N      -1.755690      1.737794     -0.322867
  C      -0.888797      0.956086     -0.296654
  C      -0.011111     -0.204978     -0.258858
  C       1.362314      0.053719      0.420104
  C       1.969729      1.371511     -0.021852
  N       1.378759      2.300677     -0.533551
  H      -0.546566     -1.012932      0.252700
  H       0.149206     -0.512251     -1.299008
  H       1.247463      0.092480      1.510859
  H       2.025630     -0.788823      0.200531
  Li     -0.339039      3.172617     -0.820296
  N       0.051241      5.280714      0.215671
  C       1.150874      5.262075     -0.141685
  C       2.476619      5.111733     -0.710522
  C       2.397331      5.027208     -2.263047
  C       1.203427      4.326002     -2.707396
  N       0.190351      3.859135     -3.009456
  H       3.125208      5.944062     -0.415393
  H       2.867280      4.166688     -0.318475
  H       2.373194      6.030697     -2.700924
  H       3.287348      4.510346     -2.633096
21
Coordinates from ORCA-job SN_m1_shell2_reduced_opt_relaxed E -536.012552462044
  N      -1.756366      1.733206     -0.329564
  C      -0.887471      0.953251     -0.298254
  C      -0.009405     -0.206114     -0.249931
  C       1.365424      0.062582      0.422164
  C       1.967954      1.376154     -0.039720
  N       1.370179      2.297224     -0.559398
  H      -0.541185     -1.010951      0.271970
  H       0.147780     -0.524291     -1.287028
  H       1.253419      0.115992      1.512005
  H       2.026840     -0.782842      0.210192
  Li     -0.347404      3.168250     -0.848352
  N       0.051506      5.265249      0.217837
  C       1.151486      5.249025     -0.139267
  C       2.477826      5.101298     -0.706517
  C       2.399073      5.027425     -2.260040
  C       1.199716      4.339793     -2.708308
  N       0.180006      3.889310     -3.012339
  H       3.126900      5.930819     -0.406240
  H       2.870133      4.154256     -0.321136
  H       2.381448      6.035768     -2.690191
  H       3.286910      4.509159     -2.631095
21
Coordinates from ORCA-job SN_m1_shell2_reduced_opt_relaxed E -536.012618693442
  N      -1.759464      1.727688     -0.340085
  C      -0.888445      0.950417     -0.299869
  C      -0.007733     -0.206992     -0.234959
  C       1.370483      0.076887      0.423312
  C       1.965045      1.382656     -0.069646
  N       1.357636      2.290034     -0.602332
  H      -0.535187     -1.002747      0.303478
  H       0.144607     -0.544316     -1.266881
  H       1.264803      0.152138      1.512675
  H       2.031543     -0.772106      0.224493
  Li     -0.359401      3.160491     -0.894886
  N       0.051992      5.237753      0.223509
  C       1.152214      5.227112     -0.132893
  C       2.479076      5.085799     -0.699659
  C       2.402794      5.028244     -2.254359
  C       1.195376      4.360119     -2.709996
  N       0.166607      3.931532     -3.017647
  H       3.127548      5.912948     -0.390239
  H       2.875649      4.137195     -0.323120
  H       2.392581      6.042016     -2.671562
  H       3.287045      4.507694     -2.632546
21
Coordinates from ORCA-job SN_m1_shell2_reduced_opt_relaxed E -536.012698409379
  N      -1.766651      1.719086     -0.355979
  C      -0.892880      0.946052     -0.303025
  C      -0.005355     -0.205107     -0.215800
  C       1.376191      0.101641      0.427317
  C       1.961681      1.393464     -0.108642
  N       1.342872      2.278046     -0.666923
  H      -0.527149     -0.990097      0.342537
  H       0.145708     -0.564987     -1.240433
  H       1.276383      0.207756      1.514346
  H       2.037818     -0.750983      0.250456
  Li     -0.374696      3.147736     -0.963211
  N       0.055961      5.191962      0.234901
  C       1.156750      5.189846     -0.120033
  C       2.483221      5.060422     -0.689680
  C       2.405727      5.029004     -2.246446
  C       1.186534      4.388587     -2.712320
  N       0.148021      3.986267     -3.022566
  H       3.127311      5.885398     -0.371064
  H       2.889586      4.110218     -0.323381
  H       2.404942      6.051374     -2.644261
  H       3.282795      4.508878     -2.639007
21
Coordinates from ORCA-job SN_m1_shell2_reduced_opt_relaxed E -536.012741889771
  N      -1.777215      1.699728     -0.399102
  C      -0.893975      0.938652     -0.320309
  C       0.005769     -0.201001     -0.192809
  C       1.386383      0.146482      0.427507
  C       1.951395      1.422937     -0.167991
  N       1.309366      2.271574     -0.753978
  H      -0.505595     -0.968881      0.397107
  H       0.156803     -0.599454     -1.203519
  H       1.293024      0.297838      1.510764
  H       2.057744     -0.706538      0.282115
  Li     -0.407488      3.136189     -1.047122
  N       0.066999      5.141533      0.268167
  C       1.164574      5.140226     -0.094446
  C       2.487740      5.020687     -0.673162
  C       2.406201      5.012361     -2.229588
  C       1.165297      4.427090     -2.705973
  N       0.110910      4.076771     -3.033622
  H       3.129179      5.846794     -0.346918
  H       2.905905      4.070666     -0.320815
  H       2.436330      6.040167     -2.610044
  H       3.265424      4.470742     -2.639475
21
Coordinates from ORCA-job SN_m1_shell2_reduced_opt_relaxed E -536.012806081273
  N      -1.780562      1.698086     -0.392013
  C      -0.900933      0.932138     -0.317270
  C       0.002552     -0.205583     -0.197229
  C       1.381517      0.143768      0.431163
  C       1.951418      1.420200     -0.159646
  N       1.315730      2.267550     -0.754635
  H      -0.507728     -0.979514      0.385472
  H       0.158818     -0.593331     -1.210685
  H       1.282766      0.293865      1.513030
  H       2.053487     -0.707183      0.290298
  Li     -0.402822      3.132738     -1.041074
  N       0.071020      5.140884      0.271481
  C       1.168986      5.140910     -0.092683
  C       2.492017      5.027129     -0.675977
  C       2.405938      5.016921     -2.232612
  C       1.165523      4.427320     -2.706190
  N       0.114052      4.069438     -3.029911
  H       3.128742      5.858169     -0.354291
  H       2.915182      4.081345     -0.320731
  H       2.434395      6.043868     -2.616806
  H       3.264674      4.475841     -2.642903
21
Coordinates from ORCA-job SN_m1_shell2_reduced_opt_relaxed E -536.012886370768
  N      -1.783684      1.691889     -0.397921
  C      -0.906534      0.925333     -0.319102
  C       0.002379     -0.206128     -0.194866
  C       1.377708      0.154311      0.435841
  C       1.948927      1.427208     -0.163223
  N       1.320600      2.262822     -0.782093
  H      -0.504173     -0.979294      0.393326
  H       0.161930     -0.596285     -1.206532
  H       1.274923      0.309841      1.516337
  H       2.055623     -0.694649      0.302765
  Li     -0.398682      3.126639     -1.053381
  N       0.078220      5.131650      0.282692
  C       1.175904      5.127652     -0.083182
  C       2.496441      5.018521     -0.674165
  C       2.401795      5.020994     -2.230640
  C       1.159523      4.437609     -2.709471
  N       0.112079      4.077635     -3.037993
  H       3.130522      5.849823     -0.351935
  H       2.919788      4.069725     -0.324414
  H       2.436291      6.050664     -2.608796
  H       3.255190      4.478603     -2.646460
21
Coordinates from ORCA-job SN_m1_shell2_reduced_opt_relaxed E -536.012962117849
  N      -1.792451      1.675899     -0.405092
  C      -0.917164      0.907363     -0.322203
  C       0.008903     -0.209055     -0.197613
  C       1.374400      0.175064      0.440064
  C       1.941445      1.446686     -0.168270
  N       1.313007      2.262802     -0.811700
  H      -0.485397     -0.991794      0.389455
  H       0.177690     -0.592720     -1.209796
  H       1.260057      0.341532      1.517279
  H       2.063446     -0.666561      0.324203
  Li     -0.411071      3.120911     -1.063664
  N       0.089452      5.125405      0.298556
  C       1.184688      5.112485     -0.073529
  C       2.502885      5.007968     -0.672479
  C       2.401200      5.013304     -2.228349
  C       1.147378      4.454866     -2.704957
  N       0.094714      4.109226     -3.033270
  H       3.133839      5.842737     -0.349985
  H       2.927315      4.059297     -0.327965
  H       2.460018      6.040915     -2.608512
  H       3.240415      4.448233     -2.645387
