23
Coordinates from ORCA-job DOL_m1_shell2_reduced_opt_relaxed E -544.098487778357
  C           0.24365211193696      0.99898582973220     -0.11265937393870
  C           0.98335726661093     -0.10341558979402      0.66025193354141
  O           0.31422943939626     -1.29880230964209      0.25971070068491
  C          -1.02814947076355     -0.92226863210335      0.16396241745809
  O          -1.03062120054225      0.39037015968045     -0.44045728297481
  H           0.07871131680470      1.89779997509190      0.49212742680246
  H           0.74338049140794      1.26529482946073     -1.05111819707478
  H           0.89365720762440      0.04224748237974      1.74801237245130
  H           2.03716293745369     -0.19322860364042      0.38521012946894
  H          -1.56608756973682     -1.61226788320033     -0.49486476874367
  H          -1.50119456183347     -0.84996984831584      1.15975504149494
  Li         -1.93693148562065      0.77504671297978     -2.13574393675126
  C          -2.51873869491355      3.35155545182649     -0.75686339083780
  C          -3.38722591801672      4.49626055474323     -1.31989122878725
  O          -3.46947873798537      4.21529452380041     -2.71775073317970
  C          -2.23929054007845      3.62891007000935     -3.02722515211064
  O          -1.94787205844204      2.73435120065468     -1.93636458473057
  H          -1.71741860607258      3.72247165292575     -0.10644182105211
  H          -3.10346901308999      2.58859999457347     -0.23144944620578
  H          -2.91363306559792      5.47513814026302     -1.15083002646813
  H          -4.40317698820410      4.50453546541590     -0.91663503282829
  H          -2.32454898213038      3.03933072398107     -3.94613360111808
  H          -1.43408087820693      4.38359309917774     -3.09029944510045
