23
Coordinates from ORCA-job DOL_m1_shell2_oxidized_opt_relaxed E -543.520711549580
  C           0.90765954789576      0.35567025207708      0.66862539980095
  C           1.32817266658603     -1.09070890306581      0.43873996613333
  O           0.09149570939221     -1.81152483694976      0.37817949573155
  C          -0.97515603919658     -0.90131455559301      0.34465569091695
  O          -0.42574677547156      0.38142258752682      0.04402053998505
  H           0.81045907004538      0.59901439003181      1.73279332716826
  H           1.54298019211375      1.08311166962452      0.16125072932646
  H           1.94171160702565     -1.52805525739165      1.23758506623032
  H           1.84886509992645     -1.25946917076474     -0.51925260366607
  H          -1.69568551415626     -1.20712028843114     -0.42680301844761
  H          -1.45459423937985     -0.90724087369601      1.34432679106080
  Li         -1.25987012185547      1.88012024758513     -0.86057330441154
  C          -3.06269669326051      4.31752043201505     -1.00119766019776
  C          -4.08098768314439      4.72721921455151     -2.05388748127324
  O          -3.38481418258543      4.54929525728273     -3.29357609668971
  C          -2.22753215392720      3.79183994013132     -3.07971379384326
  O          -2.26219637976853      3.31695582539455     -1.73150280325136
  H          -2.41387764183808      5.14892646801894     -0.70241472250109
  H          -3.50587158966840      3.83509267877255     -0.12841508966269
  H          -4.41626268256335      5.77019618753297     -1.99691329638563
  H          -4.97432793461261      4.07940911840724     -2.08555976530269
  H          -2.20471596772168      2.94590751485028     -3.78410670227298
  H          -1.35477529383524      4.45356510208947     -3.25195866844796
