23
Coordinates from ORCA-job DOL_m1_shell2_oxidized_opt_relaxed E -543.460197987456
  C       0.020779      0.857182      0.946609
  C       0.639715      0.158104     -0.299910
  O      -0.533995     -0.243915     -1.068188
  C      -1.507655     -0.468544     -0.048001
  O      -1.416151      0.738413      0.715160
  H       0.283152      0.347948      1.879077
  H       0.259619      1.920132      1.027994
  H       1.219286     -0.729949     -0.029417
  H       1.243459      0.814771     -0.930068
  H      -2.503846     -0.554413     -0.494488
  H      -1.261210     -1.350656      0.560919
  Li     -1.500411      1.558931     -1.164026
  C      -2.040323      4.186442     -0.940694
  C      -3.371978      3.492139     -1.353373
  O      -2.933003      2.478020     -2.306396
  C      -1.777134      3.081972     -2.888228
  O      -1.037220      3.474915     -1.727959
  H      -2.027247      5.247723     -1.207392
  H      -1.782772      4.068702      0.114444
  H      -4.061126      4.183241     -1.848532
  H      -3.885438      2.982405     -0.535182
  H      -1.212144      2.336794     -3.457850
  H      -2.042124      3.949476     -3.510197
23
Coordinates from ORCA-job DOL_m1_shell2_oxidized_opt_relaxed E -543.463781818117
  C       0.048370      0.829885      0.954926
  C       0.655192      0.142386     -0.287999
  O      -0.523771     -0.245288     -1.055811
  C      -1.510143     -0.485029     -0.042331
  O      -1.391102      0.728492      0.718524
  H       0.294291      0.313594      1.897887
  H       0.307546      1.890470      1.052564
  H       1.233445     -0.764348     -0.039064
  H       1.273497      0.798283     -0.912732
  H      -2.507226     -0.562849     -0.488902
  H      -1.267014     -1.368596      0.563291
  Li     -1.498499      1.560492     -1.162220
  C      -2.069216      4.211699     -0.951548
  C      -3.384548      3.512279     -1.358849
  O      -2.935326      2.492936     -2.301631
  C      -1.778927      3.090520     -2.904051
  O      -1.059754      3.489943     -1.724857
  H      -2.041457      5.277771     -1.232392
  H      -1.820957      4.117905      0.111941
  H      -4.090000      4.188115     -1.872780
  H      -3.907740      3.013011     -0.534276
  H      -1.210078      2.343311     -3.467602
  H      -2.044350      3.954850     -3.527786
23
Coordinates from ORCA-job DOL_m1_shell2_oxidized_opt_relaxed E -543.466283754671
  C       0.092090      0.772271      0.977421
  C       0.680898      0.103420     -0.266189
  O      -0.503065     -0.249810     -1.037103
  C      -1.496895     -0.511017     -0.026989
  O      -1.346604      0.709079      0.731015
  H       0.305058      0.246861      1.927973
  H       0.381003      1.823206      1.105048
  H       1.249705     -0.825640     -0.061172
  H       1.318478      0.754733     -0.879023
  H      -2.494958     -0.577733     -0.470600
  H      -1.253226     -1.397133      0.572248
  Li     -1.493558      1.566847     -1.154618
  C      -2.116026      4.263365     -0.981278
  C      -3.409807      3.550956     -1.379585
  O      -2.944202      2.518056     -2.294400
  C      -1.792863      3.116400     -2.920460
  O      -1.097075      3.522491     -1.720954
  H      -2.062407      5.325974     -1.286239
  H      -1.881075      4.211218      0.089263
  H      -4.136763      4.189337     -1.920709
  H      -3.944779      3.070546     -0.549296
  H      -1.217538      2.369439     -3.475546
  H      -2.064159      3.976967     -3.544504
23
Coordinates from ORCA-job DOL_m1_shell2_oxidized_opt_relaxed E -543.467279517710
  C       0.123042      0.725152      0.999557
  C       0.701208      0.066191     -0.251468
  O      -0.488368     -0.258297     -1.024893
  C      -1.479397     -0.527971     -0.012216
  O      -1.314307      0.692586      0.745044
  H       0.315222      0.191186      1.949234
  H       0.430871      1.767782      1.147390
  H       1.261738     -0.873120     -0.075378
  H       1.348163      0.715436     -0.856230
  H      -2.479248     -0.586786     -0.451714
  H      -1.233223     -1.416126      0.582494
  Li     -1.489453      1.573132     -1.147371
  C      -2.148663      4.306857     -1.007551
  C      -3.433626      3.581187     -1.402229
  O      -2.953522      2.536431     -2.294602
  C      -1.807082      3.140893     -2.927051
  O      -1.122646      3.551342     -1.720582
  H      -2.082302      5.363173     -1.329692
  H      -1.922892      4.281441      0.065649
  H      -4.171349      4.193276     -1.957853
  H      -3.972599      3.111742     -0.568568
  H      -1.225437      2.395211     -3.476236
  H      -2.083897      3.999115     -3.551430
23
Coordinates from ORCA-job DOL_m1_shell2_oxidized_opt_relaxed E -543.468367701186
  C       0.166158      0.659031      1.032501
  C       0.730904      0.008970     -0.232450
  O      -0.469001     -0.277004     -1.007549
  C      -1.451900     -0.549522      0.010695
  O      -1.269855      0.666508      0.769183
  H       0.337428      0.110293      1.975163
  H       0.496893      1.690348      1.201775
  H       1.279072     -0.939466     -0.086533
  H       1.385571      0.657670     -0.827823
  H      -2.455052     -0.595854     -0.421956
  H      -1.203708     -1.441396      0.598958
  Li     -1.483513      1.582986     -1.136461
  C      -2.193410      4.369176     -1.044253
  C      -3.470835      3.624139     -1.438196
  O      -2.968633      2.564047     -2.302078
  C      -1.827617      3.177567     -2.933255
  O      -1.156886      3.596719     -1.723510
  H      -2.119537      5.415703     -1.388221
  H      -1.980799      4.372155      0.030971
  H      -4.216138      4.207394     -2.008843
  H      -4.010657      3.165606     -0.600196
  H      -1.235534      2.433439     -3.472718
  H      -2.110716      4.031323     -3.560900
23
Coordinates from ORCA-job DOL_m1_shell2_oxidized_opt_relaxed E -543.469263634398
  C       0.208617      0.598935      1.062766
  C       0.759944     -0.047169     -0.215789
  O      -0.451477     -0.302200     -0.989041
  C      -1.426462     -0.568476      0.034124
  O      -1.227440      0.638203      0.796973
  H       0.369415      0.033181      1.994583
  H       0.557525      1.621154      1.243453
  H       1.295605     -1.001684     -0.086227
  H       1.416600      0.603182     -0.805361
  H      -2.433167     -0.599843     -0.391644
  H      -1.181414     -1.465884      0.615615
  Li     -1.477664      1.593326     -1.125400
  C      -2.236593      4.427012     -1.075863
  C      -3.508289      3.664633     -1.473795
  O      -2.984696      2.594052     -2.316441
  C      -1.845311      3.213042     -2.938290
  O      -1.188709      3.645561     -1.729545
  H      -2.166233      5.465240     -1.438000
  H      -2.036794      4.446284      0.000586
  H      -4.253310      4.230936     -2.055957
  H      -4.045501      3.211184     -0.632620
  H      -1.241709      2.469190     -3.465400
  H      -2.130705      4.059976     -3.574424
23
Coordinates from ORCA-job DOL_m1_shell2_oxidized_opt_relaxed E -543.470038615967
  C       0.250874      0.547155      1.088196
  C       0.787425     -0.099278     -0.201586
  O      -0.435302     -0.333584     -0.968872
  C      -1.405079     -0.585616      0.057867
  O      -1.186820      0.607970      0.828623
  H       0.411067     -0.036742      2.007518
  H       0.613129      1.563487      1.270533
  H       1.310313     -1.059346     -0.075344
  H       1.441570      0.553340     -0.790073
  H      -2.415150     -0.598911     -0.361510
  H      -1.170919     -1.491133      0.631868
  Li     -1.471787      1.604140     -1.114037
  C      -2.278661      4.478061     -1.100326
  C      -3.544074      3.701334     -1.506731
  O      -3.001518      2.626852     -2.336835
  C      -1.858928      3.246569     -2.943593
  O      -1.218273      3.697896     -1.738026
  H      -2.220974      5.510867     -1.476475
  H      -2.090369      4.502231     -0.022726
  H      -4.282120      4.262477     -2.099481
  H      -4.077963      3.247156     -0.664779
  H      -1.243031      2.501393     -3.455105
  H      -2.141174      4.083513     -3.594804
23
Coordinates from ORCA-job DOL_m1_shell2_oxidized_opt_relaxed E -543.470484871828
  C       0.282820      0.514851      1.102263
  C       0.806136     -0.134209     -0.192830
  O      -0.423528     -0.361264     -0.952304
  C      -1.392408     -0.598125      0.076577
  O      -1.156864      0.584212      0.855737
  H       0.448942     -0.081413      2.013196
  H       0.652048      1.529165      1.280314
  H       1.318747     -1.099634     -0.061494
  H       1.457465      0.517773     -0.784844
  H      -2.404661     -0.595367     -0.338425
  H      -1.173654     -1.511990      0.644016
  Li     -1.467000      1.612894     -1.104574
  C      -2.310205      4.510272     -1.113070
  C      -3.568573      3.725379     -1.528753
  O      -3.014652      2.653640     -2.355516
  C      -1.865815      3.270913     -2.948531
  O      -1.239215      3.740158     -1.745072
  H      -2.266143      5.542008     -1.495624
  H      -2.129233      4.532150     -0.034343
  H      -4.297475      4.289676     -2.130743
  H      -4.103257      3.267437     -0.689542
  H      -1.240211      2.523730     -3.445853
  H      -2.141032      4.097577     -3.616280
23
Coordinates from ORCA-job DOL_m1_shell2_oxidized_opt_relaxed E -543.470670300478
  C       0.303461      0.496926      1.107981
  C       0.816388     -0.154599     -0.188274
  O      -0.415932     -0.380360     -0.941108
  C      -1.385640     -0.606720      0.089754
  O      -1.137287      0.568902      0.874904
  H       0.475800     -0.103462      2.016301
  H       0.676516      1.510703      1.282352
  H       1.322028     -1.124480     -0.052497
  H       1.468178      0.492809     -0.785076
  H      -2.399031     -0.592578     -0.322571
  H      -1.180381     -1.526918      0.652325
  Li     -1.463394      1.619192     -1.097298
  C      -2.330955      4.527466     -1.119035
  C      -3.582514      3.738727     -1.542018
  O      -3.023096      2.671485     -2.368111
  C      -1.868692      3.287035     -2.952407
  O      -1.252302      3.768614     -1.748750
  H      -2.294597      5.560650     -1.501630
  H      -2.154358      4.547583     -0.039286
  H      -4.304875      4.306120     -2.151349
  H      -4.122946      3.278404     -0.707596
  H      -1.236723      2.538399     -3.439731
  H      -2.137414      4.105935     -3.632576
23
Coordinates from ORCA-job DOL_m1_shell2_oxidized_opt_relaxed E -543.470747773518
  C       0.315231      0.487890      1.109178
  C       0.820666     -0.166096     -0.186502
  O      -0.412134     -0.391929     -0.934635
  C      -1.382237     -0.612082      0.098513
  O      -1.125873      0.560339      0.886831
  H       0.492869     -0.110310      2.018756
  H       0.690669      1.501570      1.281174
  H       1.322694     -1.138656     -0.048591
  H       1.475274      0.474816     -0.787585
  H      -2.396209     -0.590933     -0.312173
  H      -1.185833     -1.536097      0.658080
  Li     -1.460808      1.623424     -1.091996
  C      -2.343242      4.535323     -1.121653
  C      -3.589491      3.745072     -1.550311
  O      -3.027467      2.681459     -2.375684
  C      -1.869423      3.297158     -2.954822
  O      -1.259472      3.785370     -1.749865
  H      -2.309411      5.570934     -1.499982
  H      -2.169650      4.555048     -0.041038
  H      -4.308542      4.313809     -2.164142
  H      -4.137679      3.284263     -0.720977
  H      -1.233632      2.547907     -3.436234
  H      -2.134066      4.111554     -3.642043
23
Coordinates from ORCA-job DOL_m1_shell2_oxidized_opt_relaxed E -543.470782979238
  C       0.321133      0.484197      1.108166
  C       0.821304     -0.172671     -0.186470
  O      -0.411435     -0.398448     -0.931355
  C      -1.380913     -0.614918      0.104226
  O      -1.120120      0.556258      0.893519
  H       0.503497     -0.108563      2.020686
  H       0.698132      1.498029      1.277969
  H       1.322272     -1.146252     -0.047629
  H       1.479277      0.461859     -0.790941
  H      -2.395248     -0.589857     -0.305324
  H      -1.188930     -1.540711      0.662381
  Li     -1.458953      1.626266     -1.088150
  C      -2.349804      4.537810     -1.122462
  C      -3.592470      3.747212     -1.555973
  O      -3.028758      2.685981     -2.380318
  C      -1.868788      3.303243     -2.955947
  O      -1.262656      3.793998     -1.749569
  H      -2.315938      5.576013     -1.494442
  H      -2.178731      4.557250     -0.041106
  H      -4.310401      4.316393     -2.171672
  H      -4.147837      3.286790     -0.731005
  H      -1.230698      2.554095     -3.434376
  H      -2.131702      4.115858     -3.645908
23
Coordinates from ORCA-job DOL_m1_shell2_oxidized_opt_relaxed E -543.470797694061
  C       0.322959      0.483896      1.106442
  C       0.820055     -0.175778     -0.187376
  O      -0.412875     -0.401075     -0.930268
  C      -1.381032     -0.615643      0.107283
  O      -1.118465      0.555381      0.896023
  H       0.508843     -0.103604      2.021614
  H       0.700804      1.498028      1.273901
  H       1.321359     -1.149251     -0.047988
  H       1.480267      0.454560     -0.793953
  H      -2.395652     -0.589112     -0.301409
  H      -1.189684     -1.541623      0.665324
  Li     -1.457777      1.627999     -1.085715
  C      -2.352173      4.537296     -1.122175
  C      -3.593078      3.746831     -1.559363
  O      -3.027877      2.686809     -2.382825
  C      -1.867373      3.306036     -2.956088
  O      -1.263151      3.796628     -1.748675
  H      -2.317617      5.577394     -1.488674
  H      -2.183111      4.555828     -0.040291
  H      -4.311036      4.316195     -2.175049
  H      -4.152709      3.286661     -0.737021
  H      -1.228054      2.557498     -3.433716
  H      -2.130391      4.118879     -3.645700
23
Coordinates from ORCA-job DOL_m1_shell2_oxidized_opt_relaxed E -543.470806684578
  C       0.323560      0.484684      1.104686
  C       0.818367     -0.177743     -0.188606
  O      -0.415255     -0.402208     -0.929823
  C      -1.381811     -0.615460      0.109422
  O      -1.118136      0.555792      0.896918
  H       0.512165     -0.098699      2.021806
  H       0.702026      1.499162      1.269412
  H       1.320060     -1.150894     -0.048599
  H       1.479727      0.450013     -0.796713
  H      -2.396769     -0.588426     -0.298292
  H      -1.189410     -1.540939      0.667906
  Li     -1.456765      1.629587     -1.083633
  C      -2.353180      4.535984     -1.121466
  C      -3.593054      3.745571     -1.561862
  O      -3.026032      2.686434     -2.384711
  C      -1.865561      3.307677     -2.955891
  O      -1.262799      3.797123     -1.747554
  H      -2.318206      5.577371     -1.483871
  H      -2.186008      4.552951     -0.039170
  H      -4.311182      4.315114     -2.177054
  H      -4.154825      3.285082     -0.741094
  H      -1.225268      2.560098     -3.433583
  H      -2.129410      4.121558     -3.643925
23
Coordinates from ORCA-job DOL_m1_shell2_oxidized_opt_relaxed E -543.470817218490
  C       0.324958      0.485651      1.102323
  C       0.816093     -0.180803     -0.190540
  O      -0.419086     -0.403764     -0.928918
  C      -1.383129     -0.614962      0.112851
  O      -1.117244      0.556728      0.898275
  H       0.517008     -0.093205      2.021438
  H       0.704485      1.500547      1.262589
  H       1.317466     -1.153876     -0.049428
  H       1.478202      0.444036     -0.800873
  H      -2.398785     -0.587318     -0.292956
  H      -1.188811     -1.539586      0.672105
  Li     -1.455016      1.632508     -1.080087
  C      -2.355098      4.534440     -1.120295
  C      -3.593331      3.743622     -1.565468
  O      -3.022968      2.686104     -2.387776
  C      -1.862571      3.310303     -2.955665
  O      -1.262502      3.798074     -1.745687
  H      -2.320208      5.577222     -1.478211
  H      -2.190869      4.548596     -0.037448
  H      -4.311274      4.313433     -2.180422
  H      -4.156936      3.281856     -0.746638
  H      -1.220528      2.564434     -3.433544
  H      -2.127625      4.125792     -3.641324
23
Coordinates from ORCA-job DOL_m1_shell2_oxidized_opt_relaxed E -543.470834026893
  C       0.328476      0.486479      1.098822
  C       0.812875     -0.186270     -0.193786
  O      -0.425546     -0.406469     -0.926914
  C      -1.385364     -0.614130      0.119176
  O      -1.114660      0.558477      0.901005
  H       0.525278     -0.086945      2.020167
  H       0.710154      1.501794      1.251793
  H       1.312359     -1.160007     -0.050961
  H       1.475391      0.434422     -0.807938
  H      -2.402400     -0.585413     -0.282777
  H      -1.188046     -1.537381      0.679624
  Li     -1.451678      1.638359     -1.073301
  C      -2.359333      4.532737     -1.118430
  C      -3.594394      3.740478     -1.571481
  O      -3.017764      2.686166     -2.393317
  C      -1.857432      3.315347     -2.955476
  O      -1.262654      3.800545     -1.742230
  H      -2.325274      5.577173     -1.470990
  H      -2.200081      4.542287     -0.034762
  H      -4.311481      4.310473     -2.187045
  H      -4.160042      3.275723     -0.755728
  H      -1.212035      2.572714     -3.433589
  H      -2.124115      4.133276     -3.637560
23
Coordinates from ORCA-job DOL_m1_shell2_oxidized_opt_relaxed E -543.470864729807
  C       0.337589      0.486530      1.092381
  C       0.807169     -0.197873     -0.200307
  O      -0.438403     -0.412340     -0.922010
  C      -1.389501     -0.612602      0.133051
  O      -1.107408      0.562085      0.907634
  H       0.542631     -0.078842      2.016661
  H       0.724287      1.502007      1.231646
  H       1.300948     -1.174078     -0.054612
  H       1.469607      0.414706     -0.822555
  H      -2.409659     -0.581390     -0.260134
  H      -1.187248     -1.533464      0.695640
  Li     -1.444218      1.651767     -1.058067
  C      -2.369813      4.530764     -1.115063
  C      -3.597383      3.734418     -1.583699
  O      -3.007366      2.687504     -2.405187
  C      -1.847013      3.326802     -2.955340
  O      -1.264105      3.807342     -1.734670
  H      -2.338381      5.577663     -1.459618
  H      -2.220598      4.532037     -0.029953
  H      -4.312128      4.304188     -2.202010
  H      -4.166602      3.262618     -0.774528
  H      -1.194128      2.591103     -3.433507
  H      -2.116045      4.148886     -3.631452
23
Coordinates from ORCA-job DOL_m1_shell2_oxidized_opt_relaxed E -543.470904814005
  C       0.351237      0.484474      1.084962
  C       0.800639     -0.212765     -0.208689
  O      -0.454745     -0.419890     -0.914902
  C      -1.394230     -0.610598      0.151770
  O      -1.096010      0.567096      0.916990
  H       0.564800     -0.074552      2.010947
  H       0.745292      1.499090      1.209071
  H       1.285444     -1.193207     -0.060653
  H       1.461793      0.389914     -0.841687
  H      -2.418667     -0.575979     -0.229029
  H      -1.187106     -1.528781      0.716875
  Li     -1.433828      1.671029     -1.036482
  C      -2.385138      4.529835     -1.111604
  C      -3.601859      3.726755     -1.599116
  O      -2.994156      2.690369     -2.420911
  C      -1.833829      3.342641     -2.955141
  O      -1.267128      3.817452     -1.724180
  H      -2.358012      5.578652     -1.449732
  H      -2.248497      4.522805     -0.024981
  H      -4.313401      4.295239     -2.222341
  H      -4.175006      3.244847     -0.798811
  H      -1.170745      2.616290     -3.432944
  H      -2.104615      4.169117     -3.625111
23
Coordinates from ORCA-job DOL_m1_shell2_oxidized_opt_relaxed E -543.470955746252
  C       0.366873      0.480044      1.078240
  C       0.794786     -0.227191     -0.217560
  O      -0.471198     -0.427281     -0.907093
  C      -1.398402     -0.608001      0.171526
  O      -1.082452      0.573119      0.926931
  H       0.586259     -0.077613      2.003533
  H       0.769750      1.492399      1.190854
  H       1.269326     -1.212762     -0.069148
  H       1.453027      0.366276     -0.861903
  H      -2.427464     -0.569842     -0.195514
  H      -1.188166     -1.523909      0.739079
  Li     -1.422310      1.693227     -1.011830
  C      -2.402489      4.530239     -1.109164
  C      -3.606916      3.718815     -1.614194
  O      -2.981173      2.694197     -2.437313
  C      -1.820596      3.359340     -2.954506
  O      -1.271356      3.828291     -1.712349
  H      -2.380428      5.579533     -1.445510
  H      -2.278222      4.518359     -0.021309
  H      -4.315312      4.284913     -2.243480
  H      -4.183443      3.225552     -0.823430
  H      -1.146749      2.642728     -3.431461
  H      -2.091111      4.189401     -3.620098
23
Coordinates from ORCA-job DOL_m1_shell2_oxidized_opt_relaxed E -543.471023335131
  C       0.382624      0.472742      1.073686
  C       0.791229     -0.238623     -0.225815
  O      -0.484637     -0.433392     -0.899998
  C      -1.401190     -0.604463      0.189230
  O      -1.068243      0.579764      0.935494
  H       0.602506     -0.090766      1.995212
  H       0.795587      1.481120      1.182696
  H       1.256425     -1.229285     -0.080348
  H       1.444860      0.348457     -0.880306
  H      -2.434478     -0.563036     -0.164927
  H      -1.190948     -1.519120      0.758748
  Li     -1.411047      1.716031     -0.986636
  C      -2.419806      4.532440     -1.108791
  C      -3.612365      3.712175     -1.626492
  O      -2.971581      2.698547     -2.452022
  C      -1.809380      3.373692     -2.952934
  O      -1.276800      3.837384     -1.700315
  H      -2.402218      5.580087     -1.450129
  H      -2.306030      4.522172     -0.020056
  H      -4.318623      4.274854     -2.261807
  H      -4.191286      3.208092     -0.844475
  H      -1.126222      2.665063     -3.428338
  H      -2.076144      4.205897     -3.617376
23
Coordinates from ORCA-job DOL_m1_shell2_oxidized_opt_relaxed E -543.471133396356
  C       0.399004      0.460376      1.072932
  C       0.791810     -0.248382     -0.231978
  O      -0.492186     -0.439657     -0.893616
  C      -1.401138     -0.600558      0.204019
  O      -1.052558      0.585092      0.942750
  H       0.613410     -0.116032      1.987673
  H       0.823720      1.462778      1.187820
  H       1.250503     -1.243331     -0.093600
  H       1.439844      0.335796     -0.894399
  H      -2.437673     -0.555183     -0.140000
  H      -1.195214     -1.515876      0.774119
  Li     -1.400482      1.738605     -0.961555
  C      -2.437503      4.538506     -1.112116
  C      -3.619770      3.709800     -1.636740
  O      -2.968694      2.704866     -2.464969
  C      -1.801983      3.384976     -2.950143
  O      -1.284807      3.845024     -1.689049
  H      -2.422589      5.582331     -1.464979
  H      -2.332505      4.537704     -0.022745
  H      -4.325605      4.268264     -2.277060
  H      -4.200785      3.196948     -0.861997
  H      -1.112104      2.680541     -3.422167
  H      -2.060462      4.217244     -3.617899
23
Coordinates from ORCA-job DOL_m1_shell2_oxidized_opt_relaxed E -543.471771284234
  C       0.423070      0.434730      1.079747
  C       0.799275     -0.274243     -0.229509
  O      -0.491215     -0.457570     -0.880038
  C      -1.391354     -0.608397      0.223355
  O      -1.028391      0.574173      0.960162
  H       0.637792     -0.148011      1.990338
  H       0.858421      1.432312      1.195737
  H       1.251839     -1.272978     -0.096445
  H       1.445482      0.305148     -0.897912
  H      -2.430075     -0.554193     -0.112598
  H      -1.190606     -1.527097      0.790027
  Li     -1.391098      1.758796     -0.938251
  C      -2.462837      4.558660     -1.123650
  C      -3.635842      3.722258     -1.657332
  O      -2.973165      2.723496     -2.482296
  C      -1.804410      3.406809     -2.952003
  O      -1.299961      3.869145     -1.686588
  H      -2.450859      5.600840     -1.481296
  H      -2.368342      4.563300     -0.033409
  H      -4.340180      4.276952     -2.303149
  H      -4.221252      3.204571     -0.889042
  H      -1.106900      2.704685     -3.416168
  H      -2.057158      4.236449     -3.625378
23
Coordinates from ORCA-job DOL_m1_shell2_oxidized_opt_relaxed E -543.471911153844
  C       0.436334      0.415253      1.087853
  C       0.809292     -0.288180     -0.225256
  O      -0.482168     -0.469570     -0.873917
  C      -1.383662     -0.613629      0.230789
  O      -1.014411      0.565425      0.966750
  H       0.645696     -0.175399      1.994336
  H       0.878753      1.408503      1.212332
  H       1.264465     -1.286575     -0.099392
  H       1.453937      0.293345     -0.893584
  H      -2.422169     -0.554311     -0.105363
  H      -1.188548     -1.535083      0.795307
  Li     -1.386811      1.769417     -0.924988
  C      -2.476875      4.574092     -1.134009
  C      -3.647848      3.736411     -1.667840
  O      -2.985786      2.736941     -2.491232
  C      -1.809603      3.414523     -2.952609
  O      -1.312596      3.878121     -1.686258
  H      -2.461996      5.613396     -1.498994
  H      -2.387840      4.588213     -0.043493
  H      -4.353927      4.289330     -2.313374
  H      -4.235185      3.219312     -0.900364
  H      -1.112566      2.707888     -3.410970
  H      -2.054253      4.242409     -3.631424
23
Coordinates from ORCA-job DOL_m1_shell2_oxidized_opt_relaxed E -543.472171401996
  C       0.438103      0.408825      1.091831
  C       0.816391     -0.291639     -0.221985
  O      -0.470965     -0.475609     -0.875849
  C      -1.380924     -0.612847      0.228043
  O      -1.011541      0.562963      0.961506
  H       0.643156     -0.183121      1.997905
  H       0.883056      1.400080      1.222560
  H       1.280679     -1.286106     -0.100155
  H       1.462107      0.292934     -0.887352
  H      -2.417167     -0.551600     -0.115071
  H      -1.189558     -1.535445      0.792333
  Li     -1.386050      1.772329     -0.919602
  C      -2.478799      4.578276     -1.138579
  C      -3.654107      3.747063     -1.671247
  O      -3.001728      2.742765     -2.494619
  C      -1.812659      3.408821     -2.949703
  O      -1.320098      3.869195     -1.684125
  H      -2.455702      5.616245     -1.505492
  H      -2.393024      4.598964     -0.047906
  H      -4.363320      4.302491     -2.310947
  H      -4.243827      3.234218     -0.902082
  H      -1.122710      2.693071     -3.404933
  H      -2.049081      4.237960     -3.630228
23
Coordinates from ORCA-job DOL_m1_shell2_oxidized_opt_relaxed E -543.472468293677
  C       0.436216      0.411241      1.090503
  C       0.818826     -0.291588     -0.221718
  O      -0.463547     -0.479204     -0.879815
  C      -1.381064     -0.606772      0.223708
  O      -1.012192      0.567254      0.951990
  H       0.639577     -0.178068      1.998114
  H       0.882338      1.402041      1.220749
  H       1.290008     -1.282826     -0.098811
  H       1.466553      0.293172     -0.885759
  H      -2.414804     -0.544304     -0.126579
  H      -1.191364     -1.529628      0.788190
  Li     -1.385018      1.775166     -0.914137
  C      -2.476548      4.574007     -1.137819
  C      -3.657955      3.752033     -1.673634
  O      -3.015231      2.745498     -2.498464
  C      -1.811982      3.399696     -2.943226
  O      -1.323566      3.852154     -1.677377
  H      -2.444352      5.611860     -1.503311
  H      -2.395345      4.595547     -0.046804
  H      -4.367587      4.313162     -2.308070
  H      -4.250899      3.241965     -0.904334
  H      -1.129790      2.675317     -3.396350
  H      -2.040043      4.232111     -3.622744
23
Coordinates from ORCA-job DOL_m1_shell2_oxidized_opt_relaxed E -543.472782807447
  C       0.433395      0.417882      1.086435
  C       0.819406     -0.289391     -0.223124
  O      -0.458003     -0.481638     -0.883852
  C      -1.382220     -0.598137      0.218983
  O      -1.013904      0.575669      0.941037
  H       0.635088     -0.168405      1.995981
  H       0.880641      1.408630      1.213330
  H       1.294697     -1.278688     -0.096195
  H       1.469164      0.293985     -0.887013
  H      -2.413563     -0.534619     -0.137986
  H      -1.193715     -1.521205      0.783544
  Li     -1.384032      1.777619     -0.909075
  C      -2.473041      4.565695     -1.133838
  C      -3.660842      3.754254     -1.675118
  O      -3.027340      2.747752     -2.502775
  C      -1.810031      3.389284     -2.935074
  O      -1.325117      3.831715     -1.667788
  H      -2.431382      5.603477     -1.497754
  H      -2.397315      4.585159     -0.042426
  H      -4.368140      4.322972     -2.306079
  H      -4.257683      3.245836     -0.907121
  H      -1.135421      2.656727     -3.386256
  H      -2.028412      4.225260     -3.613534
23
Coordinates from ORCA-job DOL_m1_shell2_oxidized_opt_relaxed E -543.473273399198
  C       0.429949      0.429530      1.079037
  C       0.819741     -0.285636     -0.225874
  O      -0.450741     -0.485909     -0.888689
  C      -1.383619     -0.584941      0.212531
  O      -1.015986      0.590364      0.924844
  H       0.628547     -0.152420      1.991593
  H       0.879313      1.420184      1.199182
  H       1.298709     -1.273203     -0.090845
  H       1.472204      0.294327     -0.890813
  H      -2.411627     -0.520075     -0.153557
  H      -1.196825     -1.508332      0.777225
  Li     -1.382581      1.781186     -0.901445
  C      -2.468314      4.551726     -1.125800
  C      -3.665195      3.757035     -1.677445
  O      -3.044909      2.752777     -2.510905
  C      -1.807431      3.374102     -2.922545
  O      -1.327028      3.800271     -1.651609
  H      -2.411851      5.589104     -1.487749
  H      -2.401919      4.566039     -0.033805
  H      -4.366359      4.338770     -2.304853
  H      -4.268934      3.249951     -0.913223
  H      -1.143766      2.629838     -3.370760
  H      -2.009146      4.215145     -3.600193
23
Coordinates from ORCA-job DOL_m1_shell2_oxidized_opt_relaxed E -543.474014045871
  C       0.427864      0.444941      1.068749
  C       0.821786     -0.282492     -0.228857
  O      -0.439177     -0.495924     -0.892822
  C      -1.383109     -0.568281      0.204924
  O      -1.016412      0.611003      0.903145
  H       0.620968     -0.131211      1.985626
  H       0.881081      1.435097      1.178059
  H       1.304313     -1.268288     -0.080379
  H       1.477566      0.291391     -0.896628
  H      -2.406412     -0.501716     -0.173679
  H      -1.199057     -1.492304      0.769717
  Li     -1.380411      1.786946     -0.889078
  C      -2.464144      4.532847     -1.113710
  C      -3.673538      3.764342     -1.682944
  O      -3.072353      2.765609     -2.526762
  C      -1.806425      3.354343     -2.904991
  O      -1.331878      3.755900     -1.627245
  H      -2.384570      5.568872     -1.473552
  H      -2.413106      4.538414     -0.021041
  H      -4.362767      4.367183     -2.306187
  H      -4.289100      3.258260     -0.926609
  H      -1.158888      2.593098     -3.348425
  H      -1.979998      4.201802     -3.583007
23
Coordinates from ORCA-job DOL_m1_shell2_oxidized_opt_relaxed E -543.475137477517
  C       0.433502      0.457221      1.058915
  C       0.831258     -0.288254     -0.227612
  O      -0.416210     -0.521407     -0.890572
  C      -1.373312     -0.553663      0.198934
  O      -1.008474      0.633127      0.878897
  H       0.616798     -0.112253      1.981506
  H       0.893983      1.445747      1.151332
  H       1.315608     -1.273030     -0.057497
  H       1.491196      0.275976     -0.900330
  H      -2.389697     -0.483947     -0.197078
  H      -1.193431     -1.480032      0.761677
  Li     -1.377158      1.796425     -0.868647
  C      -2.466505      4.515314     -1.100325
  C      -3.693210      3.787101     -1.698162
  O      -3.118429      2.799633     -2.557743
  C      -1.814607      3.334743     -2.882530
  O      -1.345984      3.700928     -1.593932
  H      -2.351183      5.547575     -1.459429
  H      -2.441119      4.507260     -0.007204
  H      -4.359776      4.422944     -2.317778
  H      -4.328020      3.282165     -0.956040
  H      -1.190866      2.548635     -3.317071
  H      -1.942132      4.187627     -3.565009
23
Coordinates from ORCA-job DOL_m1_shell2_oxidized_opt_relaxed E -543.471483495223
  C       0.431469      0.521355      1.010369
  C       0.863391     -0.285758     -0.235515
  O      -0.332018     -0.620928     -0.904430
  C      -1.347748     -0.486160      0.166634
  O      -1.002659      0.723067      0.756409
  H       0.574775     -0.021210      1.950672
  H       0.912694      1.501485      1.065908
  H       1.395720     -1.237376      0.004861
  H       1.530792      0.249538     -0.929437
  H      -2.336660     -0.431302     -0.298753
  H      -1.186875     -1.404229      0.753245
  Li     -1.369750      1.837942     -0.782933
  C      -2.460974      4.422808     -1.038051
  C      -3.734464      3.869540     -1.750135
  O      -3.285244      2.923126     -2.693526
  C      -1.838688      3.226714     -2.787215
  O      -1.409330      3.459177     -1.452120
  H      -2.200151      5.428658     -1.384777
  H      -2.535620      4.392779      0.051226
  H      -4.318455      4.637803     -2.313148
  H      -4.458102      3.379511     -1.075023
  H      -1.330944      2.348593     -3.207347
  H      -1.788927      4.094699     -3.472612
23
Coordinates from ORCA-job DOL_m1_shell2_oxidized_opt_relaxed E -543.475272936221
  C       0.442212      0.456974      1.066020
  C       0.878979     -0.285599     -0.199251
  O      -0.338806     -0.585261     -0.876139
  C      -1.328692     -0.549213      0.158666
  O      -0.987215      0.646555      0.817103
  H       0.564127     -0.132221      1.982740
  H       0.905657      1.432363      1.177215
  H       1.394425     -1.243480     -0.005395
  H       1.525796      0.291386     -0.865323
  H      -2.322668     -0.494470     -0.289452
  H      -1.174099     -1.475476      0.731106
  Li     -1.384167      1.810166     -0.843557
  C      -2.478840      4.506233     -1.092055
  C      -3.714631      3.874745     -1.707857
  O      -3.202613      2.919264     -2.625494
  C      -1.881022      3.271140     -2.852684
  O      -1.421385      3.600994     -1.554972
  H      -2.282544      5.501768     -1.475073
  H      -2.485799      4.514010     -0.014545
  H      -4.340747      4.565923     -2.275185
  H      -4.362737      3.382579     -0.992202
  H      -1.341136      2.428768     -3.272345
  H      -1.891858      4.092687     -3.557019
23
Coordinates from ORCA-job DOL_m1_shell2_oxidized_opt_relaxed E -543.478967511169
  C       0.474096      0.430879      1.064447
  C       0.895096     -0.322598     -0.212023
  O      -0.329039     -0.610180     -0.879074
  C      -1.346839     -0.532852      0.175677
  O      -0.955673      0.638637      0.821974
  H       0.610039     -0.144036      1.987309
  H       0.958334      1.404617      1.174687
  H       1.440570     -1.270350     -0.038298
  H       1.543541      0.254699     -0.889928
  H      -2.338690     -0.445776     -0.284375
  H      -1.211369     -1.464019      0.745345
  Li     -1.362846      1.852275     -0.784073
  C      -2.514630      4.521002     -1.105609
  C      -3.766702      3.897337     -1.743535
  O      -3.237265      2.920888     -2.631483
  C      -1.841146      3.256875     -2.840629
  O      -1.451806      3.593310     -1.539404
  H      -2.285684      5.533333     -1.471684
  H      -2.551347      4.536416     -0.010230
  H      -4.409867      4.588793     -2.310009
  H      -4.441074      3.405429     -1.023029
  H      -1.298500      2.379504     -3.222942
  H      -1.806967      4.105650     -3.548811
23
Coordinates from ORCA-job DOL_m1_shell2_oxidized_opt_relaxed E -543.478487805795
  C       0.474219      0.501151      1.014948
  C       0.871644     -0.328021     -0.237412
  O      -0.356997     -0.662501     -0.860908
  C      -1.344135     -0.542977      0.209383
  O      -0.969514      0.673333      0.836830
  H       0.658099     -0.020002      1.965792
  H       0.946213      1.498269      1.044566
  H       1.389814     -1.286854      0.020086
  H       1.519477      0.195680     -0.968888
  H      -2.343923     -0.473815     -0.223441
  H      -1.194457     -1.456402      0.806609
  Li     -1.370829      1.826232     -0.789293
  C      -2.500299      4.457954     -1.033189
  C      -3.765245      3.882358     -1.779401
  O      -3.248965      2.945856     -2.709546
  C      -1.846443      3.280405     -2.834668
  O      -1.427887      3.579908     -1.500352
  H      -2.253506      5.488145     -1.332958
  H      -2.556858      4.377750      0.065488
  H      -4.332111      4.660604     -2.374619
  H      -4.510451      3.355818     -1.123544
  H      -1.295414      2.426245     -3.232730
  H      -1.770200      4.150698     -3.528453
23
Coordinates from ORCA-job DOL_m1_shell2_oxidized_opt_relaxed E -543.482679433188
  C       0.494658      0.462138      1.032027
  C       0.886079     -0.344855     -0.223723
  O      -0.343289     -0.671816     -0.850078
  C      -1.335289     -0.540455      0.203301
  O      -0.937717      0.671626      0.817874
  H       0.640262     -0.090465      1.970933
  H       0.977434      1.440992      1.085976
  H       1.410307     -1.298212      0.008865
  H       1.514226      0.197924     -0.945438
  H      -2.329188     -0.463458     -0.237746
  H      -1.190500     -1.452319      0.802781
  Li     -1.340507      1.890648     -0.727718
  C      -2.529652      4.488469     -1.064224
  C      -3.777431      3.900302     -1.782721
  O      -3.255975      2.978313     -2.724720
  C      -1.857559      3.284029     -2.840320
  O      -1.470898      3.567757     -1.503698
  H      -2.279515      5.501639     -1.394184
  H      -2.584808      4.434855      0.020993
  H      -4.375138      4.653884     -2.345580
  H      -4.464518      3.356169     -1.119123
  H      -1.324932      2.416345     -3.227086
  H      -1.753816      4.146324     -3.522089
23
Coordinates from ORCA-job DOL_m1_shell2_oxidized_opt_relaxed E -543.485348108985
  C       0.512485      0.414563      1.047239
  C       0.904901     -0.370031     -0.215463
  O      -0.330858     -0.688637     -0.842304
  C      -1.320933     -0.555802      0.209026
  O      -0.916756      0.643844      0.825053
  H       0.648697     -0.155100      1.974962
  H       1.004916      1.382604      1.131119
  H       1.441731     -1.317901     -0.012428
  H       1.522970      0.186456     -0.932175
  H      -2.316508     -0.474103     -0.230850
  H      -1.183266     -1.460113      0.822099
  Li     -1.317776      1.935549     -0.671449
  C      -2.560034      4.526413     -1.100469
  C      -3.792595      3.924722     -1.795799
  O      -3.259641      2.997126     -2.731391
  C      -1.866484      3.298230     -2.847317
  O      -1.497426      3.591871     -1.517194
  H      -2.316295      5.535087     -1.447906
  H      -2.620471      4.508349     -0.011847
  H      -4.411775      4.651606     -2.347650
  H      -4.463975      3.379081     -1.123925
  H      -1.336144      2.419280     -3.225424
  H      -1.752529      4.156737     -3.521604
23
Coordinates from ORCA-job DOL_m1_shell2_oxidized_opt_relaxed E -543.489421216760
  C       0.546489      0.374903      1.048763
  C       0.925443     -0.412926     -0.215578
  O      -0.324007     -0.738976     -0.822757
  C      -1.300455     -0.577350      0.228397
  O      -0.883836      0.628282      0.830836
  H       0.675461     -0.203629      1.970946
  H       1.055556      1.333732      1.144240
  H       1.468647     -1.356439     -0.021599
  H       1.526986      0.140871     -0.947952
  H      -2.301248     -0.497447     -0.201795
  H      -1.165983     -1.459002      0.875595
  Li     -1.285252      2.001565     -0.576582
  C      -2.605702      4.554759     -1.120170
  C      -3.823056      3.958972     -1.833342
  O      -3.271864      3.044501     -2.779230
  C      -1.878482      3.321782     -2.849744
  O      -1.535702      3.606862     -1.507549
  H      -2.350023      5.559557     -1.473760
  H      -2.687503      4.552394     -0.030953
  H      -4.442119      4.684747     -2.378567
  H      -4.499197      3.395256     -1.179316
  H      -1.351230      2.433666     -3.217209
  H      -1.720688      4.183752     -3.508374
23
Coordinates from ORCA-job DOL_m1_shell2_oxidized_opt_relaxed E -543.493968585132
  C       0.578564      0.344059      1.045353
  C       0.950190     -0.460759     -0.215490
  O      -0.314897     -0.816808     -0.799452
  C      -1.270848     -0.623119      0.254947
  O      -0.859216      0.598122      0.845216
  H       0.713669     -0.230870      1.967689
  H       1.093206      1.299733      1.147065
  H       1.504308     -1.395497     -0.014548
  H       1.534256      0.078928     -0.975418
  H      -2.281664     -0.561259     -0.158057
  H      -1.135779     -1.467794      0.952750
  Li     -1.256921      2.055247     -0.473108
  C      -2.647473      4.579598     -1.130571
  C      -3.855693      4.002910     -1.877105
  O      -3.294614      3.101294     -2.846259
  C      -1.898962      3.352275     -2.858740
  O      -1.569043      3.637047     -1.503687
  H      -2.379212      5.585318     -1.477331
  H      -2.742742      4.586483     -0.044398
  H      -4.461635      4.748819     -2.419997
  H      -4.563212      3.423041     -1.259375
  H      -1.367840      2.462768     -3.225760
  H      -1.702209      4.230297     -3.499422
23
Coordinates from ORCA-job DOL_m1_shell2_oxidized_opt_relaxed E -543.501165458902
  C       0.676993      0.315474      0.994330
  C       1.001460     -0.614265     -0.196622
  O      -0.285180     -1.062739     -0.677036
  C      -1.199310     -0.717319      0.341960
  O      -0.764360      0.592850      0.809911
  H       0.804690     -0.191379      1.958246
  H       1.224622      1.265968      1.010300
  H       1.576981     -1.513959      0.076905
  H       1.525509     -0.150576     -1.047253
  H      -2.222951     -0.688095     -0.040754
  H      -1.111437     -1.444704      1.173213
  Li     -1.209535      2.146304     -0.318776
  C      -2.770728      4.585550     -1.119554
  C      -3.935532      4.118813     -2.001811
  O      -3.320732      3.339589     -3.046493
  C      -1.939460      3.468012     -2.885945
  O      -1.684770      3.628230     -1.458337
  H      -2.425995      5.592953     -1.387691
  H      -2.965387      4.529499     -0.036171
  H      -4.499349      4.929319     -2.486626
  H      -4.676852      3.462520     -1.510817
  H      -1.426390      2.582107     -3.268085
  H      -1.600056      4.355680     -3.448596
23
Coordinates from ORCA-job DOL_m1_shell2_oxidized_opt_relaxed E -543.504349941570
  C       0.695506      0.306100      0.988518
  C       1.029047     -0.653687     -0.167553
  O      -0.247359     -1.127646     -0.637002
  C      -1.179505     -0.730770      0.348829
  O      -0.737127      0.578249      0.785413
  H       0.819665     -0.165944      1.969240
  H       1.243052      1.250035      0.974709
  H       1.625095     -1.533438      0.127741
  H       1.544877     -0.205023     -1.030460
  H      -2.195707     -0.687932     -0.057967
  H      -1.151965     -1.438604      1.199025
  Li     -1.208480      2.149208     -0.329935
  C      -2.794036      4.586740     -1.120198
  C      -3.954994      4.160309     -2.017202
  O      -3.346463      3.410816     -3.083508
  C      -1.958613      3.489807     -2.900538
  O      -1.731215      3.626647     -1.478557
  H      -2.432939      5.597861     -1.338957
  H      -2.992458      4.497719     -0.054405
  H      -4.524765      4.989981     -2.463022
  H      -4.694156      3.488071     -1.546467
  H      -1.467502      2.579356     -3.275532
  H      -1.567724      4.361976     -3.457869
23
Coordinates from ORCA-job DOL_m1_shell2_oxidized_opt_relaxed E -543.507654218513
  C       0.725987      0.313977      0.952441
  C       1.036140     -0.714289     -0.145958
  O      -0.245506     -1.206983     -0.559128
  C      -1.190128     -0.733512      0.388074
  O      -0.704793      0.566314      0.760018
  H       0.881263     -0.080466      1.961330
  H       1.278047      1.251731      0.849841
  H       1.652751     -1.567647      0.186969
  H       1.533960     -0.307469     -1.042712
  H      -2.195263     -0.676294     -0.045102
  H      -1.190641     -1.413740      1.258132
  Li     -1.194657      2.165194     -0.330385
  C      -2.831473      4.560713     -1.102733
  C      -3.968571      4.181976     -2.050901
  O      -3.328887      3.497585     -3.135580
  C      -1.934557      3.530877     -2.916797
  O      -1.778449      3.626302     -1.501188
  H      -2.468098      5.581346     -1.238843
  H      -3.064338      4.405846     -0.049337
  H      -4.543612      5.034305     -2.452806
  H      -4.709044      3.478507     -1.622220
  H      -1.467231      2.615648     -3.301778
  H      -1.520666      4.419914     -3.427034
23
Coordinates from ORCA-job DOL_m1_shell2_oxidized_opt_relaxed E -543.510472638567
  C       0.753892      0.298519      0.943880
  C       1.080195     -0.770841     -0.101109
  O      -0.187306     -1.306680     -0.477367
  C      -1.148904     -0.754185      0.399813
  O      -0.672262      0.554308      0.708137
  H       0.886533     -0.061461      1.969345
  H       1.312656      1.219916      0.805676
  H       1.720444     -1.592565      0.266278
  H       1.555977     -0.391911     -1.017045
  H      -2.133394     -0.708413     -0.077146
  H      -1.197126     -1.404618      1.291654
  Li     -1.196987      2.156426     -0.342687
  C      -2.865748      4.567430     -1.103351
  C      -3.997831      4.256384     -2.080148
  O      -3.365156      3.624252     -3.192046
  C      -1.976003      3.555918     -2.917483
  O      -1.841662      3.588443     -1.504316
  H      -2.461771      5.579728     -1.219610
  H      -3.135193      4.396545     -0.065090
  H      -4.562982      5.137817     -2.439033
  H      -4.742502      3.538684     -1.693452
  H      -1.566676      2.617031     -3.321489
  H      -1.485962      4.429106     -3.399110
23
Coordinates from ORCA-job DOL_m1_shell2_oxidized_opt_relaxed E -543.512715301339
  C       0.792747      0.303966      0.901673
  C       1.099175     -0.850377     -0.063967
  O      -0.173096     -1.422418     -0.364273
  C      -1.124278     -0.776612      0.449062
  O      -0.637482      0.549550      0.658997
  H       0.933478      0.023480      1.951815
  H       1.357020      1.208883      0.681772
  H       1.752331     -1.636036      0.352078
  H       1.549803     -0.539108     -1.020212
  H      -2.099588     -0.756400     -0.046332
  H      -1.194024     -1.365762      1.383477
  Li     -1.183759      2.162699     -0.343833
  C      -2.913919      4.535252     -1.087469
  C      -4.018897      4.306807     -2.124540
  O      -3.353588      3.769982     -3.266216
  C      -1.987504      3.622850     -2.936346
  O      -1.895896      3.559627     -1.516564
  H      -2.488567      5.544991     -1.133142
  H      -3.225607      4.303607     -0.072769
  H      -4.571027      5.211414     -2.430733
  H      -4.773179      3.560327     -1.813488
  H      -1.612080      2.698899     -3.392588
  H      -1.459831      4.514210     -3.332098
23
Coordinates from ORCA-job DOL_m1_shell2_oxidized_opt_relaxed E -543.514478097824
  C       0.836608      0.290946      0.884593
  C       1.140171     -0.906308     -0.026492
  O      -0.134699     -1.503980     -0.275971
  C      -1.095786     -0.796763      0.461683
  O      -0.596103      0.528741      0.618477
  H       0.956974      0.047622      1.947446
  H       1.407722      1.185417      0.631869
  H       1.798398     -1.667383      0.423100
  H       1.573549     -0.636001     -1.003190
  H      -2.054149     -0.792933     -0.070976
  H      -1.200847     -1.349098      1.418103
  Li     -1.178079      2.157751     -0.348584
  C      -2.970123      4.538226     -1.081919
  C      -4.054318      4.377686     -2.150480
  O      -3.357108      3.885449     -3.296621
  C      -2.014839      3.645263     -2.940488
  O      -1.965385      3.542551     -1.518901
  H      -2.508741      5.535306     -1.108322
  H      -3.315558      4.291047     -0.077622
  H      -4.577791      5.304286     -2.436495
  H      -4.826868      3.630946     -1.888448
  H      -1.675333      2.715414     -3.412414
  H      -1.415461      4.505651     -3.314043
23
Coordinates from ORCA-job DOL_m1_shell2_oxidized_opt_relaxed E -543.515971766570
  C       0.865070      0.290045      0.853988
  C       1.159873     -0.953543      0.005589
  O      -0.116693     -1.576456     -0.184419
  C      -1.084779     -0.801508      0.484849
  O      -0.568273      0.519598      0.572660
  H       0.982792      0.102054      1.928255
  H       1.435276      1.173350      0.558692
  H       1.830108     -1.683338      0.483611
  H       1.569797     -0.734543     -0.993398
  H      -2.027883     -0.822250     -0.073588
  H      -1.220770     -1.289858      1.473362
  Li     -1.166797      2.163274     -0.356398
  C      -3.002581      4.505362     -1.074103
  C      -4.067188      4.416140     -2.169454
  O      -3.349109      3.992923     -3.333210
  C      -2.028245      3.680940     -2.957347
  O      -2.012839      3.517439     -1.542388
  H      -2.525768      5.492407     -1.043150
  H      -3.364227      4.213314     -0.087333
  H      -4.577058      5.359546     -2.411018
  H      -4.846609      3.659517     -1.969415
  H      -1.715976      2.764164     -3.467713
  H      -1.395886      4.541255     -3.263770
23
Coordinates from ORCA-job DOL_m1_shell2_oxidized_opt_relaxed E -543.517307118944
  C       0.891893      0.280484      0.838949
  C       1.188766     -0.989811      0.043442
  O      -0.087066     -1.626187     -0.108205
  C      -1.069425     -0.796384      0.481238
  O      -0.533525      0.515254      0.518096
  H       0.982877      0.130757      1.920747
  H       1.468040      1.153568      0.526636
  H       1.863928     -1.697162      0.544974
  H       1.585746     -0.810527     -0.968288
  H      -1.990203     -0.836548     -0.112909
  H      -1.254942     -1.222790      1.488798
  Li     -1.152928      2.164223     -0.384665
  C      -3.035546      4.487222     -1.067026
  C      -4.084069      4.461807     -2.174150
  O      -3.349415      4.082078     -3.346505
  C      -2.052139      3.695084     -2.970812
  O      -2.067860      3.489655     -1.554306
  H      -2.533729      5.458378     -0.995019
  H      -3.408551      4.166530     -0.093594
  H      -4.575176      5.420927     -2.380955
  H      -4.873355      3.704727     -2.023379
  H      -1.774663      2.777193     -3.504400
  H      -1.366424      4.521356     -3.244365
23
Coordinates from ORCA-job DOL_m1_shell2_oxidized_opt_relaxed E -543.518189357478
  C       0.912056      0.284785      0.822525
  C       1.206022     -1.001723      0.062499
  O      -0.069825     -1.651574     -0.052883
  C      -1.067125     -0.789892      0.469305
  O      -0.503832      0.516984      0.473590
  H       0.985232      0.161232      1.908102
  H       1.490029      1.152286      0.500345
  H       1.890079     -1.691320      0.576303
  H       1.586745     -0.851553     -0.960957
  H      -1.964589     -0.849441     -0.158557
  H      -1.285960     -1.153508      1.492900
  Li     -1.160804      2.175463     -0.364655
  C      -3.054302      4.459596     -1.066701
  C      -4.088872      4.498262     -2.179630
  O      -3.338562      4.145603     -3.349554
  C      -2.074624      3.685135     -2.963685
  O      -2.111430      3.440751     -1.562536
  H      -2.521219      5.411161     -0.957210
  H      -3.446067      4.119585     -0.105889
  H      -4.551900      5.477628     -2.358400
  H      -4.894552      3.750906     -2.076296
  H      -1.829977      2.763772     -3.512643
  H      -1.334289      4.475694     -3.201672
23
Coordinates from ORCA-job DOL_m1_shell2_oxidized_opt_relaxed E -543.518624611321
  C       0.910608      0.286147      0.800230
  C       1.217056     -1.030225      0.104959
  O      -0.055850     -1.677223      0.011292
  C      -1.052329     -0.770939      0.447933
  O      -0.489857      0.520692      0.400078
  H       0.956393      0.210355      1.891304
  H       1.503733      1.134117      0.454812
  H       1.897064     -1.696852      0.654438
  H       1.604875     -0.928249     -0.922961
  H      -1.925891     -0.858069     -0.209071
  H      -1.302579     -1.050657      1.488525
  Li     -1.118610      2.176356     -0.431414
  C      -3.073210      4.431336     -1.043571
  C      -4.092408      4.519382     -2.167311
  O      -3.333527      4.202646     -3.349613
  C      -2.084828      3.689920     -2.982201
  O      -2.145208      3.412163     -1.565179
  H      -2.531657      5.372708     -0.894460
  H      -3.477313      4.065257     -0.096274
  H      -4.542328      5.511516     -2.309718
  H      -4.905331      3.776019     -2.103513
  H      -1.872775      2.772542     -3.555127
  H      -1.313795      4.460889     -3.188856
23
Coordinates from ORCA-job DOL_m1_shell2_oxidized_opt_relaxed E -543.519130791345
  C       0.936692      0.283833      0.799314
  C       1.232259     -1.047241      0.127506
  O      -0.047297     -1.681911      0.037211
  C      -1.042986     -0.758883      0.434064
  O      -0.456814      0.532773      0.375987
  H       0.963905      0.217293      1.892629
  H       1.553922      1.115757      0.450265
  H       1.906952     -1.713170      0.684451
  H       1.622524     -0.957846     -0.901599
  H      -1.902216     -0.836245     -0.246178
  H      -1.362509     -1.031327      1.459167
  Li     -1.115582      2.191731     -0.426013
  C      -3.086059      4.423678     -1.041839
  C      -4.097495      4.540994     -2.170976
  O      -3.332584      4.236279     -3.350752
  C      -2.106316      3.688159     -2.976948
  O      -2.172609      3.392682     -1.570243
  H      -2.529737      5.352361     -0.877714
  H      -3.507463      4.054310     -0.103929
  H      -4.540952      5.535953     -2.300096
  H      -4.912881      3.799220     -2.121037
  H      -1.922065      2.765603     -3.551416
  H      -1.308456      4.425831     -3.187551
23
Coordinates from ORCA-job DOL_m1_shell2_oxidized_opt_relaxed E -543.519462958650
  C       0.944065      0.297328      0.784426
  C       1.234504     -1.051000      0.137212
  O      -0.048596     -1.686605      0.055912
  C      -1.045303     -0.758908      0.423041
  O      -0.446587      0.531695      0.355970
  H       0.972161      0.251481      1.878736
  H       1.564265      1.117554      0.418680
  H       1.906983     -1.706525      0.707265
  H       1.628379     -0.980353     -0.892171
  H      -1.892716     -0.842257     -0.271461
  H      -1.371327     -1.005938      1.453531
  Li     -1.121582      2.193388     -0.414881
  C      -3.096461      4.407439     -1.036607
  C      -4.094991      4.556208     -2.173630
  O      -3.320128      4.255222     -3.346037
  C      -2.108495      3.676012     -2.965349
  O      -2.188981      3.371060     -1.568933
  H      -2.527796      5.327501     -0.856475
  H      -3.536405      4.033459     -0.109231
  H      -4.520141      5.559898     -2.295123
  H      -4.923658      3.827344     -2.140370
  H      -1.939337      2.753946     -3.543418
  H      -1.295617      4.401884     -3.166787
23
Coordinates from ORCA-job DOL_m1_shell2_oxidized_opt_relaxed E -543.519700889571
  C       0.953452      0.303639      0.766171
  C       1.242969     -1.069307      0.171796
  O      -0.043845     -1.697154      0.100048
  C      -1.037068     -0.747204      0.401285
  O      -0.427732      0.534074      0.306411
  H       0.965257      0.295065      1.862091
  H       1.589531      1.101311      0.380278
  H       1.905333     -1.707887      0.771374
  H       1.648636     -1.036411     -0.854800
  H      -1.861619     -0.847030     -0.318456
  H      -1.392650     -0.947717      1.432441
  Li     -1.099639      2.196111     -0.450603
  C      -3.113007      4.384277     -1.022957
  C      -4.095296      4.578011     -2.167389
  O      -3.313288      4.295048     -3.340111
  C      -2.120138      3.672522     -2.965375
  O      -2.217360      3.348352     -1.571757
  H      -2.532409      5.291935     -0.815442
  H      -3.570868      3.996110     -0.111340
  H      -4.503025      5.591490     -2.268941
  H      -4.936196      3.862348     -2.159819
  H      -1.982537      2.753724     -3.556071
  H      -1.286270      4.378528     -3.154530
23
Coordinates from ORCA-job DOL_m1_shell2_oxidized_opt_relaxed E -543.519770924948
  C       0.963167      0.309230      0.755639
  C       1.246359     -1.080001      0.193105
  O      -0.046384     -1.692809      0.108447
  C      -1.034903     -0.734225      0.379027
  O      -0.410023      0.543486      0.279451
  H       0.969669      0.322848      1.851939
  H       1.617818      1.086302      0.356552
  H       1.892034     -1.715841      0.813878
  H       1.670160     -1.068709     -0.826457
  H      -1.847580     -0.826298     -0.354818
  H      -1.421925     -0.912868      1.402620
  Li     -1.084832      2.205835     -0.459673
  C      -3.123161      4.370258     -1.014067
  C      -4.094638      4.586906     -2.163165
  O      -3.310827      4.303500     -3.331494
  C      -2.123377      3.658940     -2.959604
  O      -2.229931      3.336498     -1.570794
  H      -2.540906      5.271143     -0.790880
  H      -3.594849      3.977653     -0.111570
  H      -4.490793      5.605309     -2.256392
  H      -4.946231      3.884207     -2.162836
  H      -2.000090      2.739512     -3.551293
  H      -1.286524      4.358958     -3.153312
23
Coordinates from ORCA-job DOL_m1_shell2_oxidized_opt_relaxed E -543.519849109609
  C       0.975440      0.308953      0.739163
  C       1.255399     -1.099981      0.228148
  O      -0.039118     -1.711161      0.156530
  C      -1.023038     -0.734162      0.368985
  O      -0.391566      0.539118      0.240495
  H       0.970746      0.364448      1.833494
  H       1.635096      1.067751      0.317765
  H       1.890344     -1.714969      0.879314
  H       1.687317     -1.129372     -0.787426
  H      -1.819237     -0.853043     -0.379207
  H      -1.425718     -0.876584      1.391831
  Li     -1.067482      2.199335     -0.507228
  C      -3.139497      4.354859     -1.005896
  C      -4.096586      4.610509     -2.160833
  O      -3.308759      4.348536     -3.331548
  C      -2.140047      3.673002     -2.964890
  O      -2.254350      3.327577     -1.576392
  H      -2.548411      5.242574     -0.751801
  H      -3.625323      3.941963     -0.120310
  H      -4.480070      5.635616     -2.235287
  H      -4.956509      3.918190     -2.186136
  H      -2.040948      2.760925     -3.572292
  H      -1.285450      4.355747     -3.142178
23
Coordinates from ORCA-job DOL_m1_shell2_oxidized_opt_relaxed E -543.519909227333
  C       0.976673      0.306560      0.744106
  C       1.260270     -1.099063      0.229559
  O      -0.033160     -1.713031      0.151077
  C      -1.022828     -0.739655      0.366630
  O      -0.390619      0.535148      0.245147
  H       0.969771      0.358659      1.838695
  H       1.633467      1.070274      0.326193
  H       1.892541     -1.714488      0.883242
  H       1.696345     -1.126628     -0.783941
  H      -1.819671     -0.859605     -0.380746
  H      -1.424904     -0.890109      1.388789
  Li     -1.075229      2.188602     -0.517136
  C      -3.138418      4.363638     -1.007816
  C      -4.098627      4.614615     -2.160102
  O      -3.315184      4.344908     -3.331605
  C      -2.143921      3.671707     -2.965733
  O      -2.253125      3.334828     -1.576313
  H      -2.547164      5.252799     -0.758494
  H      -3.620218      3.952776     -0.119345
  H      -4.480278      5.640612     -2.237805
  H      -4.960480      3.925025     -2.180542
  H      -2.042920      2.757989     -3.570658
  H      -1.290088      4.354271     -3.148901
23
Coordinates from ORCA-job DOL_m1_shell2_oxidized_opt_relaxed E -543.519961123242
  C       0.980886      0.303946      0.746307
  C       1.269084     -1.103915      0.240719
  O      -0.022394     -1.719895      0.152909
  C      -1.015898     -0.749174      0.360380
  O      -0.384400      0.528257      0.242974
  H       0.970835      0.363010      1.840497
  H       1.637865      1.066426      0.325073
  H       1.895010     -1.715776      0.904077
  H       1.712920     -1.137340     -0.768867
  H      -1.809079     -0.870037     -0.389940
  H      -1.428756     -0.902605      1.377893
  Li     -1.084516      2.173638     -0.531372
  C      -3.141107      4.374017     -1.010156
  C      -4.102173      4.627182     -2.160855
  O      -3.322369      4.350261     -3.331117
  C      -2.153686      3.670939     -2.964821
  O      -2.256745      3.339286     -1.576930
  H      -2.547975      5.261442     -0.761497
  H      -3.624553      3.965307     -0.121510
  H      -4.478533      5.655117     -2.237638
  H      -4.968389      3.943601     -2.178721
  H      -2.056300      2.756363     -3.569306
  H      -1.297495      4.349784     -3.153797
23
Coordinates from ORCA-job DOL_m1_shell2_oxidized_opt_relaxed E -543.519989619955
  C       0.981084      0.304362      0.745765
  C       1.274846     -1.106744      0.252178
  O      -0.014918     -1.725199      0.158407
  C      -1.011849     -0.756132      0.355183
  O      -0.382713      0.522430      0.236305
  H       0.967588      0.372303      1.839474
  H       1.638069      1.064992      0.320337
  H       1.896156     -1.712631      0.925310
  H       1.726462     -1.147272     -0.753659
  H      -1.801162     -0.882607     -0.398393
  H      -1.429818     -0.905253      1.371267
  Li     -1.091039      2.158143     -0.553270
  C      -3.141438      4.377117     -1.009226
  C      -4.103140      4.636100     -2.158307
  O      -3.327055      4.356662     -3.330063
  C      -2.160830      3.672201     -2.967872
  O      -2.259806      3.341343     -1.579381
  H      -2.545590      5.261709     -0.757484
  H      -3.624675      3.966194     -0.121879
  H      -4.473486      5.666251     -2.231322
  H      -4.973657      3.957967     -2.175765
  H      -2.067260      2.758993     -3.575107
  H      -1.303537      4.348904     -3.158194
23
Coordinates from ORCA-job DOL_m1_shell2_oxidized_opt_relaxed E -543.520029553821
  C       0.973634      0.305130      0.748621
  C       1.278885     -1.105641      0.259391
  O      -0.006865     -1.728372      0.154360
  C      -1.007863     -0.764690      0.349290
  O      -0.389043      0.515432      0.233273
  H       0.956956      0.375374      1.842218
  H       1.628621      1.067994      0.323421
  H       1.897184     -1.708018      0.938407
  H       1.738882     -1.145260     -0.742766
  H      -1.794922     -0.890917     -0.406736
  H      -1.427449     -0.913485      1.364727
  Li     -1.098372      2.144194     -0.566763
  C      -3.135484      4.384097     -1.009467
  C      -4.103585      4.639859     -2.154252
  O      -3.334277      4.354177     -3.328406
  C      -2.166977      3.671132     -2.971012
  O      -2.256007      3.346137     -1.582899
  H      -2.537391      5.268020     -0.761952
  H      -3.612690      3.974140     -0.118785
  H      -4.470903      5.670669     -2.225425
  H      -4.975838      3.963702     -2.163899
  H      -2.072331      2.757327     -3.577771
  H      -1.311932      4.348833     -3.169273
23
Coordinates from ORCA-job DOL_m1_shell2_oxidized_opt_relaxed E -543.520070751885
  C       0.971368      0.312262      0.741318
  C       1.293197     -1.108812      0.288178
  O       0.014215     -1.746798      0.183757
  C      -0.998404     -0.790151      0.347993
  O      -0.390203      0.497013      0.212776
  H       0.949041      0.408285      1.832728
  H       1.621845      1.070362      0.301473
  H       1.912318     -1.688980      0.985078
  H       1.763780     -1.165650     -0.708752
  H      -1.773041     -0.939517     -0.417153
  H      -1.430517     -0.918683      1.360949
  Li     -1.135503      2.090647     -0.621264
  C      -3.134509      4.382902     -1.008339
  C      -4.101533      4.667017     -2.148910
  O      -3.338274      4.387504     -3.327804
  C      -2.184851      3.683074     -2.980333
  O      -2.268809      3.338776     -1.594648
  H      -2.522802      5.252944     -0.747770
  H      -3.615658      3.965563     -0.122610
  H      -4.452793      5.703577     -2.202855
  H      -4.982236      4.001997     -2.164398
  H      -2.105219      2.777884     -3.602505
  H      -1.319177      4.348616     -3.172609
23
Coordinates from ORCA-job DOL_m1_shell2_oxidized_opt_relaxed E -543.520130107594
  C       0.963623      0.314100      0.742824
  C       1.290849     -1.105981      0.291065
  O       0.013910     -1.745967      0.181920
  C      -0.999344     -0.789393      0.343498
  O      -0.395680      0.495684      0.206173
  H       0.935316      0.410057      1.834098
  H       1.613730      1.074026      0.307084
  H       1.909379     -1.685173      0.989089
  H       1.765999     -1.161378     -0.703980
  H      -1.770816     -0.938568     -0.424798
  H      -1.432518     -0.914875      1.356190
  Li     -1.130007      2.091622     -0.626727
  C      -3.126939      4.381175     -1.006342
  C      -4.100700      4.661676     -2.141225
  O      -3.342780      4.384181     -3.325883
  C      -2.184314      3.683624     -2.985780
  O      -2.263213      3.341140     -1.600164
  H      -2.514343      5.252865     -0.751304
  H      -3.598816      3.963473     -0.115301
  H      -4.456445      5.696982     -2.194092
  H      -4.978572      3.992570     -2.150551
  H      -2.105210      2.777470     -3.606868
  H      -1.320875      4.350525     -3.184625
23
Coordinates from ORCA-job DOL_m1_shell2_oxidized_opt_relaxed E -543.520217109931
  C       0.953867      0.319385      0.740794
  C       1.294816     -1.100898      0.301796
  O       0.024930     -1.755332      0.196719
  C      -0.997764     -0.805973      0.347959
  O      -0.404899      0.482087      0.196263
  H       0.918704      0.424123      1.831144
  H       1.598096      1.082510      0.302781
  H       1.919740     -1.668560      1.003677
  H       1.772786     -1.159551     -0.691683
  H      -1.762393     -0.969924     -0.423565
  H      -1.431348     -0.924777      1.360881
  Li     -1.151001      2.061136     -0.654048
  C      -3.117235      4.378218     -1.006710
  C      -4.098085      4.669039     -2.131862
  O      -3.348197      4.400166     -3.324886
  C      -2.187823      3.694393     -2.996977
  O      -2.262912      3.340398     -1.614736
  H      -2.497828      5.246337     -0.753385
  H      -3.581614      3.958830     -0.112328
  H      -4.454827      5.705002     -2.177724
  H      -4.975738      3.999259     -2.139675
  H      -2.115995      2.793061     -3.625745
  H      -1.323047      4.360904     -3.194389
23
Coordinates from ORCA-job DOL_m1_shell2_oxidized_opt_relaxed E -543.520347037027
  C       0.930209      0.335616      0.728297
  C       1.306799     -1.086422      0.329282
  O       0.055388     -1.779458      0.244186
  C      -0.994851     -0.853809      0.367648
  O      -0.428111      0.444659      0.170591
  H       0.882365      0.468951      1.814900
  H       1.557549      1.104062      0.275044
  H       1.949561     -1.619314      1.042893
  H       1.786731     -1.158347     -0.662456
  H      -1.744004     -1.059969     -0.408046
  H      -1.428616     -0.950560      1.381642
  Li     -1.220864      1.972125     -0.721106
  C      -3.092435      4.365224     -1.010986
  C      -4.089438      4.691942     -2.110412
  O      -3.356677      4.450901     -3.319986
  C      -2.195430      3.727517     -3.023033
  O      -2.263717      3.331629     -1.657350
  H      -2.456068      5.219933     -0.754316
  H      -3.544850      3.936426     -0.114753
  H      -4.445904      5.729498     -2.132195
  H      -4.967483      4.021941     -2.122060
  H      -2.140733      2.843594     -3.676671
  H      -1.327187      4.393691     -3.206812
23
Coordinates from ORCA-job DOL_m1_shell2_oxidized_opt_relaxed E -543.520353991516
  C       0.928682      0.329504      0.723965
  C       1.303302     -1.095801      0.336932
  O       0.049387     -1.781130      0.257421
  C      -0.993263     -0.846722      0.368844
  O      -0.425494      0.445506      0.154241
  H       0.873134      0.471001      1.808831
  H       1.564335      1.091163      0.268217
  H       1.940937     -1.626631      1.057080
  H       1.782967     -1.177442     -0.654114
  H      -1.744679     -1.055018     -0.404317
  H      -1.425158     -0.926290      1.384681
  Li     -1.197076      1.987755     -0.725893
  C      -3.090637      4.358411     -1.007760
  C      -4.094885      4.682185     -2.102669
  O      -3.362000      4.458995     -3.318672
  C      -2.189956      3.743162     -3.036628
  O      -2.258157      3.336504     -1.666232
  H      -2.463340      5.218843     -0.752757
  H      -3.534379      3.921859     -0.111016
  H      -4.465537      5.714272     -2.118116
  H      -4.963519      3.999904     -2.116965
  H      -2.132216      2.861063     -3.691796
  H      -1.330214      4.418738     -3.218974
23
Coordinates from ORCA-job DOL_m1_shell2_oxidized_opt_relaxed E -543.520456021206
  C       0.929023      0.334143      0.716507
  C       1.310289     -1.093520      0.344429
  O       0.059724     -1.788949      0.272495
  C      -0.989443     -0.862178      0.373975
  O      -0.426352      0.434009      0.151521
  H       0.876547      0.487881      1.799943
  H       1.558289      1.093601      0.250282
  H       1.949881     -1.611638      1.071910
  H       1.789658     -1.184168     -0.645879
  H      -1.739336     -1.082659     -0.397551
  H      -1.425526     -0.937982      1.388667
  Li     -1.220564      1.962092     -0.739214
  C      -3.092239      4.356792     -1.009416
  C      -4.091925      4.695915     -2.104047
  O      -3.359219      4.475697     -3.318384
  C      -2.195402      3.748585     -3.036866
  O      -2.265618      3.332213     -1.671696
  H      -2.459097      5.210694     -0.743639
  H      -3.544955      3.916025     -0.119340
  H      -4.453090      5.731760     -2.110860
  H      -4.967234      4.022501     -2.126473
  H      -2.142121      2.871393     -3.699414
  H      -1.329055      4.417626     -3.212650
23
Coordinates from ORCA-job DOL_m1_shell2_oxidized_opt_relaxed E -543.520528460434
  C       0.925103      0.340707      0.701910
  C       1.320856     -1.091319      0.364374
  O       0.075132     -1.800087      0.304384
  C      -0.984483     -0.883315      0.377618
  O      -0.429082      0.414813      0.132643
  H       0.869580      0.517772      1.781953
  H       1.548763      1.094465      0.219234
  H       1.958778     -1.584938      1.109969
  H       1.803469     -1.202317     -0.621795
  H      -1.729848     -1.128064     -0.391598
  H      -1.427100     -0.941972      1.391280
  Li     -1.251521      1.922772     -0.769451
  C      -3.088073      4.348731     -1.011013
  C      -4.087987      4.713056     -2.097873
  O      -3.360217      4.505759     -3.314416
  C      -2.204250      3.763149     -3.044481
  O      -2.271633      3.325786     -1.689802
  H      -2.448358      5.193550     -0.730399
  H      -3.546996      3.895728     -0.130823
  H      -4.438963      5.752542     -2.084490
  H      -4.970306      4.049713     -2.130980
  H      -2.158119      2.896023     -3.721033
  H      -1.332512      4.427279     -3.210909
23
Coordinates from ORCA-job DOL_m1_shell2_oxidized_opt_relaxed E -543.520592344308
  C       0.925109      0.337730      0.697538
  C       1.324578     -1.098984      0.385717
  O       0.076728     -1.802829      0.316335
  C      -0.978269     -0.880790      0.359138
  O      -0.421009      0.409200      0.109366
  H       0.857906      0.529065      1.774801
  H       1.556153      1.082603      0.211642
  H       1.944745     -1.581707      1.152635
  H       1.821626     -1.227586     -0.590686
  H      -1.721112     -1.132520     -0.410803
  H      -1.431163     -0.926440      1.369846
  Li     -1.235715      1.926625     -0.789966
  C      -3.084694      4.348309     -1.007345
  C      -4.090750      4.714315     -2.087944
  O      -3.372073      4.510342     -3.310607
  C      -2.214052      3.767294     -3.053770
  O      -2.268540      3.331486     -1.695270
  H      -2.447916      5.195580     -0.724774
  H      -3.538479      3.886985     -0.128916
  H      -4.439577      5.754388     -2.063901
  H      -4.975464      4.054373     -2.118019
  H      -2.170504      2.899654     -3.730294
  H      -1.345296      4.432739     -3.230418
23
Coordinates from ORCA-job DOL_m1_shell2_oxidized_opt_relaxed E -543.520642493027
  C       0.921798      0.344631      0.682049
  C       1.327512     -1.098277      0.404437
  O       0.082186     -1.809188      0.347319
  C      -0.976938     -0.891465      0.362492
  O      -0.421567      0.397470      0.086237
  H       0.849021      0.559430      1.754512
  H       1.553444      1.080554      0.182279
  H       1.946877     -1.561069      1.184019
  H       1.827977     -1.246788     -0.567369
  H      -1.716080     -1.166161     -0.402950
  H      -1.436133     -0.916742      1.371188
  Li     -1.251028      1.903255     -0.815489
  C      -3.080239      4.332701     -1.007027
  C      -4.087667      4.721503     -2.078228
  O      -3.372491      4.535729     -3.305284
  C      -2.215811      3.784363     -3.065153
  O      -2.269778      3.323387     -1.712732
  H      -2.440334      5.172771     -0.711233
  H      -3.535798      3.859223     -0.135568
  H      -4.433733      5.761589     -2.035660
  H      -4.975282      4.065650     -2.116425
  H      -2.179151      2.928493     -3.756359
  H      -1.344554      4.448774     -3.230753
23
Coordinates from ORCA-job DOL_m1_shell2_oxidized_opt_relaxed E -543.520662915971
  C       0.908211      0.352767      0.668312
  C       1.328032     -1.094121      0.437324
  O       0.088147     -1.812007      0.381133
  C      -0.974807     -0.898097      0.349723
  O      -0.424554      0.382496      0.043024
  H       0.812274      0.593532      1.733398
  H       1.545961      1.080080      0.162052
  H       1.940123     -1.532893      1.236421
  H       1.844356     -1.264555     -0.522531
  H      -1.699565     -1.200790     -0.418736
  H      -1.449804     -0.896871      1.351346
  Li     -1.257480      1.880822     -0.858501
  C      -3.061682      4.314509     -1.003390
  C      -4.082933      4.723497     -2.052955
  O      -3.384148      4.556570     -3.293661
  C      -2.223438      3.799712     -3.084986
  O      -2.263478      3.316582     -1.737556
  H      -2.416116      5.148650     -0.705496
  H      -3.502834      3.829445     -0.130832
  H      -4.428426      5.762660     -1.990476
  H      -4.971567      4.068460     -2.087692
  H      -2.200803      2.954277     -3.789367
  H      -1.353237      4.465109     -3.252251
23
Coordinates from ORCA-job DOL_m1_shell2_oxidized_opt_relaxed E -543.520643956672
  C       0.909175      0.360505      0.661896
  C       1.329607     -1.088356      0.444767
  O       0.091190     -1.811136      0.392681
  C      -0.977359     -0.903431      0.349308
  O      -0.423185      0.379812      0.035767
  H       0.811478      0.610341      1.724624
  H       1.545418      1.084671      0.149934
  H       1.943293     -1.518858      1.247183
  H       1.848027     -1.265517     -0.512667
  H      -1.696923     -1.218229     -0.419465
  H      -1.459817     -0.899285      1.347610
  Li     -1.274374      1.866278     -0.866319
  C      -3.059122      4.304264     -1.004185
  C      -4.077837      4.730311     -2.050081
  O      -3.381750      4.566916     -3.290713
  C      -2.228217      3.801431     -3.083978
  O      -2.265266      3.307923     -1.746705
  H      -2.406936      5.129379     -0.696225
  H      -3.505012      3.813940     -0.137212
  H      -4.413874      5.772175     -1.979263
  H      -4.972309      4.083685     -2.089066
  H      -2.212212      2.962750     -3.797111
  H      -1.351763      4.460264     -3.246479
23
Coordinates from ORCA-job DOL_m1_shell2_oxidized_opt_relaxed E -543.520691945526
  C       0.917033      0.352558      0.669575
  C       1.328339     -1.095495      0.433129
  O       0.086548     -1.809330      0.374892
  C      -0.974678     -0.893250      0.346794
  O      -0.418672      0.389002      0.050706
  H       0.825754      0.591612      1.735236
  H       1.554504      1.078213      0.162862
  H       1.941334     -1.538793      1.228931
  H       1.843975     -1.264422     -0.527361
  H      -1.699720     -1.193803     -0.422728
  H      -1.453315     -0.901490      1.347107
  Li     -1.253276      1.889576     -0.851087
  C      -3.072346      4.317379     -1.000787
  C      -4.082811      4.727934     -2.061433
  O      -3.378988      4.549618     -3.296696
  C      -2.225869      3.789284     -3.075286
  O      -2.269202      3.314554     -1.724089
  H      -2.424784      5.148315     -0.697444
  H      -3.523528      3.835989     -0.131307
  H      -4.417817      5.771073     -2.006043
  H      -4.977098      4.081608     -2.098817
  H      -2.203699      2.942579     -3.778798
  H      -1.349450      4.447123     -3.243054
23
Coordinates from ORCA-job DOL_m1_shell2_oxidized_opt_relaxed E -543.520703385080
  C       0.909337      0.354321      0.669743
  C       1.327669     -1.092385      0.436140
  O       0.089450     -1.811089      0.374977
  C      -0.975086     -0.898837      0.345430
  O      -0.424466      0.383486      0.047089
  H       0.814320      0.595516      1.734528
  H       1.544843      1.081849      0.163074
  H       1.940195     -1.532371      1.234202
  H       1.847196     -1.260313     -0.522628
  H      -1.698379     -1.201079     -0.424862
  H      -1.451876     -0.905493      1.346362
  Li     -1.256940      1.883427     -0.856639
  C      -3.064357      4.318344     -1.001625
  C      -4.082024      4.725688     -2.055724
  O      -3.383944      4.548248     -3.294394
  C      -2.226118      3.791912     -3.079126
  O      -2.262617      3.317497     -1.729985
  H      -2.417033      5.151105     -0.703394
  H      -3.508143      3.836374     -0.128551
  H      -4.419540      5.767859     -1.999360
  H      -4.974278      4.076298     -2.087884
  H      -2.202060      2.945182     -3.782335
  H      -1.353917      4.454294     -3.250737
23
Coordinates from ORCA-job DOL_m1_shell2_oxidized_opt_relaxed E -543.520711549580
  C       0.907660      0.355670      0.668625
  C       1.328173     -1.090709      0.438740
  O       0.091496     -1.811525      0.378179
  C      -0.975156     -0.901315      0.344656
  O      -0.425747      0.381423      0.044021
  H       0.810459      0.599014      1.732793
  H       1.542980      1.083112      0.161251
  H       1.941712     -1.528055      1.237585
  H       1.848865     -1.259469     -0.519253
  H      -1.695686     -1.207120     -0.426803
  H      -1.454594     -0.907241      1.344327
  Li     -1.259870      1.880120     -0.860573
  C      -3.062697      4.317520     -1.001198
  C      -4.080988      4.727219     -2.053887
  O      -3.384814      4.549295     -3.293576
  C      -2.227532      3.791840     -3.079714
  O      -2.262196      3.316956     -1.731503
  H      -2.413878      5.148926     -0.702415
  H      -3.505872      3.835093     -0.128415
  H      -4.416263      5.770196     -1.996913
  H      -4.974328      4.079409     -2.085560
  H      -2.204716      2.945908     -3.784107
  H      -1.354775      4.453565     -3.251959
