23
Coordinates from ORCA-job DOL_m1_shell2_reduced_opt_relaxed E -544.067840314577
  C       0.020779      0.857182      0.946609
  C       0.639715      0.158104     -0.299910
  O      -0.533995     -0.243915     -1.068188
  C      -1.507655     -0.468544     -0.048001
  O      -1.416151      0.738413      0.715160
  H       0.283152      0.347948      1.879077
  H       0.259619      1.920132      1.027994
  H       1.219286     -0.729949     -0.029417
  H       1.243459      0.814771     -0.930068
  H      -2.503846     -0.554413     -0.494488
  H      -1.261210     -1.350656      0.560919
  Li     -1.500411      1.558931     -1.164026
  C      -2.040323      4.186442     -0.940694
  C      -3.371978      3.492139     -1.353373
  O      -2.933003      2.478020     -2.306396
  C      -1.777134      3.081972     -2.888228
  O      -1.037220      3.474915     -1.727959
  H      -2.027247      5.247723     -1.207392
  H      -1.782772      4.068702      0.114444
  H      -4.061126      4.183241     -1.848532
  H      -3.885438      2.982405     -0.535182
  H      -1.212144      2.336794     -3.457850
  H      -2.042124      3.949476     -3.510197
23
Coordinates from ORCA-job DOL_m1_shell2_reduced_opt_relaxed E -544.069022375423
  C       0.019998      0.850537      0.946357
  C       0.636382      0.156843     -0.292273
  O      -0.532196     -0.252040     -1.063045
  C      -1.505061     -0.472240     -0.043991
  O      -1.417284      0.733809      0.719546
  H       0.285858      0.344184      1.881215
  H       0.248434      1.924391      1.016310
  H       1.225358     -0.726916     -0.021833
  H       1.224237      0.827902     -0.935615
  H      -2.503581     -0.553352     -0.496704
  H      -1.257890     -1.354273      0.567584
  Li     -1.500873      1.557801     -1.165294
  C      -2.042378      4.187539     -0.946803
  C      -3.366427      3.498310     -1.355805
  O      -2.935504      2.485242     -2.312282
  C      -1.778801      3.087119     -2.889941
  O      -1.036170      3.479619     -1.732321
  H      -2.029828      5.251591     -1.208630
  H      -1.777366      4.052433      0.112320
  H      -4.060976      4.191938     -1.843168
  H      -3.868263      2.967987     -0.533241
  H      -1.212752      2.334168     -3.456523
  H      -2.042685      3.957239     -3.511561
23
Coordinates from ORCA-job DOL_m1_shell2_reduced_opt_relaxed E -544.069763472070
  C       0.020488      0.843727      0.947940
  C       0.635955      0.155763     -0.281162
  O      -0.528309     -0.269682     -1.053412
  C      -1.503522     -0.482797     -0.037684
  O      -1.419655      0.722840      0.726595
  H       0.291397      0.346174      1.886360
  H       0.229928      1.927393      1.000448
  H       1.240450     -0.718070     -0.012009
  H       1.196858      0.842690     -0.940349
  H      -2.501190     -0.554511     -0.499613
  H      -1.258597     -1.363691      0.577645
  Li     -1.502559      1.553856     -1.169879
  C      -2.044645      4.190626     -0.952179
  C      -3.361584      3.508866     -1.356735
  O      -2.941359      2.499686     -2.325091
  C      -1.781236      3.095499     -2.897950
  O      -1.035373      3.487891     -1.742610
  H      -2.030866      5.257630     -1.202734
  H      -1.768505      4.029630      0.105545
  H      -4.064117      4.204963     -1.829282
  H      -3.844589      2.951751     -0.533861
  H      -1.216227      2.331897     -3.455879
  H      -2.040512      3.967699     -3.519804
23
Coordinates from ORCA-job DOL_m1_shell2_reduced_opt_relaxed E -544.070115111932
  C       0.021486      0.840111      0.951237
  C       0.639265      0.153838     -0.273766
  O      -0.523351     -0.286401     -1.045531
  C      -1.501480     -0.494866     -0.032333
  O      -1.421094      0.711407      0.732049
  H       0.294449      0.349895      1.892440
  H       0.218408      1.927164      0.994410
  H       1.253842     -0.712675     -0.005601
  H       1.184850      0.847161     -0.940322
  H      -2.496710     -0.560548     -0.500330
  H      -1.259777     -1.374575      0.585814
  Li     -1.504467      1.549284     -1.175242
  C      -2.045257      4.194657     -0.954453
  C      -3.361683      3.517611     -1.356828
  O      -2.948244      2.512786     -2.336659
  C      -1.785106      3.103825     -2.907131
  O      -1.036161      3.495189     -1.752921
  H      -2.028763      5.263136     -1.196717
  H      -1.762095      4.019343      0.099787
  H      -4.068809      4.215049     -1.819433
  H      -3.834806      2.947688     -0.536035
  H      -1.222399      2.333895     -3.458616
  H      -2.039864      3.976861     -3.529517
23
Coordinates from ORCA-job DOL_m1_shell2_reduced_opt_relaxed E -544.070639150368
  C       0.023639      0.832757      0.959372
  C       0.648447      0.146916     -0.260623
  O      -0.510644     -0.319409     -1.030142
  C      -1.493684     -0.521283     -0.021194
  O      -1.421562      0.687090      0.741859
  H       0.298287      0.354294      1.905217
  H       0.203615      1.921945      0.991930
  H       1.277529     -0.708078      0.007559
  H       1.176300      0.845164     -0.934475
  H      -2.483913     -0.580296     -0.498437
  H      -1.257957     -1.398548      0.601949
  Li     -1.508403      1.539519     -1.186769
  C      -2.045926      4.204373     -0.959066
  C      -3.365822      3.535243     -1.358501
  O      -2.963971      2.539572     -2.358094
  C      -1.796489      3.123056     -2.925771
  O      -1.040686      3.510145     -1.773736
  H      -2.023710      5.274741     -1.188863
  H      -1.753430      4.012153      0.088445
  H      -4.078223      4.235723     -1.806337
  H      -3.828631      2.952721     -0.542248
  H      -1.239290      2.344614     -3.469053
  H      -2.043243      3.997421     -3.548719
23
Coordinates from ORCA-job DOL_m1_shell2_reduced_opt_relaxed E -544.071133615190
  C       0.025914      0.822242      0.969566
  C       0.660406      0.134485     -0.245816
  O      -0.492603     -0.355974     -1.012055
  C      -1.480029     -0.553122     -0.007686
  O      -1.418597      0.658373      0.751500
  H       0.301379      0.353873      1.919776
  H       0.195349      1.911122      0.996626
  H       1.300864     -0.710303      0.026249
  H       1.180567      0.832615     -0.922246
  H      -2.465563     -0.611523     -0.492728
  H      -1.249543     -1.427509      0.620918
  Li     -1.512949      1.527780     -1.200805
  C      -2.046977      4.217060     -0.966415
  C      -3.373517      3.556727     -1.363487
  O      -2.983848      2.571581     -2.379894
  C      -1.813565      3.148140     -2.946350
  O      -1.049709      3.527588     -1.796827
  H      -2.019300      5.289094     -1.185923
  H      -1.748958      4.015788      0.075575
  H      -4.087808      4.262662     -1.798744
  H      -3.833232      2.970524     -0.551156
  H      -1.263235      2.364090     -3.486941
  H      -2.052815      4.024522     -3.568837
23
Coordinates from ORCA-job DOL_m1_shell2_reduced_opt_relaxed E -544.071676051169
  C       0.028706      0.808120      0.980463
  C       0.673622      0.115721     -0.230482
  O      -0.471029     -0.391055     -0.993181
  C      -1.461547     -0.585718      0.006784
  O      -1.411022      0.629574      0.759598
  H       0.305064      0.346997      1.934160
  H       0.196136      1.895300      1.006562
  H       1.320481     -0.721590      0.050361
  H       1.197306      0.809588     -0.905230
  H      -2.443970     -0.650890     -0.482815
  H      -1.233795     -1.457058      0.640607
  Li     -1.517481      1.515728     -1.215463
  C      -2.049599      4.231869     -0.976912
  C      -3.384412      3.580624     -1.373161
  O      -3.005603      2.605176     -2.398733
  C      -1.834320      3.176209     -2.965318
  O      -1.063121      3.545538     -1.817893
  H      -2.018297      5.305426     -1.189317
  H      -1.751356      4.029675      0.062692
  H      -4.096234      4.294808     -1.799530
  H      -3.848582      2.999236     -0.562787
  H      -1.290915      2.390905     -3.510426
  H      -2.067798      4.055652     -3.585676
23
Coordinates from ORCA-job DOL_m1_shell2_reduced_opt_relaxed E -544.072211498321
  C       0.032526      0.790613      0.991158
  C       0.687353      0.090880     -0.214799
  O      -0.447402     -0.423312     -0.974178
  C      -1.440079     -0.616650      0.021538
  O      -1.398962      0.603007      0.765653
  H       0.310954      0.334894      1.947685
  H       0.204387      1.876249      1.017558
  H       1.336728     -0.740852      0.079713
  H       1.221623      0.778647     -0.886106
  H      -2.421216     -0.694822     -0.469280
  H      -1.211967     -1.484533      0.660759
  Li     -1.521944      1.503820     -1.230211
  C      -2.054565      4.248040     -0.990096
  C      -3.397928      3.606659     -1.387789
  O      -3.028027      2.639009     -2.414291
  C      -1.856606      3.205152     -2.981376
  O      -1.080165      3.562650     -1.834840
  H      -2.021636      5.323335     -1.197183
  H      -1.760725      4.048840      0.050454
  H      -4.103321      4.332141     -1.807821
  H      -3.871374      3.034352     -0.577480
  H      -1.319677      2.422473     -3.537227
  H      -2.085744      4.089241     -3.597538
23
Coordinates from ORCA-job DOL_m1_shell2_reduced_opt_relaxed E -544.072581078242
  C       0.037234      0.773369      1.000674
  C       0.701114      0.065004     -0.198131
  O      -0.424158     -0.455457     -0.954979
  C      -1.419746     -0.645894      0.035870
  O      -1.386450      0.578764      0.770132
  H       0.318580      0.325241      1.960780
  H       0.211147      1.859302      1.022316
  H       1.353748     -0.759644      0.111808
  H       1.241597      0.748583     -0.869608
  H      -2.399635     -0.737037     -0.456285
  H      -1.190013     -1.509148      0.681913
  Li     -1.526994      1.490870     -1.246295
  C      -2.060762      4.263379     -1.002619
  C      -3.411526      3.634128     -1.403347
  O      -3.050305      2.673143     -2.430181
  C      -1.877489      3.232624     -2.996470
  O      -1.097438      3.577605     -1.849448
  H      -2.025412      5.340806     -1.202085
  H      -1.771205      4.061129      0.039078
  H      -4.109742      4.372386     -1.815176
  H      -3.891735      3.065543     -0.593665
  H      -1.347264      2.452345     -3.562983
  H      -2.101313      4.122795     -3.606999
23
Coordinates from ORCA-job DOL_m1_shell2_reduced_opt_relaxed E -544.072926771192
  C       0.044592      0.752107      1.012831
  C       0.721382      0.030816     -0.173058
  O      -0.391947     -0.505395     -0.926506
  C      -1.393110     -0.688240      0.056463
  O      -1.371085      0.544408      0.776226
  H       0.328835      0.319649      1.979885
  H       0.214234      1.839428      1.020859
  H       1.381346     -0.780785      0.157285
  H       1.261870      0.710209     -0.849684
  H      -2.369466     -0.793352     -0.440324
  H      -1.162338     -1.543251      0.714192
  Li     -1.535773      1.469594     -1.272668
  C      -2.069526      4.283221     -1.017056
  C      -3.429997      3.674254     -1.422826
  O      -3.082731      2.723968     -2.457082
  C      -1.905564      3.271007     -3.019843
  O      -1.120475      3.597463     -1.871253
  H      -2.026676      5.363655     -1.201348
  H      -1.783104      4.067074      0.023242
  H      -4.119447      4.429869     -1.819253
  H      -3.914650      3.102874     -0.617029
  H      -1.385723      2.490988     -3.596568
  H      -2.118416      4.170272     -3.622185
23
Coordinates from ORCA-job DOL_m1_shell2_reduced_opt_relaxed E -544.073271899302
  C       0.055656      0.728233      1.025978
  C       0.748749     -0.011898     -0.140545
  O      -0.350925     -0.573156     -0.889037
  C      -1.359965     -0.742297      0.083740
  O      -1.352369      0.502153      0.783220
  H       0.341177      0.319824      2.003421
  H       0.216381      1.816824      1.011430
  H       1.417505     -0.805819      0.215145
  H       1.285431      0.660724     -0.826929
  H      -2.330645     -0.862696     -0.419880
  H      -1.128567     -1.584534      0.758636
  Li     -1.549504      1.439020     -1.310623
  C      -2.081964      4.306041     -1.031755
  C      -3.454696      3.726825     -1.446313
  O      -3.125983      2.791692     -2.495492
  C      -1.940015      3.320223     -3.050179
  O      -1.149415      3.620682     -1.897971
  H      -2.024563      5.389692     -1.193775
  H      -1.799596      4.065907      0.004333
  H      -4.132091      4.504050     -1.822065
  H      -3.944205      3.147750     -0.649011
  H      -1.433810      2.538860     -3.636511
  H      -2.134350      4.231735     -3.641515
23
Coordinates from ORCA-job DOL_m1_shell2_reduced_opt_relaxed E -544.074201729370
  C       0.077834      0.691906      1.043778
  C       0.793290     -0.080215     -0.090091
  O      -0.287948     -0.681509     -0.828761
  C      -1.306996     -0.825530      0.128179
  O      -1.320395      0.438640      0.794363
  H       0.362738      0.322977      2.037245
  H       0.225590      1.780471      0.991140
  H       1.471964     -0.847717      0.303385
  H       1.324285      0.578123     -0.793419
  H      -2.269189     -0.968057     -0.383733
  H      -1.073261     -1.646295      0.829604
  Li     -1.575778      1.388206     -1.372864
  C      -2.106571      4.340629     -1.051139
  C      -3.497118      3.812625     -1.484525
  O      -3.195530      2.901272     -2.558711
  C      -1.991629      3.397100     -3.095507
  O      -1.196827      3.654462     -1.934315
  H      -2.020499      5.427250     -1.178486
  H      -1.835490      4.061280     -0.022672
  H      -4.151694      4.622478     -1.831279
  H      -3.998521      3.222021     -0.704287
  H      -1.505121      2.612988     -3.693143
  H      -2.150899      4.326729     -3.670462
23
Coordinates from ORCA-job DOL_m1_shell2_reduced_opt_relaxed E -544.074523672027
  C       0.083292      0.696270      1.036779
  C       0.800967     -0.086181     -0.088828
  O      -0.281533     -0.694266     -0.825730
  C      -1.305549     -0.827546      0.133837
  O      -1.319034      0.442879      0.789556
  H       0.364863      0.336270      2.034125
  H       0.229017      1.784090      0.972008
  H       1.475452     -0.852937      0.312105
  H       1.331892      0.564823     -0.798239
  H      -2.267088     -0.974452     -0.376985
  H      -1.071086     -1.638416      0.846319
  Li     -1.582278      1.378819     -1.384294
  C      -2.112831      4.334369     -1.045521
  C      -3.505270      3.820583     -1.488321
  O      -3.206324      2.912291     -2.568838
  C      -1.990031      3.402570     -3.093881
  O      -1.197540      3.646459     -1.927589
  H      -2.015949      5.420414     -1.166952
  H      -1.848814      4.043445     -0.018840
  H      -4.150995      4.636793     -1.835410
  H      -4.013699      3.226676     -0.715817
  H      -1.507880      2.618331     -3.693863
  H      -2.137346      4.338548     -3.661320
23
Coordinates from ORCA-job DOL_m1_shell2_reduced_opt_relaxed E -544.075145192928
  C       0.095300      0.714969      1.011969
  C       0.817772     -0.103284     -0.085571
  O      -0.263814     -0.731314     -0.814545
  C      -1.295979     -0.833041      0.148469
  O      -1.312266      0.456305      0.769569
  H       0.367239      0.383659      2.021042
  H       0.239830      1.798612      0.913112
  H       1.478821     -0.866133      0.342606
  H       1.357630      0.521007     -0.808744
  H      -2.255065     -0.998273     -0.358487
  H      -1.059351     -1.613757      0.892349
  Li     -1.602893      1.350061     -1.419536
  C      -2.128596      4.309653     -1.024056
  C      -3.525654      3.842933     -1.500841
  O      -3.235364      2.947267     -2.598606
  C      -1.987546      3.416893     -3.088623
  O      -1.206056      3.617793     -1.906258
  H      -1.997984      5.393421     -1.125441
  H      -1.889620      3.988624     -0.001989
  H      -4.139827      4.682428     -1.847900
  H      -4.063653      3.249188     -0.751204
  H      -1.519655      2.633258     -3.698725
  H      -2.101036      4.369561     -3.634287
23
Coordinates from ORCA-job DOL_m1_shell2_reduced_opt_relaxed E -544.075880799061
  C       0.115225      0.820101      0.893376
  C       0.849374     -0.131254     -0.084076
  O      -0.227681     -0.829500     -0.769328
  C      -1.255391     -0.824715      0.168678
  O      -1.298442      0.534280      0.659668
  H       0.353698      0.598220      1.940484
  H       0.264784      1.882123      0.677125
  H       1.460354     -0.870102      0.450389
  H       1.435102      0.385792     -0.848106
  H      -2.204205     -1.066985     -0.321340
  H      -1.022175     -1.489469      1.021048
  Li     -1.693250      1.263334     -1.533849
  C      -2.170278      4.173617     -0.923302
  C      -3.581346      3.902137     -1.526306
  O      -3.324083      3.060016     -2.682891
  C      -1.957488      3.427431     -3.055507
  O      -1.241059      3.461040     -1.814792
  H      -1.906324      5.238501     -0.941833
  H      -2.031772      3.751811      0.077486
  H      -4.060524      4.832605     -1.861796
  H      -4.242777      3.338974     -0.860689
  H      -1.548564      2.644501     -3.704831
  H      -1.940945      4.427375     -3.525308
23
Coordinates from ORCA-job DOL_m1_shell2_reduced_opt_relaxed E -544.077268381414
  C       0.089487      0.819714      0.897160
  C       0.831216     -0.099852     -0.109506
  O      -0.243498     -0.782526     -0.801160
  C      -1.287867     -0.804803      0.160345
  O      -1.323027      0.536388      0.669152
  H       0.339764      0.580739      1.937440
  H       0.238710      1.887804      0.703960
  H       1.462318     -0.837555      0.400941
  H       1.406611      0.443155     -0.866747
  H      -2.242360     -1.028113     -0.332536
  H      -1.059985     -1.493441      0.994643
  Li     -1.662832      1.290766     -1.495730
  C      -2.150008      4.176879     -0.934479
  C      -3.541919      3.861636     -1.515187
  O      -3.271710      3.008577     -2.646848
  C      -1.949630      3.401760     -3.038010
  O      -1.218977      3.472259     -1.811476
  H      -1.921057      5.247897     -0.966911
  H      -1.996059      3.777899      0.074078
  H      -4.052751      4.771530     -1.854294
  H      -4.179907      3.292851     -0.830430
  H      -1.526528      2.615507     -3.675431
  H      -1.967758      4.390761     -3.524673
23
Coordinates from ORCA-job DOL_m1_shell2_reduced_opt_relaxed E -544.078355648890
  C       0.082507      0.827805      0.881944
  C       0.838487     -0.110956     -0.093160
  O      -0.223589     -0.819674     -0.769655
  C      -1.268785     -0.832933      0.170017
  O      -1.318645      0.520816      0.652815
  H       0.337355      0.625301      1.928049
  H       0.223733      1.891015      0.657787
  H       1.482611     -0.818552      0.441205
  H       1.407560      0.420834     -0.863521
  H      -2.218528     -1.066360     -0.327186
  H      -1.048287     -1.508857      1.014812
  Li     -1.681762      1.273606     -1.520297
  C      -2.152042      4.165161     -0.928656
  C      -3.545222      3.891628     -1.523280
  O      -3.285227      3.055474     -2.663492
  C      -1.961833      3.415839     -3.047867
  O      -1.240159      3.459367     -1.814730
  H      -1.905640      5.231223     -0.929084
  H      -2.013388      3.740761      0.071205
  H      -4.037664      4.819024     -1.835812
  H      -4.194020      3.320978     -0.850989
  H      -1.550115      2.623013     -3.685057
  H      -1.955113      4.405319     -3.530744
23
Coordinates from ORCA-job DOL_m1_shell2_reduced_opt_relaxed E -544.080212886596
  C       0.058515      0.894840      0.811248
  C       0.825242     -0.090406     -0.102603
  O      -0.222589     -0.835655     -0.750699
  C      -1.270162     -0.814302      0.167656
  O      -1.332549      0.563496      0.586440
  H       0.312664      0.756332      1.867779
  H       0.196998      1.945023      0.527931
  H       1.475599     -0.756986      0.475693
  H       1.396727      0.405395     -0.895531
  H      -2.213546     -1.068790     -0.330378
  H      -1.070782     -1.454553      1.042732
  Li     -1.706426      1.258376     -1.548224
  C      -2.142965      4.083018     -0.879567
  C      -3.533746      3.887795     -1.516684
  O      -3.276355      3.078863     -2.673487
  C      -1.942611      3.393458     -3.023936
  O      -1.246349      3.373603     -1.774616
  H      -1.855925      5.137753     -0.825983
  H      -2.043799      3.615779      0.106993
  H      -3.985161      4.845860     -1.798984
  H      -4.220232      3.321370     -0.877001
  H      -1.545614      2.597114     -3.669026
  H      -1.884700      4.392448     -3.485449
23
Coordinates from ORCA-job DOL_m1_shell2_reduced_opt_relaxed E -544.081936061067
  C       0.029704      0.983071      0.721304
  C       0.800954     -0.051102     -0.130105
  O      -0.237040     -0.831283     -0.743804
  C      -1.290502     -0.763169      0.159919
  O      -1.357124      0.636564      0.504548
  H       0.278303      0.906506      1.786516
  H       0.171560      2.016678      0.380244
  H       1.452981     -0.680475      0.489371
  H       1.378774      0.402443     -0.945033
  H      -2.228859     -1.037786     -0.339150
  H      -1.113967     -1.366519      1.066386
  Li     -1.724342      1.253476     -1.564577
  C      -2.129492      3.974107     -0.815436
  C      -3.512336      3.856543     -1.499179
  O      -3.250201      3.077095     -2.674698
  C      -1.906037      3.352027     -2.983117
  O      -1.240987      3.261818     -1.716612
  H      -1.800309      5.014441     -0.711488
  H      -2.075891      3.468986      0.157686
  H      -3.922251      4.842030     -1.757239
  H      -4.240077      3.296364     -0.897692
  H      -1.518941      2.556142     -3.638472
  H      -1.791688      4.361875     -3.415072
23
Coordinates from ORCA-job DOL_m1_shell2_reduced_opt_relaxed E -544.082973950985
  C       0.022831      1.046036      0.644051
  C       0.796627     -0.038146     -0.143692
  O      -0.239129     -0.850916     -0.716859
  C      -1.296269     -0.726774      0.162751
  O      -1.362879      0.690663      0.432254
  H       0.260299      1.026288      1.715025
  H       0.173914      2.058640      0.250225
  H       1.443480     -0.633386      0.515134
  H       1.382341      0.367859     -0.978078
  H      -2.230693     -1.019445     -0.336166
  H      -1.145959     -1.287791      1.102385
  Li     -1.745456      1.244993     -1.588481
  C      -2.138897      3.887857     -0.766751
  C      -3.507659      3.847390     -1.492115
  O      -3.244710      3.101834     -2.688737
  C      -1.879894      3.334600     -2.953092
  O      -1.253006      3.174093     -1.669631
  H      -1.770398      4.909882     -0.618133
  H      -2.134875      3.349686      0.189473
  H      -3.872324      4.857033     -1.725885
  H      -4.272427      3.295828     -0.930317
  H      -1.505328      2.542037     -3.620825
  H      -1.707355      4.351572     -3.348232
23
Coordinates from ORCA-job DOL_m1_shell2_reduced_opt_relaxed E -544.084047427297
  C       0.039460      1.063372      0.598004
  C       0.815726     -0.060588     -0.142181
  O      -0.221424     -0.900029     -0.672705
  C      -1.287835     -0.717677      0.183534
  O      -1.347567      0.708374      0.388339
  H       0.264627      1.083495      1.672685
  H       0.205198      2.057462      0.168339
  H       1.460957     -0.627242      0.544437
  H       1.404105      0.305851     -0.992617
  H      -2.219781     -1.020094     -0.317968
  H      -1.164090     -1.242149      1.151240
  Li     -1.760036      1.236535     -1.613068
  C      -2.169220      3.849998     -0.746019
  C      -3.521685      3.862892     -1.501992
  O      -3.253975      3.151586     -2.716246
  C      -1.875005      3.351248     -2.942378
  O      -1.281354      3.139366     -1.645188
  H      -1.777170      4.859121     -0.565710
  H      -2.205460      3.290818      0.196454
  H      -3.854970      4.888778     -1.715630
  H      -4.311339      3.314993     -0.972818
  H      -1.509016      2.562078     -3.618669
  H      -1.657913      4.371647     -3.305540
23
Coordinates from ORCA-job DOL_m1_shell2_reduced_opt_relaxed E -544.085938261536
  C       0.089850      1.051782      0.546338
  C       0.861284     -0.123860     -0.135432
  O      -0.181106     -0.997686     -0.595492
  C      -1.278657     -0.710168      0.233433
  O      -1.307320      0.716646      0.342392
  H       0.294981      1.115096      1.624673
  H       0.284916      2.019676      0.076100
  H       1.508298     -0.652185      0.581547
  H       1.447187      0.188391     -1.007911
  H      -2.207001     -1.019937     -0.274684
  H      -1.185126     -1.181627      1.235816
  Li     -1.768177      1.227788     -1.640358
  C      -2.235559      3.828875     -0.733691
  C      -3.559268      3.895666     -1.530778
  O      -3.266503      3.237282     -2.767960
  C      -1.881171      3.401078     -2.934445
  O      -1.333573      3.128033     -1.619336
  H      -1.826254      4.826267     -0.518741
  H      -2.323182      3.249315      0.191862
  H      -3.861771      4.937168     -1.722570
  H      -4.376802      3.344687     -1.050725
  H      -1.513926      2.622048     -3.620447
  H      -1.608887      4.425498     -3.245290
23
Coordinates from ORCA-job DOL_m1_shell2_reduced_opt_relaxed E -544.085648262389
  C       0.316901      0.937325      0.449716
  C       1.012529     -0.409442      0.000017
  O      -0.078234     -1.329488     -0.271856
  C      -1.152984     -0.751276      0.368997
  O      -1.092873      0.667313      0.229168
  H       0.474257      1.138326      1.518550
  H       0.606037      1.802742     -0.153013
  H       1.629979     -0.821674      0.813490
  H       1.604705     -0.295051     -0.914192
  H      -2.061548     -1.080169     -0.152630
  H      -1.182503     -1.060729      1.438349
  Li     -1.776384      1.197944     -1.786185
  C      -2.477099      3.854581     -0.761887
  C      -3.744430      4.079211     -1.630272
  O      -3.391171      3.573897     -2.924683
  C      -1.948929      3.627044     -2.975460
  O      -1.521086      3.197603     -1.631917
  H      -2.043619      4.807521     -0.429781
  H      -2.674222      3.193794      0.086666
  H      -3.977640      5.150951     -1.715582
  H      -4.609656      3.511396     -1.280075
  H      -1.581970      2.891841     -3.700271
  H      -1.557826      4.646173     -3.142847
23
Coordinates from ORCA-job DOL_m1_shell2_reduced_opt_relaxed E -544.058496491904
  C       0.259299      0.940026      0.445636
  C       0.981881     -0.282732     -0.130225
  O      -0.091502     -1.160112     -0.437199
  C      -1.342777     -0.655393      0.383431
  O      -1.183844      0.714946      0.308626
  H       0.495056      1.097316      1.503798
  H       0.498365      1.847584     -0.124827
  H       1.683262     -0.710278      0.593202
  H       1.509383     -0.070555     -1.068100
  H      -2.287032     -0.938910     -0.120081
  H      -1.311595     -1.005422      1.423989
  Li     -1.736819      1.246432     -1.620060
  C      -2.415912      3.811713     -0.726554
  C      -3.608544      3.948437     -1.657277
  O      -3.183541      3.374098     -2.902437
  C      -1.915011      3.526415     -2.877545
  O      -1.466063      3.177899     -1.572840
  H      -2.051521      4.785693     -0.383974
  H      -2.569593      3.161465      0.146698
  H      -3.906650      4.997133     -1.775926
  H      -4.476625      3.366534     -1.315760
  H      -1.493879      2.793231     -3.583555
  H      -1.614106      4.564314     -3.074715
23
Coordinates from ORCA-job DOL_m1_shell2_reduced_opt_relaxed E -544.072725252474
  C       0.239460      1.024262      0.461103
  C       0.893441     -0.246383     -0.072651
  O      -0.167048     -1.146112     -0.397451
  C      -1.253724     -0.724932      0.308174
  O      -1.146447      0.733848      0.266186
  H       0.449549      1.177015      1.527689
  H       0.460732      1.939209     -0.092802
  H       1.556864     -0.691511      0.689320
  H       1.450716     -0.061950     -0.997145
  H      -2.167486     -1.049819     -0.192478
  H      -1.176623     -1.095465      1.347007
  Li     -1.779532      1.183692     -1.708676
  C      -2.376298      3.793022     -0.720944
  C      -3.710383      3.996445     -1.578509
  O      -3.369629      3.397805     -2.859595
  C      -1.830249      3.493275     -2.951619
  O      -1.419724      3.105234     -1.627966
  H      -1.924754      4.746762     -0.397894
  H      -2.526079      3.149724      0.153017
  H      -3.970073      5.062432     -1.691030
  H      -4.575140      3.451236     -1.180180
  H      -1.420504      2.760184     -3.675530
  H      -1.464834      4.531860     -3.173723
23
Coordinates from ORCA-job DOL_m1_shell2_reduced_opt_relaxed E -544.086662513638
  C       0.240735      1.002680      0.468911
  C       0.929840     -0.272381     -0.070240
  O      -0.138586     -1.166284     -0.402983
  C      -1.254263     -0.716842      0.318898
  O      -1.158263      0.724601      0.266548
  H       0.437626      1.157001      1.537745
  H       0.474413      1.915314     -0.088952
  H       1.588157     -0.718809      0.690042
  H       1.493881     -0.086294     -0.991530
  H      -2.171109     -1.035205     -0.186114
  H      -1.199059     -1.077973      1.362102
  Li     -1.771389      1.192293     -1.700309
  C      -2.387193      3.808331     -0.734917
  C      -3.677707      3.995869     -1.597725
  O      -3.340914      3.411070     -2.866409
  C      -1.874330      3.512403     -2.937193
  O      -1.441999      3.128299     -1.621031
  H      -1.953416      4.764479     -0.418185
  H      -2.538773      3.161962      0.135192
  H      -3.933925      5.057696     -1.711731
  H      -4.537654      3.443504     -1.205867
  H      -1.480024      2.784506     -3.660197
  H      -1.533816      4.543612     -3.151753
23
Coordinates from ORCA-job DOL_m1_shell2_reduced_opt_relaxed E -544.090233993624
  C       0.252413      0.988364      0.453462
  C       0.954751     -0.307658     -0.058682
  O      -0.124269     -1.202541     -0.374915
  C      -1.237785     -0.702695      0.335628
  O      -1.155542      0.723080      0.247632
  H       0.439107      1.165677      1.520824
  H       0.507832      1.881039     -0.126121
  H       1.606464     -0.742111      0.711728
  H       1.524818     -0.144610     -0.980380
  H      -2.155950     -1.019103     -0.177168
  H      -1.220078     -1.036539      1.390514
  Li     -1.758575      1.207589     -1.702338
  C      -2.409119      3.802766     -0.735368
  C      -3.660842      3.999968     -1.615498
  O      -3.308145      3.445345     -2.885192
  C      -1.910160      3.541818     -2.928109
  O      -1.467567      3.144044     -1.614159
  H      -1.986085      4.756674     -0.399005
  H      -2.574996      3.138784      0.119242
  H      -3.911919      5.065036     -1.716070
  H      -4.525849      3.438640     -1.246916
  H      -1.530013      2.815129     -3.655161
  H      -1.576259      4.571137     -3.129645
23
Coordinates from ORCA-job DOL_m1_shell2_reduced_opt_relaxed E -544.090638242421
  C       0.317502      0.963397      0.417352
  C       0.980783     -0.379185     -0.040458
  O      -0.122277     -1.268687     -0.300321
  C      -1.213279     -0.685671      0.372981
  O      -1.097657      0.728697      0.219158
  H       0.505967      1.175817      1.478002
  H       0.603858      1.823268     -0.194720
  H       1.627032     -0.792200      0.747049
  H       1.547982     -0.272169     -0.971034
  H      -2.133290     -1.001577     -0.138179
  H      -1.231342     -0.972650      1.442634
  Li     -1.745238      1.218322     -1.718576
  C      -2.476107      3.795157     -0.733655
  C      -3.710554      4.025548     -1.645362
  O      -3.318753      3.512667     -2.925516
  C      -1.911842      3.593632     -2.923589
  O      -1.507339      3.157369     -1.603222
  H      -2.058253      4.738867     -0.360894
  H      -2.672802      3.111792      0.098181
  H      -3.953045      5.095191     -1.721972
  H      -4.588600      3.458614     -1.320223
  H      -1.517675      2.879005     -3.657390
  H      -1.552837      4.624627     -3.085944
23
Coordinates from ORCA-job DOL_m1_shell2_reduced_opt_relaxed E -544.091208080678
  C       0.352341      0.933127      0.398223
  C       0.993133     -0.404885     -0.032932
  O      -0.122071     -1.280314     -0.264207
  C      -1.214460     -0.681940      0.392384
  O      -1.073498      0.721722      0.211539
  H       0.543908      1.153846      1.456435
  H       0.655733      1.778486     -0.226744
  H       1.635478     -0.813221      0.760712
  H       1.556965     -0.317817     -0.967234
  H      -2.142726     -0.993609     -0.110252
  H      -1.224420     -0.942848      1.468925
  Li     -1.740061      1.225382     -1.713948
  C      -2.509728      3.799040     -0.734938
  C      -3.741959      4.032864     -1.653178
  O      -3.316925      3.535608     -2.934512
  C      -1.907241      3.620977     -2.932823
  O      -1.523850      3.180419     -1.606726
  H      -2.099651      4.743042     -0.349979
  H      -2.710989      3.107656      0.090451
  H      -3.990619      5.102242     -1.728274
  H      -4.622401      3.457564     -1.347604
  H      -1.485151      2.915209     -3.664097
  H      -1.539575      4.657285     -3.076922
23
Coordinates from ORCA-job DOL_m1_shell2_reduced_opt_relaxed E -544.091901649534
  C       0.376875      0.926089      0.370872
  C       1.001030     -0.431931     -0.025248
  O      -0.123595     -1.304808     -0.225382
  C      -1.208883     -0.675632      0.412164
  O      -1.050772      0.721272      0.197365
  H       0.574895      1.175473      1.421293
  H       0.684533      1.750568     -0.279796
  H       1.645922     -0.821629      0.775317
  H       1.559730     -0.378166     -0.965340
  H      -2.139609     -0.987298     -0.084640
  H      -1.226734     -0.911490      1.493981
  Li     -1.732890      1.232360     -1.711644
  C      -2.539115      3.788481     -0.733895
  C      -3.750506      4.041105     -1.670566
  O      -3.306561      3.566271     -2.951451
  C      -1.909254      3.645150     -2.921453
  O      -1.542882      3.183345     -1.596387
  H      -2.135500      4.723718     -0.323705
  H      -2.757487      3.082869      0.074601
  H      -3.995757      5.111464     -1.729543
  H      -4.637589      3.463078     -1.392641
  H      -1.479496      2.949355     -3.656001
  H      -1.534123      4.680189     -3.043598
23
Coordinates from ORCA-job DOL_m1_shell2_reduced_opt_relaxed E -544.092933064811
  C       0.433248      0.907305      0.301394
  C       1.014774     -0.490373     -0.006291
  O      -0.129696     -1.348377     -0.134106
  C      -1.197381     -0.656247      0.456712
  O      -0.996669      0.724255      0.157268
  H       0.649869      1.226302      1.328401
  H       0.745167      1.679293     -0.409415
  H       1.666450     -0.836486      0.807702
  H       1.557596     -0.518805     -0.956932
  H      -2.135876     -0.971508     -0.016440
  H      -1.225602     -0.823714      1.549075
  Li     -1.716270      1.247172     -1.703265
  C      -2.609409      3.757261     -0.732312
  C      -3.773111      4.059551     -1.708335
  O      -3.284546      3.635554     -2.987327
  C      -1.904104      3.698406     -2.893142
  O      -1.585062      3.183531     -1.574984
  H      -2.223067      4.667714     -0.259153
  H      -2.865569      3.016434      0.032188
  H      -4.011613      5.131257     -1.724995
  H      -4.674969      3.478057     -1.496207
  H      -1.448325      3.032994     -3.636713
  H      -1.513603      4.730258     -2.958820
23
Coordinates from ORCA-job DOL_m1_shell2_reduced_opt_relaxed E -544.093605456883
  C       0.490275      0.874159      0.244385
  C       1.033565     -0.552530      0.016570
  O      -0.129572     -1.389998     -0.046068
  C      -1.180705     -0.640341      0.499570
  O      -0.943238      0.720010      0.121401
  H       0.724370      1.251319      1.247632
  H       0.809025      1.596130     -0.514867
  H       1.690640     -0.863201      0.840326
  H       1.560343     -0.653362     -0.938312
  H      -2.128152     -0.959785      0.050363
  H      -1.210724     -0.738796      1.599914
  Li     -1.699803      1.258569     -1.697296
  C      -2.680811      3.736918     -0.738271
  C      -3.805367      4.083768     -1.743481
  O      -3.274179      3.708284     -3.020799
  C      -1.901367      3.755673     -2.873263
  O      -1.627461      3.192973     -1.564741
  H      -2.311637      4.624505     -0.211698
  H      -2.966305      2.965593     -0.014904
  H      -4.040981      5.155857     -1.722805
  H      -4.716467      3.498688     -1.588975
  H      -1.418538      3.120184     -3.624450
  H      -1.500678      4.785218     -2.885927
23
Coordinates from ORCA-job DOL_m1_shell2_reduced_opt_relaxed E -544.094323322880
  C       0.544934      0.834341      0.185737
  C       1.053071     -0.613712      0.044208
  O      -0.128658     -1.424054      0.044057
  C      -1.163758     -0.624387      0.541284
  O      -0.891879      0.710837      0.080132
  H       0.799173      1.271536      1.159339
  H       0.870122      1.500313     -0.621604
  H       1.714081     -0.887974      0.877325
  H       1.564162     -0.788141     -0.908802
  H      -2.122052     -0.949900      0.122533
  H      -1.185573     -0.640733      1.645667
  Li     -1.682709      1.265977     -1.689453
  C      -2.754048      3.714622     -0.749294
  C      -3.839252      4.110243     -1.776292
  O      -3.267027      3.786066     -3.050894
  C      -1.895001      3.815870     -2.851889
  O      -1.670257      3.202311     -1.561496
  H      -2.401684      4.574259     -0.168065
  H      -3.065134      2.910751     -0.072102
  H      -4.073472      5.181156     -1.715228
  H      -4.756755      3.522355     -1.678322
  H      -1.385349      3.214899     -3.612925
  H      -1.490704      4.843200     -2.809615
23
Coordinates from ORCA-job DOL_m1_shell2_reduced_opt_relaxed E -544.094817080950
  C       0.591527      0.792665      0.131857
  C       1.072510     -0.671067      0.073335
  O      -0.123979     -1.457980      0.130638
  C      -1.143129     -0.608266      0.579809
  O      -0.848625      0.696297      0.039501
  H       0.862968      1.282859      1.075383
  H       0.927983      1.401138     -0.716000
  H       1.735427     -0.909020      0.916156
  H       1.572470     -0.909909     -0.871549
  H      -2.110809     -0.940075      0.187346
  H      -1.158654     -0.541830      1.683255
  Li     -1.665708      1.270348     -1.684181
  C      -2.820262      3.692260     -0.762975
  C      -3.872496      4.137660     -1.804443
  O      -3.261446      3.866974     -3.075306
  C      -1.891934      3.875105     -2.832525
  O      -1.710316      3.211270     -1.564642
  H      -2.481290      4.522995     -0.132488
  H      -3.153920      2.859163     -0.132237
  H      -4.104705      5.206926     -1.705068
  H      -4.794098      3.548824     -1.757703
  H      -1.363310      3.303542     -3.603847
  H      -1.485972      4.899955     -2.740013
23
Coordinates from ORCA-job DOL_m1_shell2_reduced_opt_relaxed E -544.095107247316
  C       0.604556      0.774254      0.100047
  C       1.083188     -0.690737      0.095181
  O      -0.117914     -1.469615      0.173622
  C      -1.134996     -0.610438      0.596110
  O      -0.834824      0.675698      0.013958
  H       0.881845      1.300117      1.022596
  H       0.945249      1.346193     -0.771525
  H       1.740901     -0.902770      0.948810
  H       1.586910     -0.963269     -0.838509
  H      -2.106444     -0.950015      0.219885
  H      -1.140197     -0.490413      1.695477
  Li     -1.660673      1.258191     -1.683935
  C      -2.847974      3.677503     -0.772149
  C      -3.883733      4.156179     -1.812218
  O      -3.260819      3.914256     -3.081926
  C      -1.887291      3.905380     -2.822535
  O      -1.730490      3.212565     -1.575181
  H      -2.509401      4.486358     -0.113316
  H      -3.193863      2.827297     -0.171174
  H      -4.110632      5.224237     -1.688854
  H      -4.808312      3.570375     -1.787555
  H      -1.358331      3.348813     -3.604634
  H      -1.484524      4.929673     -2.707872
23
Coordinates from ORCA-job DOL_m1_shell2_reduced_opt_relaxed E -544.095295143571
  C       0.609833      0.761551      0.065379
  C       1.091215     -0.703523      0.113115
  O      -0.107704     -1.483199      0.216781
  C      -1.124432     -0.604129      0.611357
  O      -0.829325      0.660157     -0.015753
  H       0.886370      1.318782      0.969599
  H       0.956167      1.299423     -0.825275
  H       1.745767     -0.884108      0.976497
  H       1.599540     -1.005352     -0.808628
  H      -2.096057     -0.955260      0.246450
  H      -1.131341     -0.438152      1.705185
  Li     -1.659659      1.246190     -1.688610
  C      -2.869053      3.654922     -0.778057
  C      -3.889358      4.172982     -1.818194
  O      -3.254144      3.961429     -3.086950
  C      -1.885206      3.927488     -2.810327
  O      -1.748430      3.200248     -1.581608
  H      -2.528402      4.442302     -0.094439
  H      -3.232846      2.792955     -0.205091
  H      -4.104880      5.240357     -1.668903
  H      -4.820195      3.596905     -1.817499
  H      -1.359532      3.381727     -3.602236
  H      -1.476095      4.946135     -2.668491
23
Coordinates from ORCA-job DOL_m1_shell2_reduced_opt_relaxed E -544.095518779396
  C       0.588025      0.772839      0.052435
  C       1.092039     -0.684780      0.124894
  O      -0.096486     -1.481158      0.223050
  C      -1.125644     -0.612731      0.604523
  O      -0.847640      0.644669     -0.036544
  H       0.847810      1.345664      0.952001
  H       0.937252      1.301301     -0.842411
  H       1.735252     -0.843524      1.001164
  H       1.619533     -0.989402     -0.784893
  H      -2.089653     -0.981626      0.236149
  H      -1.135157     -0.432836      1.696424
  Li     -1.670339      1.220314     -1.705679
  C      -2.856203      3.639814     -0.777743
  C      -3.878052      4.182385     -1.803733
  O      -3.255722      3.977734     -3.076819
  C      -1.881763      3.921917     -2.812679
  O      -1.750238      3.178226     -1.594029
  H      -2.498953      4.415938     -0.089869
  H      -3.231200      2.778081     -0.211912
  H      -4.076844      5.251121     -1.640481
  H      -4.816696      3.619556     -1.799967
  H      -1.375103      3.371643     -3.613460
  H      -1.461983      4.934690     -2.666119
23
Coordinates from ORCA-job DOL_m1_shell2_reduced_opt_relaxed E -544.095858575025
  C       0.532741      0.806250      0.043794
  C       1.093328     -0.629052      0.139755
  O      -0.065723     -1.467389      0.213384
  C      -1.134249     -0.637304      0.582437
  O      -0.895176      0.617672     -0.066552
  H       0.751401      1.396048      0.943317
  H       0.877953      1.338688     -0.849837
  H       1.716716     -0.754953      1.035803
  H       1.657740     -0.919372     -0.752162
  H      -2.078742     -1.041971      0.201242
  H      -1.160646     -0.456725      1.674006
  Li     -1.704581      1.163564     -1.745480
  C      -2.814789      3.614601     -0.771452
  C      -3.842175      4.199137     -1.768898
  O      -3.254753      3.991461     -3.055261
  C      -1.881642      3.890849     -2.825138
  O      -1.747836      3.128046     -1.617581
  H      -2.419582      4.374623     -0.086545
  H      -3.206988      2.761379     -0.204949
  H      -4.003364      5.271518     -1.587263
  H      -4.798301      3.667424     -1.748883
  H      -1.416802      3.325643     -3.640350
  H      -1.432298      4.889694     -2.679085
23
Coordinates from ORCA-job DOL_m1_shell2_reduced_opt_relaxed E -544.096232990117
  C       0.433158      0.875034      0.043284
  C       1.077698     -0.524181      0.157133
  O      -0.031710     -1.428617      0.185065
  C      -1.151420     -0.667353      0.534116
  O      -0.976346      0.591552     -0.110382
  H       0.582665      1.472991      0.951206
  H       0.767076      1.431629     -0.839171
  H       1.669344     -0.611613      1.079144
  H       1.695200     -0.778583     -0.709913
  H      -2.055660     -1.129187      0.120643
  H      -1.208800     -0.514652      1.627842
  Li     -1.758686      1.083583     -1.821593
  C      -2.728953      3.572064     -0.758090
  C      -3.775578      4.208019     -1.700016
  O      -3.260475      3.988031     -3.010112
  C      -1.877012      3.826213     -2.854289
  O      -1.731103      3.044486     -1.652974
  H      -2.271391      4.313802     -0.092823
  H      -3.135067      2.738080     -0.174110
  H      -3.882701      5.283539     -1.497229
  H      -4.753440      3.721377     -1.639052
  H      -1.478947      3.234565     -3.685253
  H      -1.375618      4.799054     -2.719125
23
Coordinates from ORCA-job DOL_m1_shell2_reduced_opt_relaxed E -544.096203105582
  C       0.362466      0.911224      0.011389
  C       1.078819     -0.445949      0.173672
  O       0.021291     -1.407390      0.197566
  C      -1.156609     -0.695828      0.523033
  O      -1.030233      0.550875     -0.153995
  H       0.464079      1.542600      0.902946
  H       0.675667      1.460928     -0.882680
  H       1.654543     -0.477887      1.109430
  H       1.728647     -0.686947     -0.673243
  H      -2.031364     -1.211115      0.110233
  H      -1.238441     -0.528633      1.612737
  Li     -1.816456      1.003118     -1.866982
  C      -2.695773      3.522377     -0.751131
  C      -3.720198      4.238701     -1.666254
  O      -3.228857      4.031585     -2.990838
  C      -1.877210      3.789947     -2.849738
  O      -1.743476      2.966932     -1.676900
  H      -2.193892      4.224486     -0.074510
  H      -3.133474      2.695568     -0.180365
  H      -3.769931      5.311728     -1.430435
  H      -4.721883      3.802530     -1.609180
  H      -1.532099      3.199873     -3.704975
  H      -1.323382      4.731111     -2.695476
23
Coordinates from ORCA-job DOL_m1_shell2_reduced_opt_relaxed E -544.096782397135
  C       0.395039      0.903899      0.009301
  C       1.079499     -0.476737      0.183688
  O       0.001637     -1.426226      0.220779
  C      -1.147992     -0.686164      0.530105
  O      -1.001506      0.561970     -0.154387
  H       0.513855      1.546034      0.890801
  H       0.704679      1.443409     -0.892289
  H       1.663583     -0.512554      1.113971
  H       1.718280     -0.742227     -0.664642
  H      -2.025833     -1.201260      0.126320
  H      -1.236918     -0.509038      1.617234
  Li     -1.798144      1.018378     -1.874332
  C      -2.717476      3.528841     -0.754794
  C      -3.743979      4.242429     -1.672175
  O      -3.248402      4.042477     -3.003015
  C      -1.880100      3.806066     -2.850922
  O      -1.747608      2.981549     -1.678620
  H      -2.222305      4.227133     -0.068235
  H      -3.144748      2.692465     -0.190167
  H      -3.808336      5.313606     -1.433611
  H      -4.741840      3.795321     -1.624648
  H      -1.515543      3.233859     -3.710846
  H      -1.323610      4.746604     -2.685215
23
Coordinates from ORCA-job DOL_m1_shell2_reduced_opt_relaxed E -544.097058441957
  C       0.370340      0.909122      0.004516
  C       1.078977     -0.445865      0.205236
  O       0.016179     -1.403516      0.235146
  C      -1.150447     -0.693239      0.509740
  O      -1.020814      0.549627     -0.186987
  H       0.463776      1.559112      0.883372
  H       0.690858      1.446251     -0.894524
  H       1.645815     -0.462746      1.146252
  H       1.736606     -0.709913     -0.628437
  H      -2.017300     -1.228116      0.107412
  H      -1.254977     -0.495546      1.592500
  Li     -1.820221      0.985081     -1.915369
  C      -2.697872      3.508317     -0.759069
  C      -3.726996      4.250544     -1.639449
  O      -3.258481      4.057399     -2.978390
  C      -1.886609      3.794232     -2.865544
  O      -1.751649      2.955639     -1.707595
  H      -2.174371      4.187936     -0.074519
  H      -3.126558      2.671604     -0.196219
  H      -3.767640      5.320281     -1.389848
  H      -4.730613      3.818441     -1.578164
  H      -1.536137      3.232319     -3.738122
  H      -1.309633      4.722870     -2.697635
23
Coordinates from ORCA-job DOL_m1_shell2_reduced_opt_relaxed E -544.097319489699
  C       0.316032      0.940997     -0.014198
  C       1.069439     -0.383800      0.218867
  O       0.043986     -1.382282      0.241562
  C      -1.155944     -0.708355      0.493912
  O      -1.058379      0.527357     -0.218119
  H       0.371913      1.608192      0.855015
  H       0.629025      1.476190     -0.916764
  H       1.619632     -0.367259      1.169890
  H       1.752607     -0.632941     -0.598849
  H      -1.997645     -1.280626      0.089590
  H      -1.282923     -0.503713      1.573341
  Li     -1.859479      0.929202     -1.957716
  C      -2.665442      3.468867     -0.753354
  C      -3.683803      4.262132     -1.604233
  O      -3.242660      4.080217     -2.956391
  C      -1.885461      3.766326     -2.868584
  O      -1.755849      2.902898     -1.729882
  H      -2.106898      4.118672     -0.067507
  H      -3.109402      2.636447     -0.196526
  H      -3.684474      5.327916     -1.335521
  H      -4.700291      3.862553     -1.535256
  H      -1.571816      3.211503     -3.759637
  H      -1.269933      4.669342     -2.695337
23
Coordinates from ORCA-job DOL_m1_shell2_reduced_opt_relaxed E -544.097481516966
  C       0.252183      0.977058     -0.040293
  C       1.053224     -0.311968      0.239579
  O       0.071952     -1.356170      0.256393
  C      -1.159245     -0.722782      0.475220
  O      -1.098188      0.501399     -0.257824
  H       0.262182      1.665770      0.814211
  H       0.564568      1.504463     -0.947056
  H       1.577598     -0.254639      1.203682
  H       1.768654     -0.545354     -0.555137
  H      -1.969082     -1.338020      0.068591
  H      -1.313558     -0.504082      1.548780
  Li     -1.904175      0.863909     -2.012112
  C      -2.626182      3.418519     -0.749351
  C      -3.632248      4.271889     -1.558165
  O      -3.226866      4.110981     -2.924464
  C      -1.883985      3.739179     -2.874666
  O      -1.762385      2.844170     -1.760827
  H      -2.026788      4.029615     -0.062656
  H      -3.088899      2.590301     -0.202439
  H      -3.585471      5.329700     -1.263701
  H      -4.661234      3.908992     -1.476308
  H      -1.615931      3.197272     -3.788141
  H      -1.223889      4.609630     -2.699009
23
Coordinates from ORCA-job DOL_m1_shell2_reduced_opt_relaxed E -544.097552692966
  C       0.247667      0.977877     -0.047775
  C       1.052828     -0.306536      0.251963
  O       0.076749     -1.356906      0.269154
  C      -1.156554     -0.726392      0.473231
  O      -1.097473      0.493977     -0.268234
  H       0.249269      1.675843      0.799521
  H       0.568495      1.496281     -0.956459
  H       1.567253     -0.238790      1.220761
  H       1.777598     -0.542534     -0.533544
  H      -1.961581     -1.347788      0.066830
  H      -1.319517     -0.494207      1.542797
  Li     -1.910574      0.851134     -2.025936
  C      -2.622514      3.409141     -0.752936
  C      -3.627605      4.276380     -1.547794
  O      -3.232671      4.126122     -2.917131
  C      -1.887805      3.743183     -2.880121
  O      -1.768334      2.838756     -1.773883
  H      -2.014681      4.008866     -0.063753
  H      -3.090445      2.579746     -0.212484
  H      -3.571131      5.330983     -1.243654
  H      -4.658111      3.919279     -1.461159
  H      -1.629000      3.207919     -3.800093
  H      -1.219630      4.607499     -2.704999
23
Coordinates from ORCA-job DOL_m1_shell2_reduced_opt_relaxed E -544.097600604402
  C       0.231611      0.983670     -0.067301
  C       1.050902     -0.283077      0.270219
  O       0.088513     -1.344648      0.291054
  C      -1.155229     -0.730000      0.467912
  O      -1.105028      0.481196     -0.293405
  H       0.216675      1.700264      0.764261
  H       0.560765      1.484929     -0.982403
  H       1.547854     -0.190598      1.245930
  H       1.791842     -0.524230     -0.498324
  H      -1.949830     -1.366030      0.064944
  H      -1.335515     -0.473048      1.528704
  Li     -1.928895      0.823001     -2.050624
  C      -2.614995      3.382547     -0.757022
  C      -3.608448      4.283417     -1.526797
  O      -3.228943      4.151024     -2.901162
  C      -1.891432      3.741318     -2.882312
  O      -1.779289      2.815601     -1.794609
  H      -1.991412      3.956542     -0.059928
  H      -3.097162      2.552277     -0.230593
  H      -3.528518      5.330541     -1.202547
  H      -4.644778      3.944534     -1.435982
  H      -1.649875      3.219295     -3.814482
  H      -1.206580      4.591307     -2.701231
23
Coordinates from ORCA-job DOL_m1_shell2_reduced_opt_relaxed E -544.097626038656
  C       0.223627      0.990477     -0.067270
  C       1.047286     -0.271791      0.276111
  O       0.091181     -1.339406      0.287149
  C      -1.158157     -0.733070      0.461330
  O      -1.109361      0.481876     -0.297556
  H       0.202535      1.708960      0.762426
  H       0.555098      1.490386     -0.982369
  H       1.534526     -0.177282      1.256535
  H       1.796276     -0.508131     -0.485929
  H      -1.948373     -1.370920      0.052746
  H      -1.344023     -0.475984      1.521071
  Li     -1.933405      0.818069     -2.055429
  C      -2.604281      3.374862     -0.757418
  C      -3.599271      4.282415     -1.516694
  O      -3.232871      4.149765     -2.894250
  C      -1.893624      3.736620     -2.888992
  O      -1.778450      2.808421     -1.802566
  H      -1.973957      3.943015     -0.061468
  H      -3.088350      2.545282     -0.231529
  H      -3.511382      5.328373     -1.190269
  H      -4.636788      3.949459     -1.416899
  H      -1.660321      3.213710     -3.822800
  H      -1.205681      4.584726     -2.711626
23
Coordinates from ORCA-job DOL_m1_shell2_reduced_opt_relaxed E -544.097666153277
  C       0.223994      0.991022     -0.075205
  C       1.048207     -0.265693      0.290323
  O       0.095806     -1.337462      0.298900
  C      -1.156230     -0.735235      0.458612
  O      -1.107351      0.478196     -0.307516
  H       0.197867      1.720826      0.744277
  H       0.559302      1.478056     -0.995907
  H       1.520697     -0.159674      1.276786
  H       1.808049     -0.507298     -0.458817
  H      -1.940240     -1.377429      0.044503
  H      -1.351821     -0.469792      1.514505
  Li     -1.938478      0.812189     -2.064656
  C      -2.602243      3.362473     -0.761686
  C      -3.592180      4.288462     -1.506411
  O      -3.237071      4.162537     -2.887624
  C      -1.901258      3.740082     -2.895548
  O      -1.785773      2.800964     -1.815952
  H      -1.965556      3.916143     -0.059710
  H      -3.094053      2.531943     -0.244550
  H      -3.490793      5.330435     -1.170767
  H      -4.633064      3.967656     -1.402428
  H      -1.678358      3.219500     -3.832921
  H      -1.207218      4.581932     -2.713905
23
Coordinates from ORCA-job DOL_m1_shell2_reduced_opt_relaxed E -544.097715419172
  C       0.220041      0.996479     -0.074905
  C       1.047619     -0.253452      0.306398
  O       0.103999     -1.333038      0.296785
  C      -1.155340     -0.742515      0.448793
  O      -1.108220      0.476219     -0.312460
  H       0.186441      1.732889      0.738104
  H       0.556448      1.477029     -0.998508
  H       1.498594     -0.142540      1.302351
  H       1.823580     -0.490217     -0.427076
  H      -1.928779     -1.388775      0.021612
  H      -1.365122     -0.483006      1.503238
  Li     -1.945600      0.807475     -2.072874
  C      -2.592343      3.352153     -0.765329
  C      -3.579068      4.295723     -1.493364
  O      -3.245867      4.166541     -2.879936
  C      -1.914707      3.736369     -2.907146
  O      -1.791206      2.790793     -1.830849
  H      -1.945187      3.892970     -0.062906
  H      -3.089128      2.523272     -0.250589
  H      -3.457547      5.335308     -1.157093
  H      -4.623580      3.992434     -1.376171
  H      -1.708214      3.214660     -3.847340
  H      -1.214579      4.573063     -2.726434
23
Coordinates from ORCA-job DOL_m1_shell2_reduced_opt_relaxed E -544.097768201026
  C       0.220013      1.000442     -0.071733
  C       1.046385     -0.245095      0.325291
  O       0.110711     -1.330387      0.289595
  C      -1.153360     -0.749071      0.435646
  O      -1.106344      0.477036     -0.315206
  H       0.180846      1.742476      0.735798
  H       0.559894      1.475050     -0.997146
  H       1.471396     -0.133642      1.332578
  H       1.841499     -0.475099     -0.389324
  H      -1.916196     -1.397535     -0.006895
  H      -1.375263     -0.501261      1.490186
  Li     -1.949284      0.809061     -2.078310
  C      -2.583151      3.344932     -0.769084
  C      -3.567614      4.303471     -1.481203
  O      -3.260686      4.166189     -2.873152
  C      -1.932828      3.731989     -2.920529
  O      -1.796732      2.783565     -1.845589
  H      -1.925291      3.874921     -0.068476
  H      -3.082142      2.517252     -0.254543
  H      -3.423281      5.341831     -1.150312
  H      -4.615047      4.018707     -1.346342
  H      -1.742840      3.209446     -3.863342
  H      -1.228451      4.565555     -2.743607
23
Coordinates from ORCA-job DOL_m1_shell2_reduced_opt_relaxed E -544.097839588732
  C       0.219382      1.005233     -0.064012
  C       1.043898     -0.234536      0.354044
  O       0.122350     -1.327770      0.273550
  C      -1.149056     -0.761023      0.413599
  O      -1.103164      0.477101     -0.316658
  H       0.171483      1.754269      0.736718
  H       0.567450      1.473172     -0.989863
  H       1.428716     -0.126871      1.378018
  H       1.868758     -0.449779     -0.330870
  H      -1.897575     -1.410825     -0.050909
  H      -1.386834     -0.534540      1.469420
  Li     -1.953764      0.811881     -2.084537
  C      -2.569172      3.339221     -0.774057
  C      -3.551401      4.315538     -1.464521
  O      -3.285603      4.162605     -2.863153
  C      -1.962162      3.724147     -2.940076
  O      -1.804752      2.776419     -1.866444
  H      -1.894724      3.855892     -0.079309
  H      -3.069249      2.513466     -0.257361
  H      -3.373092      5.352856     -1.146945
  H      -4.601050      4.056418     -1.299506
  H      -1.796072      3.201410     -3.887026
  H      -1.252135      4.555548     -2.775799
23
Coordinates from ORCA-job DOL_m1_shell2_reduced_opt_relaxed E -544.097914132356
  C       0.218053      1.009919     -0.056072
  C       1.039229     -0.223675      0.386643
  O       0.135996     -1.324980      0.253963
  C      -1.142570     -0.773830      0.387151
  O      -1.099687      0.476585     -0.319573
  H       0.159652      1.767504      0.736081
  H       0.579016      1.469241     -0.981546
  H       1.377201     -0.122072      1.427970
  H       1.897513     -0.420565     -0.261944
  H      -1.876793     -1.423869     -0.099470
  H      -1.395924     -0.571696      1.444325
  Li     -1.957522      0.814919     -2.090674
  C      -2.553802      3.335327     -0.778496
  C      -3.533772      4.328449     -1.446160
  O      -3.314229      4.157994     -2.850250
  C      -1.995098      3.714350     -2.959652
  O      -1.813723      2.770285     -1.888127
  H      -1.860849      3.838308     -0.092114
  H      -3.054664      2.511493     -0.259274
  H      -3.319127      5.364002     -1.145407
  H      -4.583375      4.095629     -1.246043
  H      -1.854874      3.192410     -3.911164
  H      -1.278418      4.544107     -2.815865
23
Coordinates from ORCA-job DOL_m1_shell2_reduced_opt_relaxed E -544.097982928216
  C       0.215224      1.013962     -0.048574
  C       1.033428     -0.211361      0.422603
  O       0.154161     -1.322189      0.234341
  C      -1.133446     -0.789903      0.358168
  O      -1.096374      0.472504     -0.324508
  H       0.143274      1.782422      0.732013
  H       0.592236      1.461518     -0.973712
  H       1.318671     -0.116433      1.480632
  H       1.926774     -0.387049     -0.183457
  H      -1.853153     -1.439651     -0.150390
  H      -1.402863     -0.613063      1.416123
  Li     -1.961948      0.814644     -2.097895
  C      -2.537015      3.333588     -0.782736
  C      -3.514309      4.343388     -1.426215
  O      -3.344086      4.156372     -2.834318
  C      -2.030659      3.704505     -2.979153
  O      -1.824489      2.765809     -1.910934
  H      -1.823897      3.821590     -0.106450
  H      -3.039992      2.512184     -0.261524
  H      -3.263495      5.375954     -1.142959
  H      -4.561458      4.136568     -1.188453
  H      -1.918717      3.182503     -3.934539
  H      -1.305634      4.531971     -2.863761
23
Coordinates from ORCA-job DOL_m1_shell2_reduced_opt_relaxed E -544.098035936474
  C       0.212428      1.018088     -0.045039
  C       1.026278     -0.197311      0.458184
  O       0.173599     -1.318131      0.218430
  C      -1.123048     -0.805203      0.329612
  O      -1.093289      0.467319     -0.333608
  H       0.126080      1.799702      0.720552
  H       0.605843      1.449485     -0.971325
  H       1.256309     -0.106735      1.530216
  H       1.952209     -0.353905     -0.102203
  H      -1.827977     -1.455142     -0.199174
  H      -1.409308     -0.650925      1.386629
  Li     -1.965672      0.812549     -2.105130
  C      -2.520770      3.331058     -0.785997
  C      -3.494015      4.357953     -1.405841
  O      -3.370688      4.158253     -2.816327
  C      -2.064237      3.695076     -2.995901
  O      -1.835916      2.760536     -1.931623
  H      -1.788694      3.803181     -0.119230
  H      -3.028105      2.512724     -0.264059
  H      -3.210504      5.386054     -1.137106
  H      -4.537307      4.176068     -1.133415
  H      -1.980878      3.170836     -3.953187
  H      -1.330105      4.518304     -2.910156
23
Coordinates from ORCA-job DOL_m1_shell2_reduced_opt_relaxed E -544.098083417180
  C       0.213227      1.018403     -0.046760
  C       1.021580     -0.187320      0.485679
  O       0.190260     -1.316609      0.211792
  C      -1.113584     -0.818160      0.309255
  O      -1.089107      0.460270     -0.343550
  H       0.115838      1.813543      0.702870
  H       0.619341      1.431377     -0.976172
  H       1.207092     -0.096621      1.566450
  H       1.970626     -0.332390     -0.037484
  H      -1.807457     -1.468797     -0.233278
  H      -1.413147     -0.677656      1.364448
  Li     -1.966245      0.809887     -2.108759
  C      -2.511656      3.331160     -0.787454
  C      -3.480542      4.370775     -1.391481
  O      -3.388201      4.164644     -2.803035
  C      -2.088593      3.690340     -3.006310
  O      -1.846068      2.758973     -1.944444
  H      -1.767025      3.791094     -0.126484
  H      -3.024156      2.515483     -0.266314
  H      -3.176076      5.395091     -1.130817
  H      -4.520683      4.205997     -1.096931
  H      -2.026357      3.161481     -3.962893
  H      -1.346835      4.508868     -2.944024
23
Coordinates from ORCA-job DOL_m1_shell2_reduced_opt_relaxed E -544.098145741437
  C       0.215534      1.016322     -0.057268
  C       1.018108     -0.178361      0.504407
  O       0.202674     -1.316356      0.214371
  C      -1.106232     -0.828000      0.296117
  O      -1.085495      0.451519     -0.357302
  H       0.109589      1.826656      0.673850
  H       0.630457      1.407106     -0.992474
  H       1.169397     -0.080270      1.589845
  H       1.982585     -0.319626      0.009851
  H      -1.791669     -1.482167     -0.252755
  H      -1.417322     -0.691410      1.348236
  Li     -1.963052      0.805788     -2.108530
  C      -2.508798      3.332564     -0.785386
  C      -3.473214      4.380887     -1.381434
  O      -3.394478      4.174880     -2.793539
  C      -2.100927      3.688017     -3.009214
  O      -1.853579      2.758664     -1.947321
  H      -1.758014      3.784507     -0.126253
  H      -3.027130      2.519464     -0.265965
  H      -3.159392      5.402327     -1.120424
  H      -4.512330      4.225313     -1.078276
  H      -2.053176      3.151877     -3.962805
  H      -1.351303      4.500132     -2.963430
23
Coordinates from ORCA-job DOL_m1_shell2_reduced_opt_relaxed E -544.098215830150
  C       0.218894      1.013250     -0.070538
  C       1.014114     -0.168386      0.525383
  O       0.217303     -1.315731      0.217463
  C      -1.097641     -0.841118      0.280957
  O      -1.080227      0.440204     -0.372450
  H       0.104407      1.841061      0.638617
  H       0.642355      1.378905     -1.012067
  H       1.126412     -0.061669      1.614754
  H       1.994863     -0.305900      0.063645
  H      -1.770604     -1.501194     -0.276085
  H      -1.424565     -0.709518      1.328772
  Li     -1.957263      0.801102     -2.106093
  C      -2.506111      3.336563     -0.782039
  C      -3.465891      4.393628     -1.371645
  O      -3.400678      4.185636     -2.783776
  C      -2.114524      3.684971     -3.012165
  O      -1.861957      2.758977     -1.947105
  H      -1.749575      3.782358     -0.125332
  H      -3.029359      2.527750     -0.260930
  H      -3.142906      5.412642     -1.112057
  H      -4.504164      4.248635     -1.060514
  H      -2.084365      3.138284     -3.960550
  H      -1.356283      4.489384     -2.981942
23
Coordinates from ORCA-job DOL_m1_shell2_reduced_opt_relaxed E -544.098282340780
  C       0.220684      1.009388     -0.085998
  C       1.009518     -0.157047      0.544023
  O       0.230985     -1.313796      0.225144
  C      -1.089745     -0.853873      0.267414
  O      -1.075467      0.427420     -0.388445
  H       0.097297      1.853213      0.602151
  H       0.652460      1.353211     -1.031943
  H       1.088247     -0.038858      1.635171
  H       2.003732     -0.291226      0.111447
  H      -1.746822     -1.523570     -0.296944
  H      -1.434793     -0.723861      1.309618
  Li     -1.952245      0.793430     -2.105862
  C      -2.504778      3.339622     -0.778186
  C      -3.458592      4.405806     -1.362403
  O      -3.403814      4.197277     -2.774799
  C      -2.125920      3.681939     -3.013772
  O      -1.870739      2.757310     -1.944571
  H      -1.742656      3.780477     -0.124246
  H      -3.031726      2.535996     -0.252864
  H      -3.125908      5.422223     -1.104849
  H      -4.496648      4.271357     -1.045986
  H      -2.113253      3.126769     -3.957478
  H      -1.357584      4.476625     -2.992318
23
Coordinates from ORCA-job DOL_m1_shell2_reduced_opt_relaxed E -544.098334664732
  C       0.221465      1.007171     -0.096433
  C       1.002033     -0.143452      0.569449
  O       0.248063     -1.309229      0.229871
  C      -1.079325     -0.868777      0.248021
  O      -1.069032      0.415460     -0.402754
  H       0.087476      1.865694      0.571395
  H       0.665954      1.332587     -1.043087
  H       1.040364     -0.017702      1.662073
  H       2.012616     -0.268277      0.173465
  H      -1.714294     -1.547726     -0.330368
  H      -1.448002     -0.746822      1.283127
  Li     -1.949893      0.785278     -2.110280
  C      -2.499800      3.340854     -0.776419
  C      -3.445165      4.420366     -1.349769
  O      -3.414606      4.206372     -2.762227
  C      -2.147035      3.676050     -3.019940
  O      -1.882999      2.752782     -1.947779
  H      -1.727158      3.772918     -0.128503
  H      -3.030028      2.543567     -0.244737
  H      -3.091676      5.432333     -1.102717
  H      -4.480624      4.304485     -1.018108
  H      -2.157894      3.115445     -3.960228
  H      -1.368208      4.460455     -3.009751
23
Coordinates from ORCA-job DOL_m1_shell2_reduced_opt_relaxed E -544.098365230464
  C       0.228960      0.999537     -0.103259
  C       1.004374     -0.146531      0.573146
  O       0.249213     -1.312728      0.242278
  C      -1.077528     -0.872380      0.246643
  O      -1.062215      0.410897     -0.406178
  H       0.096363      1.863226      0.558666
  H       0.677597      1.319338     -1.050066
  H       1.042419     -0.011215      1.664716
  H       2.015863     -0.275427      0.179942
  H      -1.705222     -1.555282     -0.335138
  H      -1.456234     -0.745439      1.277548
  Li     -1.944059      0.785398     -2.108797
  C      -2.508777      3.346394     -0.773551
  C      -3.449618      4.426542     -1.351513
  O      -3.415709      4.210161     -2.764324
  C      -2.149724      3.676856     -3.018326
  O      -1.888284      2.755691     -1.940723
  H      -1.737663      3.779397     -0.124017
  H      -3.039879      2.550702     -0.240092
  H      -3.092470      5.438032     -1.108162
  H      -4.486341      4.313688     -1.022809
  H      -2.161097      3.114950     -3.957690
  H      -1.367734      4.458027     -3.003994
23
Coordinates from ORCA-job DOL_m1_shell2_reduced_opt_relaxed E -544.098391070449
  C       0.226014      1.003049     -0.108599
  C       0.992976     -0.127928      0.601794
  O       0.266886     -1.303436      0.245581
  C      -1.066238     -0.884054      0.223603
  O      -1.056873      0.404081     -0.419917
  H       0.081205      1.878891      0.534800
  H       0.692049      1.308004     -1.052127
  H       0.989004      0.011729      1.693736
  H       2.020958     -0.241983      0.248543
  H      -1.668808     -1.573081     -0.377230
  H      -1.471261     -0.769117      1.245684
  Li     -1.947555      0.776501     -2.120572
  C      -2.500384      3.338429     -0.774040
  C      -3.426704      4.439648     -1.334169
  O      -3.431173      4.215730     -2.745984
  C      -2.177015      3.666612     -3.025951
  O      -1.903421      2.743693     -1.951909
  H      -1.714269      3.752623     -0.130237
  H      -3.039913      2.549095     -0.239441
  H      -3.035544      5.442075     -1.106119
  H      -4.457651      4.355331     -0.980112
  H      -2.214765      3.105913     -3.965280
  H      -1.385286      4.438026     -3.027752
23
Coordinates from ORCA-job DOL_m1_shell2_reduced_opt_relaxed E -544.098418026775
  C       0.231444      1.001456     -0.106950
  C       0.994197     -0.129769      0.606960
  O       0.268651     -1.304892      0.249094
  C      -1.064173     -0.885992      0.218848
  O      -1.051727      0.405622     -0.419102
  H       0.088038      1.879210      0.534184
  H       0.701645      1.303293     -1.049588
  H       0.987369      0.010949      1.698871
  H       2.023677     -0.244053      0.257918
  H      -1.661578     -1.572496     -0.390193
  H      -1.476986     -0.774715      1.238099
  Li     -1.944558      0.780218     -2.120163
  C      -2.504936      3.340723     -0.772461
  C      -3.425738      4.444890     -1.334359
  O      -3.437174      4.213006     -2.744898
  C      -2.183731      3.663263     -3.026497
  O      -1.908054      2.744681     -1.950204
  H      -1.718507      3.750894     -0.126707
  H      -3.048909      2.552530     -0.240592
  H      -3.025737      5.445513     -1.113598
  H      -4.455560      4.369146     -0.975313
  H      -2.222782      3.100950     -3.964897
  H      -1.392640      4.435405     -3.034149
23
Coordinates from ORCA-job DOL_m1_shell2_reduced_opt_relaxed E -544.098455702983
  C       0.237677      1.000944     -0.111018
  C       0.992611     -0.121569      0.623132
  O       0.278205     -1.302807      0.262378
  C      -1.056565     -0.892589      0.204307
  O      -1.043406      0.404130     -0.427460
  H       0.089523      1.887185      0.516863
  H       0.719559      1.288540     -1.052411
  H       0.967759      0.027195      1.713838
  H       2.028383     -0.233056      0.292467
  H      -1.634650     -1.579183     -0.423286
  H      -1.492966     -0.788140      1.214098
  Li     -1.941795      0.779343     -2.125648
  C      -2.512659      3.338516     -0.767817
  C      -3.414159      4.458772     -1.328106
  O      -3.446149      4.214238     -2.735499
  C      -2.199524      3.653019     -3.025333
  O      -1.922144      2.739165     -1.947913
  H      -1.721882      3.731493     -0.117280
  H      -3.072933      2.556008     -0.244604
  H      -2.987771      5.451342     -1.119821
  H      -4.440834      4.409851     -0.956124
  H      -2.249853      3.086853     -3.961053
  H      -1.404195      4.420582     -3.049408
23
Coordinates from ORCA-job DOL_m1_shell2_reduced_opt_relaxed E -544.098468309322
  C       0.244622      0.999099     -0.109109
  C       0.991979     -0.120156      0.636288
  O       0.287382     -1.303618      0.262597
  C      -1.049116     -0.900794      0.191722
  O      -1.036063      0.402222     -0.429044
  H       0.094429      1.890028      0.511238
  H       0.732147      1.277889     -1.050296
  H       0.948200      0.026972      1.726642
  H       2.033135     -0.228164      0.322205
  H      -1.614625     -1.585168     -0.449776
  H      -1.498829     -0.808701      1.196762
  Li     -1.937344      0.782156     -2.124836
  C      -2.515744      3.345013     -0.764799
  C      -3.408929      4.470988     -1.326777
  O      -3.456808      4.212458     -2.730774
  C      -2.213855      3.646094     -3.027264
  O      -1.930369      2.740825     -1.944879
  H      -1.722363      3.732473     -0.114346
  H      -3.082556      2.567245     -0.241655
  H      -2.969215      5.460570     -1.131715
  H      -4.432439      4.438695     -0.944577
  H      -2.273655      3.071487     -3.957345
  H      -1.417752      4.412221     -3.065959
23
Coordinates from ORCA-job DOL_m1_shell2_reduced_opt_relaxed E -544.098477122547
  C       0.245489      0.999184     -0.113365
  C       0.987619     -0.109778      0.650352
  O       0.299091     -1.300082      0.267893
  C      -1.040351     -0.909782      0.178462
  O      -1.032051      0.396239     -0.437681
  H       0.087482      1.896378      0.495652
  H       0.740167      1.267714     -1.053777
  H       0.921230      0.040923      1.739036
  H       2.034976     -0.211703      0.355839
  H      -1.588272     -1.597886     -0.474247
  H      -1.506558     -0.826310      1.176586
  Li     -1.937042      0.776639     -2.130586
  C      -2.517013      3.345135     -0.761448
  C      -3.397269      4.482756     -1.320981
  O      -3.462482      4.216587     -2.722360
  C      -2.226800      3.638416     -3.027244
  O      -1.940531      2.736068     -1.943032
  H      -1.718545      3.722262     -0.111185
  H      -3.093205      2.574110     -0.238661
  H      -2.940337      5.466469     -1.135500
  H      -4.417344      4.470418     -0.928594
  H      -2.300848      3.058134     -3.952825
  H      -1.425172      4.397942     -3.078033
23
Coordinates from ORCA-job DOL_m1_shell2_reduced_opt_relaxed E -544.098480513144
  C       0.247163      0.998459     -0.113760
  C       0.985162     -0.106356      0.658469
  O       0.306238     -1.299202      0.267002
  C      -1.034614     -0.915547      0.170261
  O      -1.029101      0.393267     -0.440506
  H       0.085905      1.898357      0.490314
  H       0.745614      1.262468     -1.053490
  H       0.904494      0.043627      1.746285
  H       2.036298     -0.204035      0.376246
  H      -1.574162     -1.604592     -0.488421
  H      -1.507775     -0.838955      1.165607
  Li     -1.936022      0.775631     -2.132220
  C      -2.517399      3.347926     -0.759750
  C      -3.392030      4.489922     -1.319213
  O      -3.467741      4.217210     -2.718741
  C      -2.235462      3.634200     -3.028143
  O      -1.945622      2.735333     -1.941531
  H      -1.716420      3.721474     -0.110478
  H      -3.097195      2.580726     -0.235251
  H      -2.926504      5.471089     -1.141486
  H      -4.409687      4.488231     -0.920286
  H      -2.317102      3.049627     -3.950426
  H      -1.431805      4.390972     -3.086183
23
Coordinates from ORCA-job DOL_m1_shell2_reduced_opt_relaxed E -544.098482937678
  C       0.246566      0.998417     -0.113951
  C       0.983892     -0.104328      0.661026
  O       0.309817     -1.298648      0.265789
  C      -1.031760     -0.918514      0.166818
  O      -1.028742      0.391566     -0.441714
  H       0.083200      1.898747      0.488931
  H       0.746404      1.261879     -1.053102
  H       0.897528      0.045063      1.748495
  H       2.036582     -0.199208      0.383531
  H      -1.568350     -1.608545     -0.493197
  H      -1.506906     -0.844341      1.161389
  Li     -1.936301      0.774465     -2.133946
  C      -2.517571      3.349056     -0.758809
  C      -3.389317      4.493008     -1.318622
  O      -3.469200      4.217440     -2.717436
  C      -2.238497      3.632096     -3.028167
  O      -1.947593      2.734568     -1.940307
  H      -1.715641      3.720971     -0.109726
  H      -3.099323      2.583893     -0.233432
  H      -2.919781      5.472914     -1.144409
  H      -4.405948      4.496224     -0.916981
  H      -2.323176      3.045734     -3.949085
  H      -1.433651      4.387375     -3.088791
23
Coordinates from ORCA-job DOL_m1_shell2_reduced_opt_relaxed E -544.098485809009
  C       0.245738      0.998351     -0.113611
  C       0.983127     -0.103391      0.662224
  O       0.313271     -1.298684      0.262794
  C      -1.028803     -0.921317      0.163941
  O      -1.028886      0.390402     -0.441854
  H       0.081027      1.898464      0.489261
  H       0.746487      1.262292     -1.052182
  H       0.892235      0.044339      1.749580
  H       2.037107     -0.195108      0.388483
  H      -1.564688     -1.611670     -0.496231
  H      -1.504119     -0.848965      1.158574
  Li     -1.936453      0.774455     -2.135295
  C      -2.518386      3.350748     -0.757629
  C      -3.387441      4.495918     -1.318949
  O      -3.470417      4.216678     -2.717001
  C      -2.240589      3.629925     -3.027850
  O      -1.948840      2.734293     -1.938183
  H      -1.716314      3.721481     -0.108030
  H      -3.102305      2.587438     -0.231851
  H      -2.914265      5.474776     -1.148631
  H      -4.403233      4.503622     -0.915213
  H      -2.326880      3.041435     -3.947326
  H      -1.435140      4.384352     -3.090721
23
Coordinates from ORCA-job DOL_m1_shell2_reduced_opt_relaxed E -544.098487778357
  C       0.243652      0.998986     -0.112659
  C       0.983357     -0.103416      0.660252
  O       0.314229     -1.298802      0.259711
  C      -1.028149     -0.922269      0.163962
  O      -1.030621      0.390370     -0.440457
  H       0.078711      1.897800      0.492127
  H       0.743380      1.265295     -1.051118
  H       0.893657      0.042247      1.748012
  H       2.037163     -0.193229      0.385210
  H      -1.566088     -1.612268     -0.494865
  H      -1.501195     -0.849970      1.159755
  Li     -1.936931      0.775047     -2.135744
  C      -2.518739      3.351555     -0.756863
  C      -3.387226      4.496261     -1.319891
  O      -3.469479      4.215295     -2.717751
  C      -2.239291      3.628910     -3.027225
  O      -1.947872      2.734351     -1.936365
  H      -1.717419      3.722472     -0.106442
  H      -3.103469      2.588600     -0.231449
  H      -2.913633      5.475138     -1.150830
  H      -4.403177      4.504535     -0.916635
  H      -2.324549      3.039331     -3.946134
  H      -1.434081      4.383593     -3.090299
