16
Coordinates from ORCA-job DME_optfreq E -308.778478966667
  C           2.32987056709524      0.81495170012373     -0.57747611557992
  O           1.20971685681003     -0.00086838012361     -0.86733324053044
  C           0.53403598144662     -0.41285382570115      0.30530183520571
  C          -0.65853261292072     -1.26898134406365     -0.07838472494031
  O          -1.62804601041710     -0.62595574440130     -0.88807317277227
  C          -2.27575008322338      0.46175237410735     -0.25246107345726
  H           2.78551046467361      1.09088880661892     -1.53163929032896
  H           2.03421002160911      1.73253468246637     -0.04268871496245
  H           3.07421861419993      0.27889953453253      0.03421494863180
  H           0.22136316336932      0.46412319822921      0.90059843234817
  H           1.19716935179508     -1.01980070405527      0.95038969998413
  H          -0.31040707235431     -2.12639134672304     -0.66457155444240
  H          -1.12004044797753     -1.64652996344086      0.85333158866520
  H          -2.67683250314027      0.17396451890081      0.73390785209577
  H          -1.61045880290646      1.32869959706561     -0.12538616455467
  H          -3.10602747805915      0.75556689646428     -0.89974515536209
