16
Coordinates from ORCA-job DME_optfreq E -308.777456001200
  C       2.439809      0.751753     -0.587152
  O       1.330431     -0.062191     -0.856958
  C       0.556473     -0.338206      0.283678
  C      -0.650105     -1.190950     -0.122110
  O      -1.620922     -0.525816     -0.886277
  C      -2.396754      0.409172     -0.180341
  H       2.952420      0.901226     -1.534852
  H       2.134481      1.724425     -0.179813
  H       3.121972      0.272573      0.127383
  H       0.228056      0.599445      0.758336
  H       1.152235     -0.898675      1.023262
  H      -0.295291     -2.003355     -0.759523
  H      -1.103907     -1.608990      0.790656
  H      -2.847120     -0.043790      0.712615
  H      -1.817707      1.288150      0.123413
  H      -3.184071      0.725228     -0.862332
16
Coordinates from ORCA-job DME_optfreq E -308.778231822105
  C       2.425392      0.762043     -0.591742
  O       1.312560     -0.061728     -0.866163
  C       0.552270     -0.355516      0.286792
  C      -0.647218     -1.204627     -0.114360
  O      -1.613880     -0.534747     -0.896297
  C      -2.382668      0.419063     -0.191181
  H       2.938998      0.932247     -1.541049
  H       2.117090      1.732610     -0.168853
  H       3.121160      0.280061      0.115516
  H       0.223373      0.576523      0.780839
  H       1.156501     -0.923703      1.018800
  H      -0.288946     -2.033339     -0.734979
  H      -1.107534     -1.611603      0.804509
  H      -2.843223     -0.022836      0.708360
  H      -1.792497      1.297113      0.111907
  H      -3.171376      0.748439     -0.872115
16
Coordinates from ORCA-job DME_optfreq E -308.778388960406
  C       2.407491      0.771889     -0.592947
  O       1.293346     -0.054775     -0.874033
  C       0.550723     -0.368710      0.289003
  C      -0.646862     -1.213888     -0.104913
  O      -1.607827     -0.545111     -0.904034
  C      -2.364709      0.425691     -0.202785
  H       2.916237      0.963942     -1.541353
  H       2.098042      1.733971     -0.151008
  H       3.112562      0.282139      0.100164
  H       0.228810      0.554442      0.804779
  H       1.166397     -0.945330      1.005464
  H      -0.293080     -2.058034     -0.707856
  H      -1.114344     -1.606261      0.817195
  H      -2.829836     -0.002099      0.701856
  H      -1.764196      1.300118      0.092298
  H      -3.152755      0.762016     -0.881843
16
Coordinates from ORCA-job DME_optfreq E -308.778418586017
  C       2.397111      0.778065     -0.592168
  O       1.281755     -0.046690     -0.876832
  C       0.550498     -0.374806      0.290308
  C      -0.647856     -1.219072     -0.098931
  O      -1.606746     -0.553605     -0.905832
  C      -2.354125      0.428991     -0.210237
  H       2.899908      0.983610     -1.540611
  H       2.088681      1.733429     -0.136293
  H       3.107116      0.280309      0.089319
  H       0.234799      0.541918      0.820507
  H       1.174542     -0.957406      0.994292
  H      -0.298998     -2.071267     -0.692996
  H      -1.118634     -1.603339      0.824563
  H      -2.818988      0.012939      0.699466
  H      -1.746522      1.301590      0.074007
  H      -3.142540      0.765335     -0.888578
16
Coordinates from ORCA-job DME_optfreq E -308.778432223286
  C       2.387954      0.783678     -0.590619
  O       1.271151     -0.037977     -0.877325
  C       0.549549     -0.379555      0.291842
  C      -0.649102     -1.224632     -0.094262
  O      -1.607935     -0.563283     -0.904962
  C      -2.344291      0.432408     -0.216899
  H       2.883681      1.000889     -1.539913
  H       2.081578      1.732859     -0.121389
  H       3.102594      0.277665      0.079275
  H       0.238120      0.531066      0.834463
  H       1.181060     -0.967501      0.984472
  H      -0.303820     -2.081605     -0.683148
  H      -1.120923     -1.604108      0.830469
  H      -2.805983      0.030475      0.700338
  H      -1.728910      1.304039      0.051852
  H      -3.134723      0.765584     -0.894209
16
Coordinates from ORCA-job DME_optfreq E -308.778443699426
  C       2.376830      0.790352     -0.588260
  O       1.258181     -0.027709     -0.876269
  C       0.547331     -0.385408      0.294200
  C      -0.650709     -1.232497     -0.089668
  O      -1.611054     -0.576299     -0.902187
  C      -2.331789      0.437424     -0.224748
  H       2.863292      1.021058     -1.539036
  H       2.073621      1.732364     -0.103058
  H       3.097538      0.274934      0.067566
  H       0.238554      0.517789      0.850370
  H       1.186914     -0.979127      0.974412
  H      -0.307553     -2.092448     -0.675171
  H      -1.121764     -1.609041      0.836717
  H      -2.786214      0.055966      0.704629
  H      -1.706141      1.308571      0.019956
  H      -3.127038      0.764072     -0.899469
16
Coordinates from ORCA-job DME_optfreq E -308.778459373987
  C       2.355785      0.802395     -0.583443
  O       1.234157     -0.010475     -0.872791
  C       0.542108     -0.396821      0.299041
  C      -0.653939     -1.248086     -0.082415
  O      -1.618308     -0.600592     -0.895702
  C      -2.307450      0.447606     -0.238959
  H       2.825311      1.057112     -1.536528
  H       2.058617      1.731393     -0.070255
  H       3.087893      0.271993      0.047191
  H       0.235504      0.492776      0.877867
  H       1.194973     -0.999645      0.958444
  H      -0.311999     -2.110520     -0.664691
  H      -1.121623     -1.622095      0.847094
  H      -2.743260      0.107437      0.715055
  H      -1.662845      1.317318     -0.044212
  H      -3.114924      0.760204     -0.905709
16
Coordinates from ORCA-job DME_optfreq E -308.778470579142
  C       2.337424      0.812172     -0.579192
  O       1.214245      0.001498     -0.868846
  C       0.536790     -0.407071      0.303518
  C      -0.656998     -1.262056     -0.077507
  O      -1.625193     -0.620359     -0.889568
  C      -2.285558      0.456785     -0.250337
  H       2.793707      1.085440     -1.533639
  H       2.044696      1.730905     -0.045139
  H       3.078993      0.272378      0.032263
  H       0.229356      0.471631      0.898624
  H       1.199240     -1.015621      0.948031
  H      -0.313636     -2.123982     -0.659655
  H      -1.120647     -1.636198      0.854420
  H      -2.701103      0.153439      0.725086
  H      -1.625350      1.323858     -0.101159
  H      -3.105966      0.757181     -0.906914
16
Coordinates from ORCA-job DME_optfreq E -308.778476779200
  C       2.325381      0.817903     -0.576568
  O       1.202804      0.005747     -0.866144
  C       0.532929     -0.414389      0.306515
  C      -0.659154     -1.271677     -0.075641
  O      -1.629660     -0.631731     -0.885832
  C      -2.270768      0.463171     -0.256519
  H       2.775137      1.100768     -1.531452
  H       2.033622      1.731396     -0.032751
  H       3.072645      0.275811      0.026107
  H       0.222319      0.458539      0.908811
  H       1.199940     -1.024507      0.944777
  H      -0.312675     -2.131095     -0.659778
  H      -1.119764     -1.647572      0.857366
  H      -2.670402      0.183761      0.732819
  H      -1.601108      1.327901     -0.137769
  H      -3.101247      0.755972     -0.903957
16
Coordinates from ORCA-job DME_optfreq E -308.778478669926
  C       2.330174      0.814852     -0.577679
  O       1.209632     -0.000498     -0.867220
  C       0.533865     -0.412402      0.305305
  C      -0.658453     -1.268883     -0.078385
  O      -1.628096     -0.626087     -0.887850
  C      -2.276033      0.461493     -0.252307
  H       2.785476      1.090689     -1.532047
  H       2.035099      1.732502     -0.042630
  H       3.074546      0.278394      0.033665
  H       0.220816      0.464647      0.900372
  H       1.196897     -1.019257      0.950653
  H      -0.310183     -2.126279     -0.664545
  H      -1.119627     -1.646522      0.853519
  H      -2.678517      0.173119      0.733346
  H      -1.610343      1.327970     -0.123683
  H      -3.105252      0.756262     -0.900527
16
Coordinates from ORCA-job DME_optfreq E -308.778478966667
  C       2.329871      0.814952     -0.577476
  O       1.209717     -0.000868     -0.867333
  C       0.534036     -0.412854      0.305302
  C      -0.658533     -1.268981     -0.078385
  O      -1.628046     -0.625956     -0.888073
  C      -2.275750      0.461752     -0.252461
  H       2.785510      1.090889     -1.531639
  H       2.034210      1.732535     -0.042689
  H       3.074219      0.278900      0.034215
  H       0.221363      0.464123      0.900598
  H       1.197169     -1.019801      0.950390
  H      -0.310407     -2.126391     -0.664572
  H      -1.120040     -1.646530      0.853332
  H      -2.676833      0.173965      0.733908
  H      -1.610459      1.328700     -0.125386
  H      -3.106027      0.755567     -0.899745
