25
Coordinates from ORCA-job DMC_m2_shell2_oxidized_opt_relaxed E -693.987127727402
  C      -2.648876      0.123294     -0.256466
  O      -1.369109     -0.120747      0.411952
  C      -0.281088      0.383526     -0.228931
  O      -0.252000      0.992702     -1.250501
  O       0.766216      0.031973      0.563930
  C       2.078711      0.471243      0.086137
  H      -3.398797     -0.341045      0.381629
  H      -2.631421     -0.337237     -1.245348
  H      -2.811118      1.198924     -0.339969
  H       2.092342      1.560348      0.023150
  H       2.270754      0.030560     -0.893282
  H       2.789275      0.110421      0.827765
  Li     -0.342402     -0.912679      1.937741
  C       0.508939     -4.005073      2.900679
  O       0.030815     -2.621224      2.915402
  C      -0.392090     -2.172060      4.127139
  O      -0.414018     -2.763915      5.159022
  O      -0.784042     -0.891753      3.890306
  C      -1.287609     -0.172439      5.062118
  H       0.798479     -4.197406      1.869009
  H      -0.298889     -4.667924      3.214237
  H       1.361616     -4.098059      3.574959
  H      -0.503129     -0.124279      5.818730
  H      -2.163239     -0.692323      5.453644
  H      -1.547198      0.820611      4.699348
25
Coordinates from ORCA-job DMC_m2_shell2_oxidized_opt_relaxed E -693.990362041404
  C      -2.663423      0.130013     -0.254833
  O      -1.367839     -0.116667      0.405602
  C      -0.277372      0.381490     -0.225662
  O      -0.248610      0.984317     -1.260438
  O       0.772177      0.036642      0.555749
  C       2.098733      0.481072      0.086113
  H      -3.411289     -0.310198      0.402288
  H      -2.665202     -0.357386     -1.233584
  H      -2.807785      1.209850     -0.366719
  H       2.100494      1.572171     -0.001086
  H       2.309949      0.019885     -0.882103
  H       2.801601      0.140098      0.844104
  Li     -0.337960     -0.913696      1.937293
  C       0.509296     -4.025872      2.894100
  O       0.035120     -2.628748      2.921843
  C      -0.389449     -2.172340      4.122808
  O      -0.402525     -2.763958      5.164335
  O      -0.781933     -0.895136      3.897680
  C      -1.301211     -0.164877      5.069318
  H       0.768880     -4.220778      1.855076
  H      -0.294828     -4.684306      3.237577
  H       1.385012     -4.120605      3.541412
  H      -0.510407     -0.081343      5.819654
  H      -2.159156     -0.709356      5.477878
  H      -1.590151      0.815167      4.693995
25
Coordinates from ORCA-job DMC_m2_shell2_oxidized_opt_relaxed E -693.995455005165
  C      -2.703830      0.145303     -0.267008
  O      -1.366333     -0.100072      0.380960
  C      -0.272786      0.372077     -0.212399
  O      -0.247083      0.978505     -1.278981
  O       0.778466      0.054159      0.526563
  C       2.145763      0.503667      0.070722
  H      -3.432946     -0.284606      0.416139
  H      -2.725626     -0.370979     -1.232293
  H      -2.835182      1.227141     -0.398928
  H       2.140184      1.595214     -0.027158
  H       2.374223      0.020832     -0.883602
  H       2.826012      0.165493      0.849196
  Li     -0.332593     -0.915186      1.936618
  C       0.518690     -4.078497      2.892936
  O       0.038066     -2.648784      2.949670
  C      -0.385383     -2.167029      4.107719
  O      -0.390565     -2.765832      5.178749
  O      -0.782234     -0.910089      3.923873
  C      -1.327625     -0.145302      5.101388
  H       0.753141     -4.252925      1.845062
  H      -0.283564     -4.733175      3.252051
  H       1.416615     -4.171343      3.510600
  H      -0.531316     -0.026040      5.843168
  H      -2.173714     -0.706048      5.519622
  H      -1.628258      0.818955      4.697734
25
Coordinates from ORCA-job DMC_m2_shell2_oxidized_opt_relaxed E -693.996280386266
  C      -2.693440      0.153711     -0.274483
  O      -1.363619     -0.097571      0.375984
  C      -0.272090      0.371883     -0.218927
  O      -0.247573      0.982972     -1.279900
  O       0.779942      0.055953      0.520617
  C       2.137873      0.509262      0.059137
  H      -3.421808     -0.267696      0.414353
  H      -2.711494     -0.366773     -1.235462
  H      -2.814345      1.233230     -0.406319
  H       2.121054      1.598041     -0.041702
  H       2.359235      0.021741     -0.893297
  H       2.817594      0.178401      0.840931
  Li     -0.330159     -0.916305      1.935926
  C       0.515585     -4.078066      2.907334
  O       0.040070     -2.652055      2.954603
  C      -0.382179     -2.168805      4.112908
  O      -0.394090     -2.768417      5.180538
  O      -0.780639     -0.914610      3.927721
  C      -1.326379     -0.159970      5.105607
  H       0.743596     -4.255749      1.858840
  H      -0.289185     -4.722451      3.271908
  H       1.411613     -4.163178      3.526826
  H      -0.526446     -0.039230      5.840432
  H      -2.164466     -0.728527      5.520121
  H      -1.636527      0.799646      4.698703
25
Coordinates from ORCA-job DMC_m2_shell2_oxidized_opt_relaxed E -693.996993541474
  C      -2.682246      0.173920     -0.301603
  O      -1.361112     -0.085867      0.358731
  C      -0.272147      0.377423     -0.230045
  O      -0.247952      0.997262     -1.286143
  O       0.782001      0.064938      0.502102
  C       2.129927      0.521579      0.026065
  H      -3.408600     -0.238474      0.394095
  H      -2.689788     -0.351443     -1.256359
  H      -2.791627      1.250163     -0.426235
  H       2.101699      1.606187     -0.071005
  H       2.333603      0.028893     -0.924861
  H       2.808907      0.195413      0.809811
  Li     -0.328594     -0.916935      1.935370
  C       0.516554     -4.086164      2.941890
  O       0.041822     -2.662793      2.971797
  C      -0.382194     -2.174520      4.123475
  O      -0.403523     -2.778212      5.188956
  O      -0.781489     -0.927187      3.944378
  C      -1.325780     -0.186558      5.129392
  H       0.742915     -4.265221      1.893838
  H      -0.293740     -4.718007      3.303351
  H       1.404147     -4.155686      3.570906
  H      -0.518684     -0.068944      5.852035
  H      -2.156866     -0.762069      5.534241
  H      -1.645113      0.767740      4.718219
25
Coordinates from ORCA-job DMC_m2_shell2_oxidized_opt_relaxed E -693.997236410471
  C      -2.679843      0.184205     -0.319793
  O      -1.362816     -0.077896      0.348867
  C      -0.273291      0.384849     -0.237822
  O      -0.247627      1.008352     -1.291717
  O       0.782328      0.070622      0.492193
  C       2.127045      0.525786      0.006174
  H      -3.409145     -0.229016      0.372489
  H      -2.680243     -0.338698     -1.275081
  H      -2.790776      1.260417     -0.436947
  H       2.102509      1.610340     -0.082800
  H       2.320437      0.036183     -0.947553
  H       2.810188      0.195487      0.784627
  Li     -0.330451     -0.916136      1.935658
  C       0.520748     -4.090692      2.961376
  O       0.041189     -2.668854      2.981359
  C      -0.385778     -2.180003      4.132120
  O      -0.410188     -2.786491      5.195972
  O      -0.784961     -0.933051      3.955244
  C      -1.324899     -0.198529      5.146623
  H       0.757451     -4.270895      1.915783
  H      -0.292352     -4.724159      3.311163
  H       1.399901     -4.155000      3.601332
  H      -0.515584     -0.089053      5.867020
  H      -2.159791     -0.770909      5.546123
  H      -1.641929      0.758579      4.739989
25
Coordinates from ORCA-job DMC_m2_shell2_oxidized_opt_relaxed E -693.997691954107
  C      -2.677891      0.210692     -0.368101
  O      -1.369035     -0.054973      0.321681
  C      -0.276699      0.406577     -0.260364
  O      -0.246866      1.037980     -1.310481
  O       0.782218      0.086789      0.464667
  C       2.122130      0.535518     -0.045776
  H      -3.417610     -0.210432      0.308799
  H      -2.660018     -0.301554     -1.328487
  H      -2.797308      1.288241     -0.465788
  H       2.114094      1.622067     -0.109833
  H       2.289744      0.059656     -1.010615
  H       2.819044      0.187223      0.712814
  Li     -0.337024     -0.913268      1.936853
  C       0.533805     -4.103755      3.011082
  O       0.038276     -2.685262      3.008414
  C      -0.396524     -2.196018      4.157406
  O      -0.426614     -2.809566      5.218158
  O      -0.796209     -0.948675      3.986149
  C      -1.323725     -0.226418      5.194331
  H       0.807380     -4.285543      1.974523
  H      -0.285830     -4.748032      3.324259
  H       1.388839     -4.158982      3.682873
  H      -0.511368     -0.143226      5.914298
  H      -2.173650     -0.786337      5.580261
  H      -1.627037      0.742736      4.805277
25
Coordinates from ORCA-job DMC_m2_shell2_oxidized_opt_relaxed E -693.997865245860
  C      -2.678668      0.224591     -0.391851
  O      -1.372773     -0.041072      0.306317
  C      -0.278593      0.419481     -0.274655
  O      -0.247173      1.052311     -1.324515
  O       0.781287      0.096177      0.448506
  C       2.120533      0.539196     -0.071511
  H      -3.424021     -0.204699      0.273856
  H      -2.652123     -0.279354     -1.357017
  H      -2.803042      1.303267     -0.481205
  H       2.123685      1.627402     -0.120949
  H       2.275143      0.074784     -1.044608
  H       2.824886      0.175606      0.673119
  Li     -0.341273     -0.911346      1.937733
  C       0.541422     -4.110132      3.035118
  O       0.036069     -2.694130      3.024655
  C      -0.402611     -2.205830      4.173284
  O      -0.433165     -2.821543      5.233424
  O      -0.803404     -0.957813      4.004157
  C      -1.324400     -0.239331      5.219093
  H       0.840600     -4.289856      2.005119
  H      -0.280913     -4.762479      3.326808
  H       1.382338     -4.163653      3.725403
  H      -0.512993     -0.172935      5.942666
  H      -2.183675     -0.791487      5.598090
  H      -1.615015      0.738284      4.841361
25
Coordinates from ORCA-job DMC_m2_shell2_oxidized_opt_relaxed E -693.998008057733
  C      -2.680350      0.237505     -0.408963
  O      -1.375279     -0.027184      0.291352
  C      -0.279739      0.430723     -0.290919
  O      -0.248243      1.062139     -1.342020
  O       0.780084      0.105105      0.431489
  C       2.120242      0.541767     -0.091994
  H      -3.428597     -0.201184      0.247222
  H      -2.649504     -0.257939     -1.379321
  H      -2.807582      1.317172     -0.494140
  H       2.133074      1.631371     -0.129006
  H       2.265485      0.090148     -1.073410
  H       2.829189      0.160874      0.639531
  Li     -0.344392     -0.909801      1.938470
  C       0.547950     -4.115625      3.053674
  O       0.034608     -2.702415      3.041755
  C      -0.406166     -2.215501      4.190362
  O      -0.435339     -2.831101      5.250983
  O      -0.809894     -0.967534      4.021638
  C      -1.327515     -0.249538      5.238542
  H       0.871413     -4.290047      2.030062
  H      -0.276128     -4.774896      3.327819
  H       1.376921     -4.170788      3.759350
  H      -0.519771     -0.197139      5.968503
  H      -2.194046     -0.795929      5.612163
  H      -1.604298      0.735251      4.869260
25
Coordinates from ORCA-job DMC_m2_shell2_oxidized_opt_relaxed E -693.998092860101
  C      -2.681705      0.245814     -0.414025
  O      -1.375229     -0.017942      0.281308
  C      -0.279544      0.436514     -0.304229
  O      -0.249261      1.064162     -1.357410
  O       0.779416      0.110508      0.418602
  C       2.121203      0.542863     -0.101545
  H      -3.428340     -0.199252      0.239412
  H      -2.652956     -0.244431     -1.387670
  H      -2.809260      1.325745     -0.499352
  H       2.138620      1.632961     -0.132621
  H       2.264031      0.099879     -1.087802
  H       2.829767      0.150078      0.623872
  Li     -0.344772     -0.909326      1.938727
  C       0.551176     -4.118734      3.061630
  O       0.035142     -2.707534      3.054470
  C      -0.405575     -2.221923      4.203305
  O      -0.432043     -2.835373      5.265016
  O      -0.813041     -0.974974      4.033026
  C      -1.332390     -0.254628      5.246309
  H       0.886727     -4.286830      2.040933
  H      -0.273385     -4.780810      3.328696
  H       1.375173     -4.177782      3.773572
  H      -0.529341     -0.206813      5.982423
  H      -2.201310     -0.799340      5.617816
  H      -1.600983      0.732609      4.877937
25
Coordinates from ORCA-job DMC_m2_shell2_oxidized_opt_relaxed E -693.998129478245
  C      -2.682253      0.249177     -0.410471
  O      -1.373393     -0.014482      0.277059
  C      -0.278461      0.437137     -0.311886
  O      -0.249540      1.061096     -1.366792
  O       0.779652      0.111936      0.411706
  C       2.122795      0.543062     -0.102511
  H      -3.424815     -0.197566      0.246249
  H      -2.659246     -0.239938     -1.384895
  H      -2.809200      1.328819     -0.497353
  H       2.140435      1.632982     -0.133417
  H       2.268397      0.102507     -1.089506
  H       2.828003      0.146724      0.624074
  Li     -0.342954     -0.909757      1.938571
  C       0.551546     -4.119878      3.061477
  O       0.037417     -2.709228      3.060894
  C      -0.402366     -2.224404      4.209930
  O      -0.426417     -2.835531      5.272533
  O      -0.812831     -0.978838      4.037420
  C      -1.337208     -0.255506      5.244856
  H       0.886071     -4.283623      2.039847
  H      -0.272699     -4.781337      3.330169
  H       1.376984     -4.182707      3.771511
  H      -0.537651     -0.203633      5.984506
  H      -2.204864     -0.801492      5.616836
  H      -1.605280      0.729917      4.871592
25
Coordinates from ORCA-job DMC_m2_shell2_oxidized_opt_relaxed E -693.998142028003
  C      -2.682326      0.249822     -0.405503
  O      -1.371581     -0.014307      0.276317
  C      -0.277453      0.436022     -0.314726
  O      -0.249218      1.058092     -1.370361
  O       0.780327      0.111213      0.409180
  C       2.124155      0.542717     -0.100969
  H      -3.421601     -0.195926      0.255576
  H      -2.664190     -0.240030     -1.379479
  H      -2.809202      1.329154     -0.492808
  H       2.140867      1.632339     -0.133643
  H       2.273279      0.100964     -1.086725
  H       2.826382      0.147875      0.629256
  Li     -0.340905     -0.910330      1.938368
  C       0.551251     -4.120020      3.059117
  O       0.039999     -2.709016      3.062889
  C      -0.399617     -2.224702      4.211996
  O      -0.422596     -2.834720      5.274861
  O      -0.811461     -0.980009      4.037898
  C      -1.340491     -0.254825      5.241063
  H       0.879547     -4.282259      2.035274
  H      -0.272459     -4.780136      3.331666
  H       1.380072     -4.185019      3.764761
  H      -0.542541     -0.196789      5.981757
  H      -2.206372     -0.802397      5.614039
  H      -1.611745      0.727726      4.862595
25
Coordinates from ORCA-job DMC_m2_shell2_oxidized_opt_relaxed E -693.998146955488
  C      -2.682347      0.250171     -0.401903
  O      -1.370296     -0.014697      0.276431
  C      -0.276741      0.435161     -0.315799
  O      -0.248745      1.056670     -1.371569
  O       0.781060      0.110020      0.407910
  C       2.125229      0.542066     -0.100251
  H      -3.419785     -0.193928      0.262403
  H      -2.667526     -0.240591     -1.375311
  H      -2.809382      1.329408     -0.488708
  H       2.141325      1.631525     -0.134567
  H       2.276913      0.098326     -1.084566
  H       2.825739      0.149889      0.633077
  Li     -0.339297     -0.910728      1.938284
  C       0.551482     -4.119961      3.057536
  O       0.042440     -2.708373      3.063649
  C      -0.397913     -2.224593      4.212688
  O      -0.420819     -2.834443      5.275452
  O      -0.810279     -0.980322      4.037667
  C      -1.342955     -0.254312      5.238300
  H       0.873705     -4.282285      2.031771
  H      -0.271775     -4.779136      3.333286
  H       1.383333     -4.186044      3.759281
  H      -0.545735     -0.190976      5.979160
  H      -2.207547     -0.803273      5.611874
  H      -1.617964      0.725867      4.856304
25
Coordinates from ORCA-job DMC_m2_shell2_oxidized_opt_relaxed E -693.998148986377
  C      -2.682343      0.251126     -0.398879
  O      -1.369220     -0.014948      0.276769
  C      -0.276097      0.434553     -0.316485
  O      -0.248306      1.056203     -1.372083
  O       0.781937      0.108581      0.406655
  C       2.126277      0.541089     -0.100621
  H      -3.418860     -0.190874      0.267903
  H      -2.670463     -0.240583     -1.371758
  H      -2.808913      1.330457     -0.485235
  H       2.141701      1.630485     -0.136880
  H       2.280023      0.094991     -1.083467
  H       2.825975      0.152077      0.635201
  Li     -0.337757     -0.911013      1.938333
  C       0.552332     -4.119890      3.056726
  O       0.045210     -2.707608      3.064370
  C      -0.396514     -2.224452      4.213226
  O      -0.420225     -2.834675      5.275739
  O      -0.809294     -0.980450      4.037549
  C      -1.345731     -0.254273      5.236307
  H       0.868597     -4.283270      2.029258
  H      -0.270468     -4.778195      3.335930
  H       1.387352     -4.186667      3.754519
  H      -0.549123     -0.185564      5.977269
  H      -2.208796     -0.805358      5.610275
  H      -1.625173      0.723696      4.851780
25
Coordinates from ORCA-job DMC_m2_shell2_oxidized_opt_relaxed E -693.998149991193
  C      -2.682309      0.252222     -0.399205
  O      -1.369245     -0.014442      0.276615
  C      -0.276100      0.435117     -0.316611
  O      -0.248272      1.057350     -1.371918
  O       0.782118      0.108171      0.405905
  C       2.126351      0.540403     -0.102143
  H      -3.419334     -0.189373      0.267330
  H      -2.670445     -0.239441     -1.372132
  H      -2.808540      1.331694     -0.485206
  H       2.141993      1.629854     -0.138677
  H       2.279714      0.093788     -1.084833
  H       2.826540      0.151865      0.633501
  Li     -0.337689     -0.910920      1.938464
  C       0.553386     -4.119715      3.057724
  O       0.046058     -2.707421      3.064912
  C      -0.396959     -2.224751      4.213533
  O      -0.421256     -2.835376      5.275818
  O      -0.809550     -0.980639      4.038012
  C      -1.346611     -0.255073      5.236997
  H       0.869318     -4.283777      2.030236
  H      -0.269308     -4.778152      3.337205
  H       1.388620     -4.186069      3.755312
  H      -0.550029     -0.186012      5.977983
  H      -2.209527     -0.806766      5.610618
  H      -1.626804      0.722902      4.852959
