25
Coordinates from ORCA-job DMC_m2_shell2_reduced_opt_relaxed E -694.600839943349
  C      -2.648876      0.123294     -0.256466
  O      -1.369109     -0.120747      0.411952
  C      -0.281088      0.383526     -0.228931
  O      -0.252000      0.992702     -1.250501
  O       0.766216      0.031973      0.563930
  C       2.078711      0.471243      0.086137
  H      -3.398797     -0.341045      0.381629
  H      -2.631421     -0.337237     -1.245348
  H      -2.811118      1.198924     -0.339969
  H       2.092342      1.560348      0.023150
  H       2.270754      0.030560     -0.893282
  H       2.789275      0.110421      0.827765
  Li     -0.342402     -0.912679      1.937741
  C       0.508939     -4.005073      2.900679
  O       0.030815     -2.621224      2.915402
  C      -0.392090     -2.172060      4.127139
  O      -0.414018     -2.763915      5.159022
  O      -0.784042     -0.891753      3.890306
  C      -1.287609     -0.172439      5.062118
  H       0.798479     -4.197406      1.869009
  H      -0.298889     -4.667924      3.214237
  H       1.361616     -4.098059      3.574959
  H      -0.503129     -0.124279      5.818730
  H      -2.163239     -0.692323      5.453644
  H      -1.547198      0.820611      4.699348
25
Coordinates from ORCA-job DMC_m2_shell2_reduced_opt_relaxed E -694.601236765808
  C      -2.643654      0.120435     -0.255883
  O      -1.367646     -0.119380      0.408747
  C      -0.281087      0.385413     -0.231729
  O      -0.251671      0.995612     -1.258254
  O       0.764896      0.034463      0.561226
  C       2.073277      0.472536      0.088563
  H      -3.388102     -0.348150      0.387048
  H      -2.624092     -0.342790     -1.244884
  H      -2.807311      1.197408     -0.336894
  H       2.084376      1.563089      0.027182
  H       2.266946      0.028504     -0.890494
  H       2.778109      0.110248      0.836232
  Li     -0.342304     -0.912594      1.937781
  C       0.504583     -4.000975      2.900886
  O       0.029849     -2.622050      2.919010
  C      -0.391863     -2.173665      4.130105
  O      -0.414592     -2.767938      5.166107
  O      -0.782811     -0.894256      3.892933
  C      -1.283093     -0.174867      5.058967
  H       0.790734     -4.186189      1.865982
  H      -0.306544     -4.662361      3.213513
  H       1.360013     -4.093592      3.573906
  H      -0.496049     -0.128285      5.814872
  H      -2.162403     -0.693161      5.448159
  H      -1.537438      0.817983      4.689320
25
Coordinates from ORCA-job DMC_m2_shell2_reduced_opt_relaxed E -694.601373038904
  C      -2.641883      0.116450     -0.257283
  O      -1.366159     -0.117230      0.403559
  C      -0.281142      0.388054     -0.235407
  O      -0.251344      0.997146     -1.265454
  O       0.763556      0.038542      0.557001
  C       2.071204      0.476176      0.091156
  H      -3.380873     -0.356570      0.389553
  H      -2.622240     -0.348639     -1.245844
  H      -2.810286      1.193239     -0.336747
  H       2.081615      1.567220      0.030675
  H       2.269947      0.029993     -0.886332
  H       2.770402      0.113648      0.844721
  Li     -0.342194     -0.912485      1.937815
  C       0.500063     -4.000867      2.900037
  O       0.028516     -2.624079      2.924357
  C      -0.391524     -2.175833      4.134046
  O      -0.415420     -2.771486      5.172073
  O      -0.781049     -0.897599      3.897498
  C      -1.278307     -0.174452      5.058748
  H       0.782686     -4.179484      1.862456
  H      -0.312669     -4.661904      3.210623
  H       1.357927     -4.096428      3.570204
  H      -0.490822     -0.128977      5.814853
  H      -2.161737     -0.687390      5.446861
  H      -1.526143      0.818396      4.683231
25
Coordinates from ORCA-job DMC_m2_shell2_reduced_opt_relaxed E -694.601480912046
  C      -2.641939      0.111369     -0.261817
  O      -1.364584     -0.114042      0.395643
  C      -0.281277      0.392349     -0.241220
  O      -0.250969      0.998480     -1.274505
  O       0.762063      0.044834      0.550732
  C       2.070846      0.483193      0.093280
  H      -3.375518     -0.366534      0.388028
  H      -2.622593     -0.355120     -1.249815
  H      -2.817586      1.187188     -0.340547
  H       2.080866      1.574402      0.033101
  H       2.277215      0.035672     -0.882086
  H       2.764537      0.121640      0.852771
  Li     -0.342106     -0.912394      1.937812
  C       0.494155     -4.004264      2.899610
  O       0.026592     -2.627745      2.932098
  C      -0.391111     -2.179375      4.140276
  O      -0.416766     -2.775994      5.179190
  O      -0.778451     -0.902166      3.904675
  C      -1.271940     -0.172722      5.061777
  H       0.773268     -4.176720      1.859754
  H      -0.319806     -4.665205      3.207521
  H       1.354166     -4.105320      3.566377
  H      -0.484976     -0.129115      5.818701
  H      -2.160259     -0.677490      5.449727
  H      -1.511705      0.820519      4.681317
25
Coordinates from ORCA-job DMC_m2_shell2_reduced_opt_relaxed E -694.601603430873
  C      -2.642999      0.104431     -0.272872
  O      -1.362715     -0.108805      0.381999
  C      -0.281547      0.400089     -0.252099
  O      -0.250448      1.000785     -1.289007
  O       0.760061      0.055645      0.540227
  C       2.071180      0.497179      0.094113
  H      -3.370787     -0.379609      0.379033
  H      -2.623066     -0.363158     -1.260183
  H      -2.829318      1.178376     -0.351898
  H       2.079614      1.588336      0.033549
  H       2.288875      0.049268     -0.878426
  H       2.759038      0.138513      0.860342
  Li     -0.342117     -0.912529      1.937608
  C       0.484343     -4.012870      2.901676
  O       0.023351     -2.634814      2.944847
  C      -0.390700     -2.186116      4.151673
  O      -0.419188     -2.783445      5.190555
  O      -0.774014     -0.909437      3.917079
  C      -1.261141     -0.170632      5.070314
  H       0.759915     -4.179192      1.859822
  H      -0.331471     -4.673006      3.206002
  H       1.345928     -4.122976      3.564789
  H      -0.475256     -0.131343      5.828469
  H      -2.155890     -0.663015      5.459092
  H      -1.489526      0.823762      4.685698
25
Coordinates from ORCA-job DMC_m2_shell2_reduced_opt_relaxed E -694.601698347587
  C      -2.643762      0.099530     -0.288006
  O      -1.361728     -0.103878      0.367752
  C      -0.281843      0.408038     -0.264656
  O      -0.250087      1.004208     -1.303387
  O       0.758568      0.066773      0.529706
  C       2.071097      0.513932      0.091713
  H      -3.369132     -0.388631      0.363253
  H      -2.621327     -0.368187     -1.274971
  H      -2.838320      1.171755     -0.368636
  H       2.075925      1.604906      0.030039
  H       2.297991      0.067174     -0.879006
  H       2.756513      0.159350      0.861802
  Li     -0.342352     -0.913269      1.937000
  C       0.474013     -4.023959      2.907900
  O       0.020006     -2.643150      2.957366
  C      -0.390764     -2.193941      4.164194
  O      -0.421659     -2.791182      5.202255
  O      -0.769340     -0.916349      3.929803
  C      -1.249457     -0.170640      5.082161
  H       0.748529     -4.188317      1.865637
  H      -0.344182     -4.681964      3.209779
  H       1.335069     -4.142136      3.570005
  H      -0.464124     -0.137360      5.840917
  H      -2.148836     -0.652777      5.472591
  H      -1.468675      0.825512      4.697188
25
Coordinates from ORCA-job DMC_m2_shell2_reduced_opt_relaxed E -694.601778730044
  C      -2.643294      0.096873     -0.307976
  O      -1.361629     -0.099340      0.352496
  C      -0.282128      0.416032     -0.279063
  O      -0.249934      1.009800     -1.317853
  O       0.757544      0.078598      0.519068
  C       2.069607      0.534095      0.085613
  H      -3.369445     -0.393696      0.340202
  H      -2.615848     -0.370304     -1.294908
  H      -2.843356      1.167770     -0.391218
  H       2.068263      1.624857      0.022440
  H       2.303213      0.089714     -0.884453
  H       2.755753      0.184609      0.857049
  Li     -0.342819     -0.914838      1.935844
  C       0.462489     -4.037433      2.919425
  O       0.016428     -2.653128      2.969882
  C      -0.391329     -2.202923      4.177889
  O      -0.423990     -2.799417      5.215005
  O      -0.764094     -0.922987      3.943040
  C      -1.236186     -0.173710      5.097388
  H       0.738323     -4.203764      1.878089
  H      -0.359202     -4.691461      3.219971
  H       1.321016     -4.162325      3.583343
  H      -0.450328     -0.148156      5.855683
  H      -2.138462     -0.648240      5.490119
  H      -1.448470      0.824814      4.715324
25
Coordinates from ORCA-job DMC_m2_shell2_reduced_opt_relaxed E -694.601824757017
  C      -2.641394      0.097049     -0.325342
  O      -1.362271     -0.096760      0.341576
  C      -0.282328      0.421275     -0.289469
  O      -0.250140      1.016187     -1.326880
  O       0.757258      0.087290      0.512127
  C       2.067012      0.550190      0.078196
  H      -3.370463     -0.393961      0.319050
  H      -2.608284     -0.369579     -1.312388
  H      -2.842772      1.167520     -0.410808
  H       2.059713      1.640862      0.014352
  H       2.302372      0.108150     -0.892565
  H       2.756069      0.204266      0.848494
  Li     -0.343262     -0.916624      1.934584
  C       0.453589     -4.048060      2.931915
  O       0.013873     -2.661149      2.978106
  C      -0.391871     -2.209454      4.187475
  O      -0.425025     -2.805112      5.224364
  O      -0.759840     -0.927015      3.952214
  C      -1.226067     -0.178776      5.110092
  H       0.732093     -4.218672      1.892105
  H      -0.371693     -4.697657      3.232308
  H       1.308999     -4.176005      3.599265
  H      -0.438556     -0.158897      5.866820
  H      -2.128625     -0.651232      5.504776
  H      -1.436266      0.821601      4.732032
25
Coordinates from ORCA-job DMC_m2_shell2_reduced_opt_relaxed E -694.601845387635
  C      -2.639240      0.098019     -0.336634
  O      -1.363041     -0.095874      0.335701
  C      -0.282499      0.424031     -0.294208
  O      -0.250534      1.021640     -1.330203
  O       0.757367      0.092615      0.509126
  C       2.064622      0.559840      0.072435
  H      -3.370963     -0.392833      0.304942
  H      -2.601617     -0.368533     -1.323657
  H      -2.840088      1.168543     -0.423253
  H       2.053752      1.650554      0.009258
  H       2.298587      0.119423     -0.899516
  H       2.756454      0.214978      0.840774
  Li     -0.343519     -0.917987      1.933621
  C       0.448027     -4.054336      2.941168
  O       0.012454     -2.666038      2.982014
  C      -0.391904     -2.212565      4.191992
  O      -0.424933     -2.807756      5.229330
  O      -0.756792     -0.928517      3.957016
  C      -1.220129     -0.183207      5.117872
  H       0.728790     -4.228669      1.902544
  H      -0.380117     -4.700375      3.241661
  H       1.301173     -4.182939      3.611387
  H      -0.430633     -0.165399      5.872664
  H      -2.121463     -0.657126      5.513844
  H      -1.431630      0.817954      4.742523
25
Coordinates from ORCA-job DMC_m2_shell2_reduced_opt_relaxed E -694.601854694785
  C      -2.637788      0.098316     -0.342907
  O      -1.363636     -0.095934      0.332886
  C      -0.282692      0.425435     -0.295228
  O      -0.250950      1.025652     -1.330211
  O       0.757496      0.095964      0.508478
  C       2.063145      0.564983      0.069324
  H      -3.371005     -0.392505      0.297130
  H      -2.597303     -0.368584     -1.329716
  H      -2.838133      1.168916     -0.429960
  H       2.050947      1.655788      0.007616
  H       2.295090      0.125629     -0.903650
  H       2.756643      0.219564      0.836019
  Li     -0.343646     -0.918974      1.932912
  C       0.444634     -4.057789      2.946445
  O       0.011649     -2.668758      2.983481
  C      -0.391493     -2.213445      4.193307
  O      -0.424354     -2.808418      5.231287
  O      -0.754435     -0.928676      3.959151
  C      -1.216827     -0.185696      5.121712
  H       0.726702     -4.234353      1.908463
  H      -0.385488     -4.701435      3.246796
  H       1.296538     -4.186447      3.618283
  H      -0.425646     -0.167336      5.874783
  H      -2.116597     -0.661869      5.518642
  H      -1.430728      0.815410      4.747357
25
Coordinates from ORCA-job DMC_m2_shell2_reduced_opt_relaxed E -694.601860226311
  C      -2.637030      0.097605     -0.346918
  O      -1.364078     -0.096457      0.331087
  C      -0.282954      0.426524     -0.294741
  O      -0.251349      1.028870     -1.328971
  O       0.757449      0.098874      0.508871
  C       2.062323      0.568514      0.068193
  H      -3.370914     -0.393451      0.292277
  H      -2.594636     -0.369825     -1.333405
  H      -2.837423      1.168150     -0.434196
  H       2.049965      1.659405      0.008292
  H       2.292601      0.130108     -0.905594
  H       2.756661      0.221860      0.833652
  Li     -0.343769     -0.919964      1.932202
  C       0.441840     -4.060387      2.949351
  O       0.010927     -2.670727      2.984104
  C      -0.390796     -2.213488      4.193405
  O      -0.423688     -2.808254      5.231983
  O      -0.752007     -0.928382      3.960239
  C      -1.214186     -0.186582      5.123596
  H       0.724555     -4.238245      1.911701
  H      -0.389797     -4.702241      3.249349
  H       1.293033     -4.189347      3.622005
  H      -0.421606     -0.166410      5.875154
  H      -2.112409     -0.664730      5.521594
  H      -1.430590      0.814019      4.749168
25
Coordinates from ORCA-job DMC_m2_shell2_reduced_opt_relaxed E -694.601864291349
  C      -2.636773      0.095740     -0.350123
  O      -1.364404     -0.097348      0.329414
  C      -0.283324      0.427834     -0.293796
  O      -0.251723      1.031707     -1.327434
  O       0.757092      0.102047      0.509867
  C       2.061806      0.571931      0.068723
  H      -3.370802     -0.395911      0.288480
  H      -2.592850     -0.372153     -1.336292
  H      -2.837890      1.166078     -0.437610
  H       2.049750      1.662896      0.010742
  H       2.291081      0.134650     -0.905752
  H       2.756438      0.223832      0.833279
  Li     -0.343986     -0.921242      1.931315
  C       0.438756     -4.063044      2.950862
  O       0.009993     -2.672626      2.984497
  C      -0.389904     -2.213397      4.193239
  O      -0.423133     -2.807822      5.232291
  O      -0.749064     -0.927985      3.960875
  C      -1.211057     -0.186177      5.124400
  H       0.721626     -4.241747      1.913382
  H      -0.394200     -4.703294      3.250504
  H       1.289492     -4.192832      3.623857
  H      -0.417256     -0.163725      5.874571
  H      -2.107852     -0.665662      5.523844
  H      -1.429693      0.813688      4.749263
25
Coordinates from ORCA-job DMC_m2_shell2_reduced_opt_relaxed E -694.601868964695
  C      -2.636813      0.092495     -0.353411
  O      -1.364710     -0.098864      0.327425
  C      -0.283880      0.429485     -0.292704
  O      -0.252095      1.034490     -1.325808
  O       0.756232      0.106080      0.511674
  C       2.061159      0.576332      0.071097
  H      -3.370688     -0.400133      0.284594
  H      -2.591323     -0.375713     -1.339313
  H      -2.839269      1.162497     -0.441165
  H       2.049410      1.667366      0.015104
  H       2.290191      0.140474     -0.903998
  H       2.755693      0.226794      0.835067
  Li     -0.344440     -0.923319      1.929929
  C       0.434621     -4.066413      2.951618
  O       0.008594     -2.674993      2.984758
  C      -0.388778     -2.213462      4.193021
  O      -0.422722     -2.807257      5.232534
  O      -0.744979     -0.927523      3.961065
  C      -1.206408     -0.184572      5.124269
  H       0.717193     -4.245930      1.914212
  H      -0.399724     -4.704836      3.251121
  H       1.285028     -4.197615      3.624661
  H      -0.411365     -0.159629      5.873004
  H      -2.101849     -0.664708      5.525749
  H      -1.426958      0.814393      4.747894
25
Coordinates from ORCA-job DMC_m2_shell2_reduced_opt_relaxed E -694.601879132877
  C      -2.636964      0.084774     -0.360159
  O      -1.365347     -0.102664      0.323223
  C      -0.285212      0.432951     -0.290748
  O      -0.252737      1.039565     -1.322940
  O       0.753763      0.114757      0.516326
  C       2.059207      0.586417      0.078034
  H      -3.370430     -0.410258      0.276378
  H      -2.588108     -0.383537     -1.345778
  H      -2.842548      1.154054     -0.448326
  H       2.047411      1.677572      0.025506
  H       2.288964      0.153519     -0.898089
  H       2.753225      0.234696      0.841401
  Li     -0.345741     -0.928645      1.926461
  C       0.425200     -4.073853      2.952646
  O       0.005293     -2.680272      2.984999
  C      -0.386390     -2.214008      4.192680
  O      -0.422247     -2.806113      5.233137
  O      -0.735656     -0.926624      3.960560
  C      -1.195067     -0.180311      5.122705
  H       0.706546     -4.255312      1.915298
  H      -0.411919     -4.708292      3.252606
  H       1.275165     -4.208261      3.625473
  H      -0.397638     -0.151187      5.868698
  H      -2.088301     -0.660507      5.528670
  H      -1.418346      0.816977      4.743637
25
Coordinates from ORCA-job DMC_m2_shell2_reduced_opt_relaxed E -694.601898621700
  C      -2.637188      0.072697     -0.368930
  O      -1.366262     -0.108968      0.317822
  C      -0.287348      0.437642     -0.287717
  O      -0.253415      1.045452     -1.319042
  O       0.749335      0.126668      0.524398
  C       2.055535      0.601148      0.090750
  H      -3.369874     -0.426599      0.265063
  H      -2.583366     -0.394668     -1.354673
  H      -2.847762      1.140950     -0.456953
  H       2.042778      1.692462      0.042345
  H       2.287904      0.172367     -0.886450
  H       2.748383      0.247318      0.854109
  Li     -0.348042     -0.937418      1.920861
  C       0.411194     -4.084387      2.953051
  O       0.000276     -2.687804      2.984470
  C      -0.382896     -2.214947      4.191773
  O      -0.422028     -2.804169      5.233622
  O      -0.721762     -0.925274      3.958050
  C      -1.177196     -0.173014      5.118170
  H       0.689631     -4.268948      1.915539
  H      -0.429495     -4.713024      3.254987
  H       1.261177     -4.223367      3.624813
  H      -0.376664     -0.139391      5.860637
  H      -2.068238     -0.651491      5.530599
  H      -1.402556      0.822206      4.735105
25
Coordinates from ORCA-job DMC_m2_shell2_reduced_opt_relaxed E -694.601925029556
  C      -2.638040      0.062354     -0.371727
  O      -1.366870     -0.115156      0.315828
  C      -0.289242      0.439867     -0.284512
  O      -0.253554      1.046640     -1.315903
  O       0.744948      0.133279      0.532762
  C       2.052251      0.610473      0.105327
  H      -3.369443     -0.441051      0.260369
  H      -2.581549     -0.402717     -1.358385
  H      -2.852828      1.129905     -0.458363
  H       2.037965      1.701885      0.058683
  H       2.289325      0.184454     -0.871909
  H       2.743065      0.256423      0.870316
  Li     -0.350392     -0.945424      1.915890
  C       0.401512     -4.090875      2.950028
  O      -0.003649     -2.692467      2.982000
  C      -0.380484     -2.215398      4.189569
  O      -0.422622     -2.801812      5.232394
  O      -0.711669     -0.923922      3.952550
  C      -1.162968     -0.164891      5.109883
  H       0.676040     -4.277465      1.911923
  H      -0.440589     -4.716034      3.255176
  H       1.252731     -4.232893      3.619600
  H      -0.360920     -0.129835      5.850704
  H      -2.054064     -0.639073      5.527042
  H      -1.386834      0.829173      4.723156
25
Coordinates from ORCA-job DMC_m2_shell2_reduced_opt_relaxed E -694.601959594836
  C      -2.638781      0.051984     -0.373425
  O      -1.367760     -0.122224      0.314836
  C      -0.291493      0.441160     -0.281519
  O      -0.253440      1.045774     -1.313458
  O       0.739782      0.137635      0.542188
  C       2.047554      0.619915      0.122821
  H      -3.368972     -0.456984      0.255547
  H      -2.579257     -0.408415     -1.362151
  H      -2.858113      1.119024     -0.456653
  H       2.029466      1.711427      0.076832
  H       2.291859      0.196683     -0.853916
  H       2.736004      0.267521      0.890633
  Li     -0.353466     -0.955187      1.909960
  C       0.391933     -4.097087      2.946725
  O      -0.007799     -2.697204      2.978374
  C      -0.378393     -2.216316      4.186784
  O      -0.423756     -2.799115      5.230856
  O      -0.702225     -0.922803      3.944256
  C      -1.147003     -0.155958      5.098543
  H       0.661112     -4.286629      1.907798
  H      -0.450784     -4.718830      3.257326
  H       1.245426     -4.241209      3.613132
  H      -0.343834     -0.122862      5.838401
  H      -2.040074     -0.622740      5.520044
  H      -1.365864      0.837877      4.708466
25
Coordinates from ORCA-job DMC_m2_shell2_reduced_opt_relaxed E -694.602004821297
  C      -2.638652      0.037867     -0.381682
  O      -1.369381     -0.131074      0.310635
  C      -0.294689      0.445043     -0.277551
  O      -0.253396      1.048815     -1.309541
  O       0.732602      0.147035      0.553951
  C       2.039996      0.637070      0.143520
  H      -3.367882     -0.479499      0.241526
  H      -2.572227     -0.416391     -1.372850
  H      -2.864927      1.103940     -0.460294
  H       2.016429      1.728716      0.100292
  H       2.292210      0.218582     -0.833307
  H       2.726377      0.285850      0.913701
  Li     -0.357501     -0.968839      1.901644
  C       0.375784     -4.108842      2.946677
  O      -0.013915     -2.706180      2.975433
  C      -0.374540     -2.217905      4.184298
  O      -0.424137     -2.795554      5.230698
  O      -0.687133     -0.921769      3.935645
  C      -1.122649     -0.145944      5.086972
  H       0.638163     -4.303905      1.907044
  H      -0.469422     -4.723699      3.264306
  H       1.231609     -4.256454      3.609482
  H      -0.316708     -0.114319      5.824047
  H      -2.017037     -0.604395      5.514969
  H      -1.336852      0.847290      4.692786
25
Coordinates from ORCA-job DMC_m2_shell2_reduced_opt_relaxed E -694.602088201033
  C      -2.637017      0.020121     -0.397887
  O      -1.373801     -0.143490      0.304442
  C      -0.300916      0.450886     -0.271911
  O      -0.253742      1.052871     -1.304956
  O       0.721291      0.156733      0.570752
  C       2.024808      0.665415      0.174866
  H      -3.365812     -0.515720      0.210404
  H      -2.555468     -0.417442     -1.395603
  H      -2.875704      1.084863     -0.462324
  H       1.986764      1.757107      0.135120
  H       2.292409      0.254682     -0.801453
  H       2.708886      0.319636      0.949789
  Li     -0.365049     -0.993089      1.887085
  C       0.351058     -4.128395      2.952992
  O      -0.022742     -2.722103      2.970869
  C      -0.368144     -2.221455      4.180175
  O      -0.423361     -2.789573      5.231616
  O      -0.667020     -0.921903      3.919193
  C      -1.082421     -0.133549      5.067710
  H       0.599115     -4.336491      1.912169
  H      -0.496838     -4.730764      3.287600
  H       1.213276     -4.277931      3.607593
  H      -0.272550     -0.112861      5.801262
  H      -1.982860     -0.573510      5.503263
  H      -1.282039      0.861399      4.669636
25
Coordinates from ORCA-job DMC_m2_shell2_reduced_opt_relaxed E -694.602205199622
  C      -2.634907     -0.010073     -0.420768
  O      -1.377644     -0.161927      0.293887
  C      -0.308478      0.461321     -0.260784
  O      -0.252392      1.062696     -1.293559
  O       0.702956      0.177819      0.597046
  C       2.004013      0.705163      0.220282
  H      -3.361230     -0.567248      0.171161
  H      -2.534890     -0.431061     -1.423946
  H      -2.891114      1.051535     -0.472552
  H       1.952572      1.796789      0.188034
  H       2.288518      0.306223     -0.756205
  H       2.684091      0.361751      0.999788
  Li     -0.373609     -1.024261      1.868478
  C       0.313353     -4.156694      2.956936
  O      -0.036046     -2.744229      2.965193
  C      -0.357506     -2.224026      4.174690
  O      -0.421598     -2.778922      5.232387
  O      -0.631863     -0.920671      3.899649
  C      -1.025426     -0.113424      5.041761
  H       0.544360     -4.379071      1.915120
  H      -0.540058     -4.741214      3.308858
  H       1.181118     -4.314024      3.602601
  H      -0.209117     -0.096559      5.768556
  H      -1.928267     -0.534363      5.491171
  H      -1.214714      0.879911      4.634616
25
Coordinates from ORCA-job DMC_m2_shell2_reduced_opt_relaxed E -694.602346469802
  C      -2.630854     -0.049676     -0.450779
  O      -1.382296     -0.185760      0.280716
  C      -0.319127      0.475101     -0.244816
  O      -0.250707      1.076067     -1.277073
  O       0.676689      0.204515      0.632910
  C       1.974241      0.755701      0.281615
  H      -3.353025     -0.635029      0.118705
  H      -2.506179     -0.447979     -1.460478
  H      -2.911012      1.006879     -0.486268
  H       1.905218      1.846873      0.258320
  H       2.281028      0.372111     -0.694329
  H       2.648682      0.415804      1.067575
  Li     -0.383808     -1.063899      1.844884
  C       0.263459     -4.192143      2.962189
  O      -0.053077     -2.772311      2.957048
  C      -0.342493     -2.226331      4.166763
  O      -0.417942     -2.763240      5.232566
  O      -0.584463     -0.919473      3.872416
  C      -0.949501     -0.088087      5.005486
  H       0.471194     -4.433191      1.919608
  H      -0.596563     -4.752322      3.337082
  H       1.138249     -4.360472      3.595894
  H      -0.125345     -0.076723      5.723863
  H      -1.855136     -0.483806      5.472134
  H      -1.125111      0.902829      4.586370
25
Coordinates from ORCA-job DMC_m2_shell2_reduced_opt_relaxed E -694.602804544729
  C      -2.624274     -0.093531     -0.507831
  O      -1.400088     -0.212547      0.261930
  C      -0.347277      0.499383     -0.214706
  O      -0.259270      1.098108     -1.251011
  O       0.638966      0.226908      0.681378
  C       1.923515      0.830049      0.376451
  H      -3.336060     -0.745141      0.000470
  H      -2.445950     -0.425658     -1.533180
  H      -2.955347      0.949469     -0.491103
  H       1.813646      1.918498      0.367944
  H       2.274701      0.473863     -0.594918
  H       2.587718      0.502279      1.176950
  Li     -0.403127     -1.132546      1.802683
  C       0.191369     -4.248905      2.992582
  O      -0.073961     -2.821401      2.944151
  C      -0.310042     -2.229748      4.146638
  O      -0.395674     -2.735516      5.228626
  O      -0.524708     -0.923815      3.819213
  C      -0.831111     -0.058813      4.942120
  H       0.341893     -4.534400      1.950950
  H      -0.669811     -4.762694      3.426841
  H       1.089597     -4.424262      3.591596
  H       0.002433     -0.077104      5.649809
  H      -1.749998     -0.400027      5.426005
  H      -0.965019      0.932992      4.508811
25
Coordinates from ORCA-job DMC_m2_shell2_reduced_opt_relaxed E -694.602752718859
  C      -2.634676     -0.083168     -0.541243
  O      -1.429204     -0.200000      0.257190
  C      -0.378006      0.521599     -0.191075
  O      -0.288593      1.115524     -1.238994
  O       0.647492      0.215961      0.684505
  C       1.925583      0.841601      0.397515
  H      -3.335175     -0.787718     -0.090725
  H      -2.416306     -0.353275     -1.575943
  H      -3.005150      0.944211     -0.473809
  H       1.800415      1.927949      0.408210
  H       2.290517      0.502464     -0.573995
  H       2.587347      0.510860      1.199196
  Li     -0.416355     -1.159714      1.780026
  C       0.180953     -4.270077      3.034347
  O      -0.069177     -2.842178      2.942937
  C      -0.280679     -2.229859      4.122483
  O      -0.357533     -2.731009      5.211992
  O      -0.528467     -0.930164      3.795630
  C      -0.810368     -0.059818      4.923227
  H       0.283752     -4.593248      1.997675
  H      -0.667668     -4.757956      3.518444
  H       1.104636     -4.434929      3.595764
  H       0.026930     -0.095924      5.624516
  H      -1.736620     -0.380379      5.404978
  H      -0.921523      0.934686      4.489549
25
Coordinates from ORCA-job DMC_m2_shell2_reduced_opt_relaxed E -694.603459741665
  C      -2.620563     -0.143350     -0.571479
  O      -1.424537     -0.233825      0.245844
  C      -0.389485      0.538398     -0.159825
  O      -0.274698      1.133152     -1.202052
  O       0.600421      0.252385      0.742298
  C       1.872778      0.898675      0.483834
  H      -3.309073     -0.871461     -0.141659
  H      -2.378843     -0.394137     -1.605832
  H      -3.020403      0.872865     -0.501127
  H       1.732330      1.983354      0.507270
  H       2.257152      0.582614     -0.488065
  H       2.529371      0.567368      1.288617
  Li     -0.420553     -1.202103      1.758786
  C       0.111509     -4.310660      3.025254
  O      -0.093774     -2.874383      2.929677
  C      -0.259089     -2.226207      4.113372
  O      -0.347710     -2.698353      5.212951
  O      -0.455416     -0.926019      3.759754
  C      -0.709166     -0.021959      4.867085
  H       0.190266     -4.645222      1.990481
  H      -0.744494     -4.768561      3.524985
  H       1.034739     -4.501832      3.578789
  H       0.137497     -0.050908      5.557724
  H      -1.630180     -0.317070      5.374308
  H      -0.815956      0.962676      4.411409
25
Coordinates from ORCA-job DMC_m2_shell2_reduced_opt_relaxed E -694.603601496254
  C      -2.610543     -0.185176     -0.609746
  O      -1.433136     -0.253057      0.236399
  C      -0.412657      0.559825     -0.127457
  O      -0.278597      1.156417     -1.168094
  O       0.566433      0.275474      0.788339
  C       1.831567      0.943342      0.555699
  H      -3.283985     -0.947565     -0.217962
  H      -2.334120     -0.399598     -1.643388
  H      -3.048276      0.814290     -0.525268
  H       1.676191      2.025646      0.595585
  H       2.232183      0.651149     -0.416857
  H       2.485307      0.609386      1.361574
  Li     -0.428434     -1.238477      1.737521
  C       0.054107     -4.342970      3.035594
  O      -0.111528     -2.902838      2.919202
  C      -0.231654     -2.224140      4.096804
  O      -0.319664     -2.674794      5.205623
  O      -0.402271     -0.926475      3.725170
  C      -0.625117      0.001346      4.819734
  H       0.095949     -4.698853      2.006116
  H      -0.800712     -4.767261      3.565622
  H       0.985266     -4.551652      3.568922
  H       0.230291     -0.030162      5.499206
  H      -1.543360     -0.268034      5.345414
  H      -0.721118      0.979616      4.348648
25
Coordinates from ORCA-job DMC_m2_shell2_reduced_opt_relaxed E -694.603177186231
  C      -2.614143     -0.260811     -0.618893
  O      -1.440462     -0.266763      0.242926
  C      -0.408330      0.598470     -0.097447
  O      -0.244061      1.205060     -1.120521
  O       0.543113      0.310543      0.836953
  C       1.819583      0.948190      0.605203
  H      -3.286226     -1.011383     -0.209510
  H      -2.319264     -0.510522     -1.640162
  H      -3.065031      0.735426     -0.598080
  H       1.705149      2.034543      0.674555
  H       2.193072      0.683519     -0.386001
  H       2.484707      0.576968      1.383282
  Li     -0.439376     -1.220422      1.744956
  C       0.007234     -4.332510      2.992356
  O      -0.137424     -2.882682      2.918302
  C      -0.227672     -2.221254      4.094182
  O      -0.262584     -2.673222      5.199830
  O      -0.366734     -0.921608      3.728038
  C      -0.587805      0.031097      4.803802
  H       0.053432     -4.671498      1.959765
  H      -0.853220     -4.759759      3.510095
  H       0.925582     -4.571979      3.532435
  H       0.284696      0.038229      5.461308
  H      -1.477655     -0.246808      5.372054
  H      -0.714457      0.994615      4.312972
25
Coordinates from ORCA-job DMC_m2_shell2_reduced_opt_relaxed E -694.604138307352
  C      -2.607417     -0.237565     -0.630589
  O      -1.448863     -0.263184      0.243879
  C      -0.430415      0.594289     -0.091262
  O      -0.270834      1.184257     -1.130517
  O       0.543533      0.293127      0.835646
  C       1.811239      0.953044      0.614352
  H      -3.272112     -1.013692     -0.254468
  H      -2.299100     -0.446946     -1.656738
  H      -3.073931      0.750856     -0.571460
  H       1.673402      2.036812      0.684075
  H       2.201429      0.691021     -0.371149
  H       2.472270      0.592489      1.402062
  Li     -0.444037     -1.241170      1.732046
  C       0.011361     -4.343615      3.018840
  O      -0.132554     -2.898671      2.912910
  C      -0.221167     -2.222390      4.083795
  O      -0.262319     -2.665864      5.196073
  O      -0.373883     -0.923909      3.708669
  C      -0.576136      0.025845      4.788380
  H       0.034599     -4.700176      1.989938
  H      -0.840743     -4.757006      3.561580
  H       0.943865     -4.571692      3.540771
  H       0.293167      0.009451      5.450408
  H      -1.478898     -0.234162      5.344864
  H      -0.680334      0.994292      4.300296
25
Coordinates from ORCA-job DMC_m2_shell2_reduced_opt_relaxed E -694.604808497951
  C      -2.594641     -0.256056     -0.654311
  O      -1.465728     -0.268148      0.252333
  C      -0.464704      0.617484     -0.057646
  O      -0.284366      1.173790     -1.116800
  O       0.524803      0.289270      0.868688
  C       1.783573      0.965286      0.665518
  H      -3.243354     -1.065782     -0.322589
  H      -2.250914     -0.421723     -1.677379
  H      -3.098916      0.713585     -0.579571
  H       1.634496      2.046773      0.755672
  H       2.182682      0.728105     -0.323047
  H       2.446432      0.597723      1.449066
  Li     -0.459002     -1.259532      1.717967
  C      -0.017815     -4.353372      3.027025
  O      -0.145785     -2.909320      2.903359
  C      -0.209140     -2.220153      4.067252
  O      -0.218259     -2.649532      5.186234
  O      -0.361512     -0.924304      3.680892
  C      -0.527518      0.038954      4.752591
  H      -0.028907     -4.723257      2.002131
  H      -0.859565     -4.747068      3.600032
  H       0.927184     -4.587151      3.523705
  H       0.346522      0.006416      5.407891
  H      -1.432785     -0.191318      5.318551
  H      -0.610662      1.004771      4.254838
25
Coordinates from ORCA-job DMC_m2_shell2_reduced_opt_relaxed E -694.606247330434
  C      -2.572045     -0.252902     -0.668354
  O      -1.498417     -0.264012      0.284311
  C      -0.531928      0.658218     -0.004562
  O      -0.317698      1.093649     -1.126134
  O       0.513809      0.256505      0.907425
  C       1.760305      0.945344      0.720145
  H      -3.198280     -1.108383     -0.410228
  H      -2.179482     -0.346635     -1.683642
  H      -3.130164      0.687222     -0.565836
  H       1.603364      2.023356      0.852008
  H       2.159902      0.749686     -0.278383
  H       2.432368      0.555520      1.487102
  Li     -0.490660     -1.267990      1.698990
  C      -0.025503     -4.343846      3.036226
  O      -0.161065     -2.905924      2.888342
  C      -0.214449     -2.214823      4.040463
  O      -0.137383     -2.625903      5.164299
  O      -0.385240     -0.922059      3.645728
  C      -0.497248      0.048694      4.711330
  H      -0.072767     -4.724281      2.014152
  H      -0.848662     -4.725239      3.644906
  H       0.939888     -4.569057      3.497635
  H       0.381026     -0.011953      5.359560
  H      -1.408746     -0.142152      5.283561
  H      -0.548803      1.012405      4.203358
25
Coordinates from ORCA-job DMC_m2_shell2_reduced_opt_relaxed E -694.606991554997
  C      -2.578055     -0.214051     -0.638418
  O      -1.512885     -0.252068      0.308805
  C      -0.542588      0.668969     -0.004875
  O      -0.326745      1.008442     -1.168232
  O       0.536689      0.215275      0.901199
  C       1.788408      0.884576      0.704899
  H      -3.223762     -1.057720     -0.377782
  H      -2.192390     -0.316725     -1.655857
  H      -3.121805      0.736337     -0.533390
  H       1.648522      1.964035      0.853257
  H       2.174347      0.695168     -0.301400
  H       2.465112      0.474344      1.459401
  Li     -0.511833     -1.241747      1.694372
  C       0.029136     -4.305130      3.027488
  O      -0.153690     -2.874360      2.882981
  C      -0.246868     -2.210885      4.032912
  O      -0.114001     -2.621045      5.152041
  O      -0.443424     -0.917440      3.647535
  C      -0.555481      0.038588      4.722098
  H       0.004132     -4.673910      1.998592
  H      -0.790762     -4.713138      3.624563
  H       0.999037     -4.501971      3.493088
  H       0.323508     -0.022623      5.369961
  H      -1.468880     -0.163490      5.288916
  H      -0.613601      1.006011      4.220246
25
Coordinates from ORCA-job DMC_m2_shell2_reduced_opt_relaxed E -694.609206430978
  C      -2.577124     -0.227297     -0.627815
  O      -1.530489     -0.270269      0.332403
  C      -0.568640      0.687646      0.021726
  O      -0.326514      0.944946     -1.166527
  O       0.526476      0.185160      0.954081
  C       1.772643      0.858198      0.781954
  H      -3.231852     -1.071853     -0.380222
  H      -2.180617     -0.326386     -1.641303
  H      -3.129087      0.720882     -0.531714
  H       1.631061      1.934949      0.954933
  H       2.166685      0.697371     -0.227819
  H       2.452172      0.435527      1.529546
  Li     -0.535829     -1.242016      1.671680
  C       0.025241     -4.295477      3.001404
  O      -0.160208     -2.865981      2.851347
  C      -0.233689     -2.192055      4.006968
  O      -0.060137     -2.587214      5.127513
  O      -0.445121     -0.902633      3.610328
  C      -0.535230      0.066316      4.672311
  H      -0.026081     -4.670648      1.975539
  H      -0.780395     -4.695950      3.622817
  H       1.006681     -4.492601      3.441517
  H       0.352796      0.011693      5.308503
  H      -1.441528     -0.123600      5.255973
  H      -0.599090      1.026732      4.157255
25
Coordinates from ORCA-job DMC_m2_shell2_reduced_opt_relaxed E -694.613893464723
  C      -2.634563     -0.248178     -0.603616
  O      -1.559495     -0.293118      0.331381
  C      -0.521167      0.704023     -0.036529
  O      -0.263392      0.942894     -1.231789
  O       0.538217      0.148724      0.996995
  C       1.793632      0.790316      0.860814
  H      -3.350005     -1.021026     -0.276854
  H      -2.282271     -0.453505     -1.616522
  H      -3.132340      0.733332     -0.586461
  H       1.680832      1.871847      1.028812
  H       2.206192      0.630828     -0.145585
  H       2.465986      0.362234      1.616386
  Li     -0.581385     -1.195355      1.639363
  C       0.063068     -4.262424      2.934628
  O      -0.152499     -2.830724      2.824026
  C      -0.216635     -2.167688      4.011120
  O      -0.048878     -2.579289      5.128595
  O      -0.460823     -0.882545      3.618668
  C      -0.556083      0.100259      4.667859
  H       0.024117     -4.624000      1.906183
  H      -0.731569     -4.694906      3.547490
  H       1.043842     -4.455491      3.374941
  H       0.347813      0.081954      5.282839
  H      -1.437615     -0.104543      5.284814
  H      -0.662857      1.051820      4.144840
25
Coordinates from ORCA-job DMC_m2_shell2_reduced_opt_relaxed E -694.616493625470
  C      -2.639248     -0.261501     -0.624594
  O      -1.576919     -0.275915      0.325209
  C      -0.539265      0.747666     -0.023975
  O      -0.255013      0.904053     -1.215542
  O       0.535258      0.162194      1.000236
  C       1.792279      0.794194      0.862238
  H      -3.340911     -1.048276     -0.319261
  H      -2.262212     -0.453950     -1.633417
  H      -3.157042      0.707653     -0.615164
  H       1.698270      1.875919      1.040023
  H       2.198773      0.641111     -0.146863
  H       2.469359      0.357510      1.606300
  Li     -0.594177     -1.176951      1.634444
  C       0.050762     -4.259511      2.932739
  O      -0.153604     -2.827571      2.827156
  C      -0.191968     -2.160048      4.010828
  O      -0.037783     -2.592602      5.121374
  O      -0.458942     -0.882595      3.636684
  C      -0.547909      0.101244      4.686919
  H      -0.007387     -4.627867      1.908886
  H      -0.732855     -4.692233      3.558721
  H       1.036771     -4.459529      3.359206
  H       0.361099      0.080076      5.293439
  H      -1.423143     -0.100567      5.311778
  H      -0.652069      1.052935      4.165037
25
Coordinates from ORCA-job DMC_m2_shell2_reduced_opt_relaxed E -694.617804180829
  C      -2.653840     -0.257609     -0.611637
  O      -1.574371     -0.259696      0.321135
  C      -0.514093      0.740056     -0.023678
  O      -0.228549      0.910335     -1.187393
  O       0.548038      0.169831      0.974904
  C       1.818931      0.776177      0.805157
  H      -3.357956     -1.026142     -0.294326
  H      -2.283883     -0.470474     -1.621795
  H      -3.148257      0.721051     -0.612122
  H       1.762561      1.859677      0.982099
  H       2.198170      0.609884     -0.210258
  H       2.502699      0.327034      1.530845
  Li     -0.591292     -1.152276      1.644824
  C       0.075130     -4.241321      2.927180
  O      -0.151821     -2.812525      2.830475
  C      -0.210172     -2.146811      4.011255
  O      -0.072702     -2.604955      5.108684
  O      -0.480423     -0.878097      3.663449
  C      -0.595152      0.091573      4.731964
  H       0.050042     -4.609726      1.902942
  H      -0.711648     -4.701483      3.528851
  H       1.051209     -4.425094      3.383047
  H       0.314712      0.077327      5.336184
  H      -1.462869     -0.140867      5.353158
  H      -0.712344      1.049571      4.227456
25
Coordinates from ORCA-job DMC_m2_shell2_reduced_opt_relaxed E -694.618450106683
  C      -2.674932     -0.190586     -0.546156
  O      -1.570945     -0.240010      0.345381
  C      -0.474455      0.724274     -0.051197
  O      -0.209000      0.825810     -1.231717
  O       0.586092      0.112962      0.940673
  C       1.872650      0.670524      0.738262
  H      -3.421559     -0.897936     -0.177225
  H      -2.362246     -0.464100     -1.561095
  H      -3.104729      0.819591     -0.563713
  H       1.860589      1.755856      0.915569
  H       2.221744      0.487905     -0.285891
  H       2.558787      0.196486      1.447943
  Li     -0.601277     -1.103613      1.644898
  C       0.180752     -4.172584      2.907855
  O      -0.125581     -2.759412      2.824726
  C      -0.251939     -2.133784      4.008341
  O      -0.096305     -2.606563      5.097084
  O      -0.566523     -0.868172      3.682149
  C      -0.724876      0.069308      4.773708
  H       0.220126     -4.516966      1.874564
  H      -0.605039     -4.688797      3.464377
  H       1.146279     -4.310463      3.400457
  H       0.182332      0.079983      5.382044
  H      -1.586366     -0.217127      5.381075
  H      -0.881456      1.032854      4.290290
25
Coordinates from ORCA-job DMC_m2_shell2_reduced_opt_relaxed E -694.619019654029
  C      -2.678452     -0.172197     -0.545582
  O      -1.572289     -0.233064      0.342077
  C      -0.453882      0.722891     -0.072699
  O      -0.186715      0.824060     -1.259252
  O       0.596141      0.105034      0.919557
  C       1.880441      0.658072      0.704594
  H      -3.438120     -0.869517     -0.173703
  H      -2.378853     -0.451849     -1.561480
  H      -3.099107      0.842949     -0.568501
  H       1.872746      1.744000      0.877587
  H       2.220904      0.472352     -0.322209
  H       2.575031      0.186278      1.409244
  Li     -0.603846     -1.089394      1.640639
  C       0.200461     -4.169385      2.913642
  O      -0.122668     -2.758840      2.830108
  C      -0.256427     -2.130431      4.022302
  O      -0.102446     -2.605706      5.111533
  O      -0.590114     -0.867607      3.702930
  C      -0.751398      0.057016      4.807465
  H       0.261002     -4.510291      1.880440
  H      -0.586713     -4.698549      3.455152
  H       1.157657     -4.299846      3.422233
  H       0.155853      0.066333      5.415062
  H      -1.609571     -0.242508      5.413304
  H      -0.917515      1.025639      4.337959
25
Coordinates from ORCA-job DMC_m2_shell2_reduced_opt_relaxed E -694.619407164969
  C      -2.683543     -0.118713     -0.499586
  O      -1.556255     -0.210319      0.356866
  C      -0.415081      0.699114     -0.098257
  O      -0.168543      0.783385     -1.289369
  O       0.628942      0.080880      0.868951
  C       1.922718      0.598620      0.611359
  H      -3.460409     -0.777077     -0.096095
  H      -2.427247     -0.428170     -1.519235
  H      -3.062299      0.912497     -0.529002
  H       1.945826      1.686054      0.770615
  H       2.229573      0.389132     -0.420629
  H       2.621361      0.117621      1.304539
  Li     -0.587998     -1.051468      1.655552
  C       0.269408     -4.131526      2.909169
  O      -0.101899     -2.732377      2.838277
  C      -0.278990     -2.120789      4.038708
  O      -0.137355     -2.608543      5.124910
  O      -0.650466     -0.862696      3.735924
  C      -0.859144      0.028078      4.861634
  H       0.383342     -4.448410      1.872825
  H      -0.519409     -4.699841      3.407158
  H       1.209080     -4.237227      3.455132
  H       0.041479      0.057414      5.478205
  H      -1.710801     -0.321047      5.449791
  H      -1.060168      1.000850      4.414958
25
Coordinates from ORCA-job DMC_m2_shell2_reduced_opt_relaxed E -694.619605080635
  C      -2.690701     -0.086625     -0.474742
  O      -1.554944     -0.191153      0.369309
  C      -0.393087      0.690317     -0.108435
  O      -0.150936      0.754969     -1.302707
  O       0.642503      0.066280      0.843156
  C       1.946054      0.549777      0.563645
  H      -3.475185     -0.728113     -0.061232
  H      -2.452605     -0.405789     -1.495875
  H      -3.051217      0.950883     -0.509387
  H       1.998755      1.636739      0.717825
  H       2.230749      0.329364     -0.471638
  H       2.641501      0.054994      1.249150
  Li     -0.586203     -1.022453      1.662960
  C       0.313786     -4.100677      2.902211
  O      -0.092781     -2.710509      2.844264
  C      -0.290839     -2.112448      4.046820
  O      -0.140722     -2.602811      5.130566
  O      -0.688656     -0.862247      3.755789
  C      -0.923461      0.010424      4.891285
  H       0.460340     -4.398970      1.864944
  H      -0.470955     -4.697316      3.372709
  H       1.241793     -4.190726      3.470327
  H      -0.023719      0.060042      5.507694
  H      -1.762779     -0.370131      5.477424
  H      -1.154569      0.981615      4.456340
25
Coordinates from ORCA-job DMC_m2_shell2_reduced_opt_relaxed E -694.619721045809
  C      -2.693695     -0.049122     -0.448624
  O      -1.550205     -0.170442      0.382167
  C      -0.375996      0.680036     -0.123415
  O      -0.147407      0.721030     -1.323227
  O       0.656817      0.052814      0.813984
  C       1.968737      0.504588      0.515381
  H      -3.484145     -0.673391     -0.021451
  H      -2.473277     -0.378143     -1.470751
  H      -3.034766      0.994713     -0.485358
  H       2.044871      1.591757      0.657555
  H       2.235460      0.267165     -0.520619
  H       2.657669      0.001318      1.200664
  Li     -0.578832     -0.996965      1.675246
  C       0.357762     -4.071622      2.898736
  O      -0.080906     -2.690476      2.854924
  C      -0.300057     -2.110835      4.059203
  O      -0.145237     -2.603365      5.141231
  O      -0.724274     -0.865482      3.774502
  C      -0.988161     -0.009492      4.915208
  H       0.530853     -4.348859      1.859715
  H      -0.422369     -4.692723      3.344891
  H       1.276847     -4.148288      3.483293
  H      -0.092449      0.062092      5.535486
  H      -1.817554     -0.418660      5.496329
  H      -1.247564      0.957791      4.487331
25
Coordinates from ORCA-job DMC_m2_shell2_reduced_opt_relaxed E -694.619775163213
  C      -2.697388     -0.026733     -0.430367
  O      -1.549968     -0.158907      0.394103
  C      -0.367533      0.673517     -0.129713
  O      -0.147098      0.697910     -1.332512
  O       0.662958      0.042650      0.802858
  C       1.981084      0.471713      0.496901
  H      -3.490572     -0.644282      0.001440
  H      -2.483227     -0.356800     -1.453458
  H      -3.028974      1.020163     -0.464790
  H       2.073720      1.558659      0.630650
  H       2.238604      0.222969     -0.538799
  H       2.663120     -0.037723      1.184334
  Li     -0.575625     -0.982370      1.682065
  C       0.384967     -4.051338      2.892695
  O      -0.075086     -2.676281      2.858271
  C      -0.301804     -2.108109      4.062791
  O      -0.142032     -2.600918      5.143358
  O      -0.743641     -0.867392      3.779738
  C      -1.026002     -0.018681      4.920739
  H       0.567345     -4.317345      1.852450
  H      -0.388191     -4.686857      3.330454
  H       1.302472     -4.118159      3.480928
  H      -0.131920      0.073143      5.540862
  H      -1.845137     -0.446261      5.503185
  H      -1.307950      0.942873      4.494217
25
Coordinates from ORCA-job DMC_m2_shell2_reduced_opt_relaxed E -694.619808974313
  C      -2.699026     -0.000844     -0.414077
  O      -1.546992     -0.147253      0.402185
  C      -0.359352      0.665743     -0.141839
  O      -0.150902      0.672871     -1.346924
  O       0.671377      0.033937      0.788841
  C       1.993241      0.444385      0.472347
  H      -3.497186     -0.605662      0.026801
  H      -2.495380     -0.337640     -1.437017
  H      -3.015640      1.050611     -0.448721
  H       2.098951      1.531317      0.595341
  H       2.241123      0.182635     -0.562611
  H       2.671805     -0.067487      1.161345
  Li     -0.569119     -0.968775      1.690694
  C       0.412871     -4.034778      2.891069
  O      -0.068062     -2.666239      2.863121
  C      -0.306813     -2.107639      4.069960
  O      -0.147459     -2.602833      5.149151
  O      -0.762103     -0.869912      3.788177
  C      -1.064265     -0.030285      4.930582
  H       0.606573     -4.290238      1.850204
  H      -0.354112     -4.684272      3.318885
  H       1.327334     -4.091498      3.485001
  H      -0.173274      0.080188      5.552216
  H      -1.874418     -0.476825      5.511343
  H      -1.367050      0.925931      4.506326
25
Coordinates from ORCA-job DMC_m2_shell2_reduced_opt_relaxed E -694.619848703962
  C      -2.703396      0.025881     -0.398076
  O      -1.547288     -0.134814      0.411525
  C      -0.351507      0.658264     -0.152842
  O      -0.152928      0.646495     -1.358800
  O       0.678861      0.024530      0.780221
  C       2.004322      0.414466      0.454288
  H      -3.505838     -0.570142      0.047135
  H      -2.507409     -0.312242     -1.421798
  H      -3.007537      1.081110     -0.429086
  H       2.125302      1.501026      0.565616
  H       2.243420      0.139193     -0.579372
  H       2.679519     -0.099792      1.144790
  Li     -0.563828     -0.956427      1.698498
  C       0.441440     -4.017279      2.889244
  O      -0.063530     -2.656972      2.865611
  C      -0.311835     -2.106172      4.073468
  O      -0.150449     -2.603294      5.151035
  O      -0.779797     -0.872938      3.792719
  C      -1.100736     -0.040880      4.935754
  H       0.640580     -4.265989      1.847843
  H      -0.314390     -4.681380      3.314183
  H       1.356395     -4.060016      3.483507
  H      -0.211548      0.092329      5.555559
  H      -1.897927     -0.507295      5.518685
  H      -1.427773      0.907779      4.512692
25
Coordinates from ORCA-job DMC_m2_shell2_reduced_opt_relaxed E -694.619890568140
  C      -2.706636      0.060239     -0.373783
  O      -1.544810     -0.119306      0.424460
  C      -0.340238      0.646840     -0.165559
  O      -0.154153      0.611343     -1.371886
  O       0.689755      0.011052      0.771062
  C       2.017615      0.376756      0.429363
  H      -3.514315     -0.522535      0.079602
  H      -2.525472     -0.281702     -1.398771
  H      -2.993439      1.120467     -0.401122
  H       2.156525      1.462640      0.525366
  H       2.244359      0.084104     -0.602459
  H       2.691773     -0.138645      1.120177
  Li     -0.554514     -0.941198      1.709055
  C       0.478757     -3.994471      2.887106
  O      -0.056981     -2.646189      2.865765
  C      -0.320772     -2.102933      4.075183
  O      -0.160502     -2.603326      5.151426
  O      -0.803660     -0.875050      3.796191
  C      -1.148973     -0.054727      4.940988
  H       0.683043     -4.236770      1.845145
  H      -0.261393     -4.676693      3.310839
  H       1.394903     -4.017518      3.480683
  H      -0.263495      0.104470      5.560053
  H      -1.931184     -0.546099      5.523543
  H      -1.504070      0.884690      4.519972
25
Coordinates from ORCA-job DMC_m2_shell2_reduced_opt_relaxed E -694.619925580413
  C      -2.710053      0.081452     -0.359529
  O      -1.544763     -0.106496      0.431654
  C      -0.333444      0.641823     -0.173351
  O      -0.151625      0.590237     -1.378855
  O       0.697165      0.005563      0.769114
  C       2.025554      0.356429      0.416930
  H      -3.518203     -0.499581      0.095164
  H      -2.536805     -0.257217     -1.386924
  H      -2.992090      1.143236     -0.380838
  H       2.175132      1.442004      0.500590
  H       2.246228      0.050945     -0.612543
  H       2.700503     -0.156791      1.108825
  Li     -0.547742     -0.934655      1.715794
  C       0.499738     -3.982313      2.888488
  O      -0.056642     -2.643207      2.865856
  C      -0.329010     -2.102872      4.073643
  O      -0.168105     -2.603853      5.149809
  O      -0.817934     -0.878538      3.795389
  C      -1.175300     -0.063469      4.940497
  H       0.697928     -4.226365      1.845731
  H      -0.225032     -4.674821      3.322032
  H       1.421859     -3.989021      3.473338
  H      -0.291160      0.111248      5.557330
  H      -1.947654     -0.568009      5.524813
  H      -1.546424      0.869709      4.519443
25
Coordinates from ORCA-job DMC_m2_shell2_reduced_opt_relaxed E -694.619953249708
  C      -2.709052      0.099467     -0.339308
  O      -1.538971     -0.095375      0.441098
  C      -0.325244      0.635864     -0.177854
  O      -0.148134      0.569725     -1.383166
  O       0.705371     -0.000785      0.767046
  C       2.033203      0.336578      0.401094
  H      -3.517431     -0.475221      0.123128
  H      -2.549819     -0.242607     -1.368114
  H      -2.984464      1.163159     -0.360409
  H       2.191523      1.421815      0.472994
  H       2.245336      0.018918     -0.626489
  H       2.710473     -0.173964      1.092965
  Li     -0.538388     -0.926724      1.723138
  C       0.520499     -3.969195      2.886899
  O      -0.053795     -2.638502      2.863235
  C      -0.338055     -2.101074      4.070813
  O      -0.181136     -2.603377      5.147410
  O      -0.833776     -0.879239      3.793515
  C      -1.204352     -0.071377      4.939596
  H       0.714497     -4.214001      1.843451
  H      -0.191372     -4.670508      3.327793
  H       1.446798     -3.961567      3.465345
  H      -0.323798      0.112410      5.558950
  H      -1.972212     -0.587048      5.520079
  H      -1.585580      0.858065      4.519190
25
Coordinates from ORCA-job DMC_m2_shell2_reduced_opt_relaxed E -694.619975927454
  C      -2.707400      0.100917     -0.330899
  O      -1.534246     -0.089256      0.443987
  C      -0.322445      0.637648     -0.177464
  O      -0.143113      0.566717     -1.382703
  O       0.709317      0.002616      0.769246
  C       2.036169      0.336516      0.396467
  H      -3.512395     -0.475402      0.135430
  H      -2.554103     -0.242487     -1.360490
  H      -2.986880      1.163634     -0.353882
  H       2.195242      1.422132      0.461106
  H       2.245485      0.012419     -0.629608
  H       2.715648     -0.169484      1.089631
  Li     -0.532583     -0.926225      1.725953
  C       0.522568     -3.968322      2.887317
  O      -0.056206     -2.639972      2.862202
  C      -0.344072     -2.102976      4.067957
  O      -0.189760     -2.604548      5.145467
  O      -0.838568     -0.880796      3.790379
  C      -1.210120     -0.073033      4.936092
  H       0.706655     -4.218127      1.843264
  H      -0.182023     -4.669769      3.339652
  H       1.454706     -3.954530      3.456354
  H      -0.330907      0.106853      5.558454
  H      -1.981556     -0.586854      5.513503
  H      -1.587288      0.857768      4.514988
25
Coordinates from ORCA-job DMC_m2_shell2_reduced_opt_relaxed E -694.619993101101
  C      -2.704235      0.104236     -0.319972
  O      -1.526862     -0.082176      0.448244
  C      -0.318564      0.639034     -0.178580
  O      -0.139940      0.561588     -1.384308
  O       0.714179      0.006818      0.768128
  C       2.040709      0.333518      0.386337
  H      -3.507340     -0.467259      0.155524
  H      -2.559199     -0.247081     -1.348312
  H      -2.982978      1.166999     -0.350217
  H       2.202619      1.419173      0.441799
  H       2.243668      0.001044     -0.638244
  H       2.721363     -0.168811      1.080969
  Li     -0.525408     -0.921444      1.730003
  C       0.527705     -3.964924      2.886656
  O      -0.056844     -2.638772      2.861817
  C      -0.350090     -2.104808      4.067610
  O      -0.199370     -2.606944      5.145190
  O      -0.845444     -0.882525      3.790099
  C      -1.221689     -0.076868      4.935694
  H       0.707812     -4.216006      1.842278
  H      -0.171782     -4.667933      3.344353
  H       1.462400     -3.945760      3.451367
  H      -0.345690      0.099913      5.563392
  H      -1.997013     -0.590737      5.507881
  H      -1.595886      0.855162      4.514692
25
Coordinates from ORCA-job DMC_m2_shell2_reduced_opt_relaxed E -694.620007002997
  C      -2.701544      0.107139     -0.309887
  O      -1.519881     -0.075100      0.452948
  C      -0.315258      0.641334     -0.180378
  O      -0.138505      0.556633     -1.386558
  O       0.719197      0.012956      0.766981
  C       2.045764      0.330627      0.376290
  H      -3.503492     -0.457131      0.176022
  H      -2.563300     -0.254516     -1.335607
  H      -2.977688      1.170221     -0.349481
  H       2.211808      1.416087      0.421156
  H       2.241510     -0.011455     -0.646491
  H       2.726890     -0.168259      1.072807
  Li     -0.518497     -0.915098      1.733722
  C       0.532408     -3.961284      2.885960
  O      -0.057859     -2.636892      2.861710
  C      -0.355231     -2.107006      4.067845
  O      -0.206889     -2.610666      5.144679
  O      -0.851972     -0.884714      3.790614
  C      -1.233417     -0.081190      4.936054
  H       0.710306     -4.212870      1.841413
  H      -0.162895     -4.665942      3.347242
  H       1.468748     -3.937186      3.447674
  H      -0.360796      0.093392      5.568987
  H      -2.012064     -0.595547      5.503306
  H      -1.605221      0.851907      4.515392
25
Coordinates from ORCA-job DMC_m2_shell2_reduced_opt_relaxed E -694.620019018927
  C      -2.699173      0.110457     -0.300935
  O      -1.513577     -0.068279      0.457730
  C      -0.312200      0.643373     -0.183574
  O      -0.138700      0.550374     -1.389923
  O       0.724602      0.020535      0.765548
  C       2.051142      0.327596      0.365424
  H      -3.501108     -0.443411      0.196701
  H      -2.567322     -0.264244     -1.322698
  H      -2.969769      1.174376     -0.351844
  H       2.222620      1.412581      0.398501
  H       2.239155     -0.025245     -0.655168
  H       2.732739     -0.167931      1.063750
  Li     -0.511844     -0.906901      1.737398
  C       0.537388     -3.957162      2.885326
  O      -0.058820     -2.634639      2.861733
  C      -0.360098     -2.108974      4.068846
  O      -0.213523     -2.615188      5.144409
  O      -0.858502     -0.886850      3.792685
  C      -1.245885     -0.086383      4.938432
  H       0.715883     -4.207870      1.840735
  H      -0.154842     -4.664282      3.347193
  H       1.473896     -3.928640      3.446425
  H      -0.376535      0.087427      5.576034
  H      -2.026637     -0.602752      5.500938
  H      -1.616769      0.847471      4.518732
25
Coordinates from ORCA-job DMC_m2_shell2_reduced_opt_relaxed E -694.620031045863
  C      -2.697195      0.111145     -0.294193
  O      -1.508735     -0.062528      0.462727
  C      -0.310061      0.645994     -0.186432
  O      -0.139415      0.544270     -1.392419
  O       0.729837      0.030632      0.766162
  C       2.055954      0.326943      0.356791
  H      -3.499417     -0.431978      0.214537
  H      -2.569656     -0.277534     -1.311096
  H      -2.962194      1.175684     -0.357565
  H       2.233070      1.411323      0.377086
  H       2.237169     -0.037492     -0.661034
  H       2.738405     -0.164469      1.057130
  Li     -0.505991     -0.898180      1.740186
  C       0.539605     -3.953868      2.884212
  O      -0.060963     -2.632779      2.861204
  C      -0.364398     -2.110513      4.069176
  O      -0.218601     -2.619708      5.143302
  O      -0.863879     -0.888341      3.794822
  C      -1.255275     -0.090918      4.941472
  H       0.718649     -4.203738      1.839541
  H      -0.150364     -4.663045      3.346104
  H       1.476246     -3.922187      3.444816
  H      -0.388273      0.081121      5.582748
  H      -2.038072     -0.608746      5.499758
  H      -1.624322      0.844351      4.523365
25
Coordinates from ORCA-job DMC_m2_shell2_reduced_opt_relaxed E -694.620043319959
  C      -2.695128      0.107513     -0.291356
  O      -1.505664     -0.058480      0.467029
  C      -0.309242      0.649093     -0.188483
  O      -0.139888      0.538977     -1.393521
  O       0.734076      0.043980      0.769304
  C       2.059282      0.330964      0.351435
  H      -3.497676     -0.426405      0.226378
  H      -2.568952     -0.294993     -1.302887
  H      -2.956383      1.172010     -0.367893
  H       2.240809      1.414804      0.358445
  H       2.235823     -0.045495     -0.662934
  H       2.743167     -0.154832      1.054327
  Li     -0.501338     -0.889903      1.742036
  C       0.537026     -3.952801      2.882334
  O      -0.064709     -2.632182      2.860315
  C      -0.368184     -2.111655      4.069179
  O      -0.222704     -2.623618      5.142144
  O      -0.866889     -0.888773      3.797393
  C      -1.258626     -0.093869      4.945712
  H       0.715994     -4.201788      1.837418
  H      -0.152195     -4.663018      3.343680
  H       1.473894     -3.920613      3.442508
  H      -0.392554      0.073830      5.589432
  H      -2.044146     -0.611308      5.500498
  H      -1.623670      0.844000      4.529910
25
Coordinates from ORCA-job DMC_m2_shell2_reduced_opt_relaxed E -694.620056041674
  C      -2.692948      0.097199     -0.293644
  O      -1.505174     -0.056828      0.470497
  C      -0.310423      0.653245     -0.188042
  O      -0.138994      0.535798     -1.391541
  O       0.735999      0.060799      0.776799
  C       2.060015      0.341534      0.352546
  H      -3.495223     -0.433047      0.228193
  H      -2.562795     -0.316004     -1.300292
  H      -2.955905      1.160297     -0.382121
  H       2.243246      1.425141      0.346283
  H       2.235395     -0.046908     -0.657602
  H       2.745659     -0.136419      1.059220
  Li     -0.498556     -0.883832      1.742382
  C       0.527104     -3.955260      2.878981
  O      -0.070938     -2.633405      2.858716
  C      -0.370781     -2.112418      4.068095
  O      -0.225029     -2.626201      5.140452
  O      -0.865964     -0.887749      3.799100
  C      -1.252077     -0.093466      4.949641
  H       0.702813     -4.204408      1.833499
  H      -0.162741     -4.664234      3.341401
  H       1.465529     -3.926069      3.436796
  H      -0.384892      0.065827      5.594042
  H      -2.041708     -0.606697      5.502497
  H      -1.609488      0.848545      4.536503
25
Coordinates from ORCA-job DMC_m2_shell2_reduced_opt_relaxed E -694.620070057300
  C      -2.689931      0.079098     -0.302221
  O      -1.507082     -0.057635      0.472469
  C      -0.313955      0.658649     -0.184892
  O      -0.136248      0.534927     -1.386323
  O       0.734497      0.082352      0.789180
  C       2.057330      0.360518      0.360807
  H      -3.491209     -0.454048      0.218216
  H      -2.549354     -0.341449     -1.304477
  H      -2.961365      1.139081     -0.401706
  H       2.238461      1.444340      0.340542
  H       2.235277     -0.040535     -0.644006
  H       2.744783     -0.106258      1.073331
  Li     -0.497589     -0.880532      1.741601
  C       0.508304     -3.962531      2.873804
  O      -0.080059     -2.637101      2.856548
  C      -0.372139     -2.113320      4.066667
  O      -0.226093     -2.627963      5.138927
  O      -0.859744     -0.885255      3.800492
  C      -1.233427     -0.088946      4.953524
  H       0.677349     -4.212697      1.827407
  H      -0.184206     -4.667313      3.338866
  H       1.449517     -3.940799      3.427417
  H      -0.363079      0.057360      5.596763
  H      -2.028854     -0.593173      5.506386
  H      -1.579062      0.858668      4.543078
25
Coordinates from ORCA-job DMC_m2_shell2_reduced_opt_relaxed E -694.620086287370
  C      -2.685697      0.052001     -0.317237
  O      -1.511653     -0.060595      0.473586
  C      -0.320230      0.666157     -0.177936
  O      -0.130934      0.536449     -1.376666
  O       0.728508      0.110126      0.808334
  C       2.050461      0.388970      0.377989
  H      -3.484653     -0.492278      0.195310
  H      -2.526221     -0.371519     -1.315548
  H      -2.974140      1.106536     -0.426613
  H       2.225291      1.473369      0.341074
  H       2.234552     -0.026912     -0.619661
  H       2.739311     -0.061882      1.099494
  Li     -0.498096     -0.880395      1.739672
  C       0.478980     -3.975087      2.866452
  O      -0.093128     -2.643365      2.853321
  C      -0.371885     -2.114804      4.064284
  O      -0.225251     -2.629574      5.136657
  O      -0.847072     -0.881515      3.800551
  C      -1.200692     -0.079700      4.955848
  H       0.636318     -4.227936      1.818832
  H      -0.217837     -4.671814      3.337452
  H       1.424892     -3.965174      3.412549
  H      -0.325084      0.049160      5.595650
  H      -2.003333     -0.569353      5.511444
  H      -1.530286      0.874575      4.547560
25
Coordinates from ORCA-job DMC_m2_shell2_reduced_opt_relaxed E -694.620102669096
  C      -2.680488      0.022232     -0.336016
  O      -1.517690     -0.064772      0.473299
  C      -0.327984      0.673832     -0.169101
  O      -0.124438      0.538921     -1.365050
  O       0.718350      0.139017      0.829993
  C       2.040231      0.421124      0.399941
  H      -3.476365     -0.537723      0.164484
  H      -2.497492     -0.400230     -1.330884
  H      -2.989857      1.070013     -0.453234
  H       2.205587      1.506160      0.345593
  H       2.232451     -0.010125     -0.589516
  H       2.729182     -0.011260      1.132576
  Li     -0.499562     -0.883015      1.737752
  C       0.445323     -3.990524      2.858460
  O      -0.107099     -2.650914      2.849727
  C      -0.369920     -2.116900      4.062321
  O      -0.222846     -2.631682      5.134632
  O      -0.829751     -0.877462      3.800217
  C      -1.160646     -0.067976      4.956749
  H       0.590005     -4.246196      1.809691
  H      -0.257469     -4.676980      3.335802
  H       1.395762     -3.994720      3.396838
  H      -0.278957      0.044290      5.591249
  H      -1.969328     -0.541491      5.517615
  H      -1.474877      0.891817      4.549264
25
Coordinates from ORCA-job DMC_m2_shell2_reduced_opt_relaxed E -694.620116136449
  C      -2.677602      0.006217     -0.346458
  O      -1.521703     -0.065893      0.473628
  C      -0.332325      0.677745     -0.163549
  O      -0.119730      0.537451     -1.357888
  O       0.710599      0.155654      0.843368
  C       2.033577      0.438784      0.414517
  H      -3.470981     -0.564915      0.145463
  H      -2.479206     -0.413170     -1.339719
  H      -3.001008      1.049472     -0.466416
  H       2.192253      1.523872      0.346364
  H       2.231057     -0.004809     -0.568279
  H       2.720718      0.020177      1.156658
  Li     -0.499388     -0.884942      1.737537
  C       0.425878     -3.999223      2.853208
  O      -0.115239     -2.654675      2.846858
  C      -0.368003     -2.118614      4.060790
  O      -0.220736     -2.634060      5.132471
  O      -0.818022     -0.875481      3.799020
  C      -1.136559     -0.060808      4.955410
  H       0.563102     -4.256571      1.803873
  H      -0.280420     -4.679116      3.334707
  H       1.378864     -4.011058      3.386898
  H      -0.250910      0.045918      5.585290
  H      -1.946113     -0.526766      5.521359
  H      -1.445981      0.900249      4.547289
25
Coordinates from ORCA-job DMC_m2_shell2_reduced_opt_relaxed E -694.620125616948
  C      -2.676981      0.000597     -0.350907
  O      -1.522888     -0.065949      0.472504
  C      -0.333952      0.678523     -0.162691
  O      -0.118056      0.534891     -1.356690
  O       0.705939      0.161869      0.847465
  C       2.030536      0.446317      0.421792
  H      -3.469802     -0.572779      0.139333
  H      -2.473040     -0.419178     -1.342807
  H      -3.004567      1.042303     -0.472781
  H       2.184526      1.531401      0.345669
  H       2.232092     -0.004413     -0.556803
  H       2.714853      0.036038      1.170959
  Li     -0.498639     -0.886209      1.737923
  C       0.417968     -4.003709      2.850840
  O      -0.117333     -2.655997      2.844916
  C      -0.366223     -2.119938      4.060485
  O      -0.219446     -2.637088      5.131064
  O      -0.811110     -0.874759      3.798818
  C      -1.125996     -0.057390      4.954513
  H       0.554750     -4.261053      1.801487
  H      -0.292005     -4.680013      3.331770
  H       1.370520     -4.019427      3.385003
  H      -0.238382      0.050871      5.581332
  H      -1.933794     -0.522169      5.523912
  H      -1.436849      0.902700      4.545292
25
Coordinates from ORCA-job DMC_m2_shell2_reduced_opt_relaxed E -694.620130451694
  C      -2.676065     -0.002819     -0.350808
  O      -1.521872     -0.063659      0.473586
  C      -0.333614      0.679868     -0.163937
  O      -0.116496      0.530399     -1.357243
  O       0.705251      0.169237      0.849943
  C       2.030232      0.451265      0.423259
  H      -3.469192     -0.572240      0.143455
  H      -2.471063     -0.429147     -1.339592
  H      -3.003065      1.038245     -0.479284
  H       2.182670      1.535733      0.336677
  H       2.233005     -0.008455     -0.550912
  H       2.713747      0.049016      1.177402
  Li     -0.495692     -0.883719      1.738796
  C       0.413558     -4.005043      2.849251
  O      -0.119273     -2.655814      2.843030
  C      -0.366817     -2.121178      4.059424
  O      -0.220746     -2.640844      5.128729
  O      -0.809044     -0.874819      3.799094
  C      -1.122927     -0.057469      4.955231
  H       0.550403     -4.262577      1.799970
  H      -0.298131     -4.679659      3.329835
  H       1.365863     -4.022146      3.383679
  H      -0.234505      0.051287      5.580831
  H      -1.929812     -0.522635      5.525556
  H      -1.434294      0.902608      4.546427
25
Coordinates from ORCA-job DMC_m2_shell2_reduced_opt_relaxed E -694.620134607071
  C      -2.675348     -0.009584     -0.354045
  O      -1.521756     -0.064114      0.472368
  C      -0.334689      0.681034     -0.165571
  O      -0.115923      0.528729     -1.358273
  O       0.702881      0.176289      0.851705
  C       2.028452      0.460070      0.427964
  H      -3.469153     -0.574233      0.144474
  H      -2.468909     -0.443540     -1.339112
  H      -3.001023      1.030852     -0.490363
  H       2.177329      1.544405      0.334039
  H       2.236543     -0.005603     -0.542305
  H       2.710575      0.065579      1.187417
  Li     -0.494488     -0.882966      1.738170
  C       0.405381     -4.008759      2.847669
  O      -0.120676     -2.656540      2.840962
  C      -0.365824     -2.121691      4.058354
  O      -0.220569     -2.643519      5.126746
  O      -0.804200     -0.873747      3.799693
  C      -1.114686     -0.056118      4.956642
  H       0.543659     -4.266146      1.798527
  H      -0.311160     -4.679959      3.325706
  H       1.356244     -4.030776      3.384369
  H      -0.224620      0.051512      5.580138
  H      -1.920949     -0.520369      5.528515
  H      -1.424972      0.904631      4.548610
25
Coordinates from ORCA-job DMC_m2_shell2_reduced_opt_relaxed E -694.620138091116
  C      -2.674531     -0.013704     -0.353236
  O      -1.520730     -0.061960      0.473590
  C      -0.334019      0.681623     -0.168515
  O      -0.114812      0.522955     -1.360196
  O       0.703256      0.183361      0.852255
  C       2.028978      0.465327      0.428625
  H      -3.468878     -0.572101      0.151355
  H      -2.469130     -0.457065     -1.334315
  H      -2.998053      1.026117     -0.498915
  H       2.176647      1.548974      0.325081
  H       2.240436     -0.008455     -0.537075
  H       2.710598      0.078786      1.192646
  Li     -0.491264     -0.879162      1.738686
  C       0.400512     -4.008930      2.845694
  O      -0.121921     -2.655331      2.838951
  C      -0.366761     -2.121672      4.056599
  O      -0.222651     -2.645551      5.124291
  O      -0.803096     -0.872953      3.800254
  C      -1.112301     -0.057344      4.958974
  H       0.540074     -4.265822      1.796574
  H      -0.318799     -4.678645      3.321637
  H       1.350317     -4.033909      3.384120
  H      -0.221167      0.049907      5.581064
  H      -1.917317     -0.523023      5.531371
  H      -1.423266      0.904016      4.552885
25
Coordinates from ORCA-job DMC_m2_shell2_reduced_opt_relaxed E -694.620140977487
  C      -2.672663     -0.021970     -0.355173
  O      -1.520549     -0.061372      0.474274
  C      -0.334663      0.682559     -0.170324
  O      -0.113509      0.518475     -1.360748
  O       0.702067      0.192173      0.854372
  C       2.027849      0.474554      0.432097
  H      -3.467312     -0.576302      0.153410
  H      -2.465750     -0.474292     -1.331915
  H      -2.996649      1.016172     -0.511337
  H       2.172901      1.557770      0.320447
  H       2.244270     -0.005961     -0.529241
  H       2.708914      0.096111      1.200709
  Li     -0.489059     -0.876317      1.738935
  C       0.391325     -4.010987      2.842428
  O      -0.123890     -2.654833      2.836940
  C      -0.367152     -2.121393      4.055056
  O      -0.224634     -2.646852      5.122384
  O      -0.799560     -0.870923      3.801119
  C      -1.104340     -0.056597      4.961891
  H       0.531329     -4.266973      1.793128
  H      -0.332348     -4.677814      3.315886
  H       1.339978     -4.042103      3.382587
  H      -0.211587      0.047364      5.582240
  H      -1.909238     -0.521316      5.535201
  H      -1.413610      0.906266      4.558034
25
Coordinates from ORCA-job DMC_m2_shell2_reduced_opt_relaxed E -694.620143050333
  C      -2.671903     -0.023620     -0.352424
  O      -1.519391     -0.059245      0.476143
  C      -0.333465      0.681339     -0.173103
  O      -0.113129      0.511860     -1.362833
  O       0.703669      0.194852      0.852752
  C       2.029626      0.475759      0.430513
  H      -3.466735     -0.574097      0.160132
  H      -2.467146     -0.482357     -1.326738
  H      -2.995122      1.013744     -0.515256
  H       2.174767      1.558596      0.315196
  H       2.247415     -0.008158     -0.528840
  H       2.710335      0.100245      1.200921
  Li     -0.486232     -0.872462      1.740570
  C       0.389952     -4.008898      2.839805
  O      -0.123304     -2.652211      2.836075
  C      -0.368485     -2.120585      4.054322
  O      -0.228179     -2.647328      5.121395
  O      -0.800055     -0.869562      3.802066
  C      -1.105440     -0.057797      4.964452
  H       0.532056     -4.262844      1.790290
  H      -0.335758     -4.675807      3.310108
  H       1.337158     -4.042784      3.382373
  H      -0.212490      0.046627      5.584445
  H      -1.909047     -0.524947      5.537596
  H      -1.416975      0.905116      4.562441
25
Coordinates from ORCA-job DMC_m2_shell2_reduced_opt_relaxed E -694.620145138938
  C      -2.669536     -0.029662     -0.351489
  O      -1.518345     -0.057413      0.478642
  C      -0.333070      0.681137     -0.174642
  O      -0.111959      0.505025     -1.363211
  O       0.704474      0.201654      0.854024
  C       2.030205      0.481300      0.430350
  H      -3.464470     -0.577461      0.163891
  H      -2.463688     -0.495828     -1.322155
  H      -2.994398      1.005716     -0.523414
  H       2.174698      1.563697      0.310215
  H       2.248416     -0.006930     -0.526730
  H       2.711207      0.109769      1.202442
  Li     -0.483169     -0.868099      1.742858
  C       0.384236     -4.008262      2.835690
  O      -0.124286     -2.649923      2.835085
  C      -0.370211     -2.120375      4.053961
  O      -0.233088     -2.649330      5.120342
  O      -0.798428     -0.867509      3.803779
  C      -1.101991     -0.057446      4.967849
  H       0.527535     -4.259668      1.785745
  H      -0.344638     -4.674095      3.302690
  H       1.330084     -4.047282      3.380312
  H      -0.208605      0.044654      5.587570
  H      -1.905730     -0.524634      5.540800
  H      -1.413119      0.906408      4.567796
25
Coordinates from ORCA-job DMC_m2_shell2_reduced_opt_relaxed E -694.620147807593
  C      -2.667926     -0.033004     -0.347661
  O      -1.516318     -0.055032      0.481609
  C      -0.331463      0.678771     -0.177811
  O      -0.111881      0.495500     -1.365593
  O       0.707283      0.204430      0.851945
  C       2.032963      0.483049      0.427111
  H      -3.463042     -0.576602      0.172012
  H      -2.463633     -0.506960     -1.314962
  H      -2.992901      1.000919     -0.527891
  H       2.177969      1.565334      0.306622
  H       2.249807     -0.005899     -0.529890
  H       2.714168      0.111358      1.198934
  Li     -0.479286     -0.862356      1.746496
  C       0.382289     -4.004914      2.831281
  O      -0.122749     -2.645290      2.834585
  C      -0.372427     -2.119615      4.054343
  O      -0.240395     -2.651974      5.119561
  O      -0.798016     -0.865162      3.806365
  C      -1.103398     -0.057958      4.971985
  H       0.530324     -4.251760      1.780941
  H      -0.350650     -4.670996      3.291556
  H       1.325052     -4.049044      3.380839
  H      -0.210418      0.044651      5.592184
  H      -1.906224     -0.527870      5.544010
  H      -1.417006      0.905861      4.573825
25
Coordinates from ORCA-job DMC_m2_shell2_reduced_opt_relaxed E -694.620151328450
  C      -2.664727     -0.041255     -0.344642
  O      -1.513752     -0.052518      0.485578
  C      -0.330012      0.676602     -0.181022
  O      -0.111214      0.483443     -1.367426
  O       0.710490      0.211177      0.851578
  C       2.035465      0.489341      0.423804
  H      -3.459896     -0.579962      0.180124
  H      -2.459412     -0.525898     -1.306439
  H      -2.991158      0.990015     -0.536917
  H       2.180296      1.571542      0.302360
  H       2.249583     -0.000589     -0.533274
  H       2.717952      0.118010      1.194621
  Li     -0.474002     -0.854435      1.751584
  C       0.375864     -4.001831      2.825089
  O      -0.122022     -2.639485      2.833787
  C      -0.375623     -2.119221      4.055046
  O      -0.251148     -2.657381      5.118085
  O      -0.795295     -0.861756      3.810543
  C      -1.101379     -0.057652      4.978180
  H       0.530051     -4.242596      1.774255
  H      -0.363815     -4.666899      3.275948
  H       1.314317     -4.054496      3.381195
  H      -0.208800      0.043141      5.599247
  H      -1.904547     -0.529006      5.548551
  H      -1.415094      0.907149      4.582546
25
Coordinates from ORCA-job DMC_m2_shell2_reduced_opt_relaxed E -694.620154947369
  C      -2.662342     -0.048486     -0.341509
  O      -1.510926     -0.051053      0.488534
  C      -0.328255      0.673163     -0.184821
  O      -0.111513      0.472088     -1.370366
  O       0.714430      0.213935      0.849029
  C       2.038453      0.494122      0.419315
  H      -3.457189     -0.582338      0.188678
  H      -2.456796     -0.542091     -1.298614
  H      -2.989270      0.980815     -0.543117
  H       2.182821      1.576836      0.301720
  H       2.249577      0.007658     -0.540153
  H       2.722633      0.119809      1.187136
  Li     -0.469083     -0.846813      1.756779
  C       0.370952     -3.997973      2.819833
  O      -0.119449     -2.632774      2.833393
  C      -0.378439     -2.118343      4.056216
  O      -0.262477     -2.662999      5.116779
  O      -0.792175     -0.858120      3.815318
  C      -1.100946     -0.057598      4.984738
  H       0.533863     -4.232079      1.768821
  H      -0.376768     -4.661927      3.258867
  H       1.303713     -4.059577      3.384461
  H      -0.209417      0.042001      5.607538
  H      -1.904812     -0.531037      5.552366
  H      -1.414461      0.908218      4.591457
25
Coordinates from ORCA-job DMC_m2_shell2_reduced_opt_relaxed E -694.620158056197
  C      -2.660102     -0.056109     -0.340409
  O      -1.508735     -0.050624      0.490338
  C      -0.327081      0.670611     -0.187621
  O      -0.111699      0.463976     -1.372530
  O       0.717533      0.216115      0.847277
  C       2.040168      0.499830      0.415798
  H      -3.454020     -0.587272      0.193762
  H      -2.452727     -0.555754     -1.293862
  H      -2.988306      0.971468     -0.548556
  H       2.182865      1.583168      0.301523
  H       2.249452      0.016882     -0.545838
  H       2.726626      0.123768      1.180704
  Li     -0.465060     -0.840635      1.760863
  C       0.364983     -3.995400      2.816102
  O      -0.117483     -2.627300      2.833202
  C      -0.380496     -2.117563      4.057121
  O      -0.271793     -2.667920      5.115502
  O      -0.788238     -0.854822      3.819673
  C      -1.098814     -0.057515      4.990791
  H       0.535025     -4.224515      1.765101
  H      -0.390266     -4.657294      3.245192
  H       1.292884     -4.065383      3.387654
  H      -0.208524      0.038796      5.615939
  H      -1.904921     -0.531341      5.554854
  H      -1.409150      0.910272      4.599821
25
Coordinates from ORCA-job DMC_m2_shell2_reduced_opt_relaxed E -694.620160660722
  C      -2.658723     -0.060842     -0.340007
  O      -1.506928     -0.050869      0.490715
  C      -0.325977      0.668197     -0.190024
  O      -0.112260      0.459046     -1.374850
  O       0.720035      0.215200      0.844624
  C       2.041292      0.503200      0.412271
  H      -3.451335     -0.591087      0.196872
  H      -2.450278     -0.563013     -1.291792
  H      -2.987916      0.965882     -0.550740
  H       2.181617      1.587201      0.300886
  H       2.250274      0.023611     -0.551119
  H       2.729933      0.126383      1.174853
  Li     -0.462241     -0.836246      1.763763
  C       0.361254     -3.993313      2.814145
  O      -0.115118     -2.623099      2.833468
  C      -0.381443     -2.116490      4.058082
  O      -0.278061     -2.670748      5.115053
  O      -0.784986     -0.852135      3.823404
  C      -1.098134     -0.058026      4.995951
  H       0.536783     -4.219021      1.763275
  H      -0.399762     -4.653425      3.235697
  H       1.285416     -4.069545      3.390892
  H      -0.209677      0.034655      5.624310
  H      -1.907188     -0.531970      5.555620
  H      -1.404456      0.911890      4.607050
25
Coordinates from ORCA-job DMC_m2_shell2_reduced_opt_relaxed E -694.620163333508
  C      -2.657043     -0.066324     -0.340596
  O      -1.505435     -0.051291      0.490740
  C      -0.325283      0.666571     -0.191960
  O      -0.112676      0.455552     -1.376706
  O       0.721905      0.215091      0.842599
  C       2.041738      0.507653      0.409589
  H      -3.447869     -0.597468      0.197898
  H      -2.446403     -0.569729     -1.291181
  H      -2.988644      0.959217     -0.553289
  H       2.178184      1.592092      0.297231
  H       2.252442      0.028294     -0.553562
  H       2.732463      0.133994      1.171877
  Li     -0.459344     -0.832111      1.766062
  C       0.355998     -3.991990      2.812332
  O      -0.113615     -2.619547      2.833873
  C      -0.381715     -2.115432      4.058749
  O      -0.282747     -2.672823      5.114641
  O      -0.780842     -0.849318      3.826895
  C      -1.095916     -0.058595      5.001135
  H       0.534644     -4.215316      1.761447
  H      -0.410109     -4.649599      3.228549
  H       1.277564     -4.074530      3.392338
  H      -0.209830      0.027982      5.633739
  H      -1.909487     -0.531272      5.555258
  H      -1.395858      0.914338      4.614743
25
Coordinates from ORCA-job DMC_m2_shell2_reduced_opt_relaxed E -694.620166414077
  C      -2.654364     -0.071958     -0.339123
  O      -1.502223     -0.050357      0.491518
  C      -0.323408      0.663671     -0.195843
  O      -0.113191      0.447870     -1.380187
  O       0.725397      0.215594      0.838820
  C       2.043500      0.511901      0.403663
  H      -3.443181     -0.602358      0.202958
  H      -2.443005     -0.579328     -1.287426
  H      -2.988319      0.951811     -0.556572
  H       2.174959      1.596366      0.285548
  H       2.256438      0.028719     -0.557108
  H       2.736720      0.145530      1.167259
  Li     -0.454021     -0.824411      1.770295
  C       0.350821     -3.988791      2.808632
  O      -0.111475     -2.614051      2.834448
  C      -0.382730     -2.113812      4.060156
  O      -0.290162     -2.675551      5.114459
  O      -0.776335     -0.845344      3.832618
  C      -1.096101     -0.060455      5.009432
  H       0.533523     -4.208028      1.757572
  H      -0.421031     -4.644195      3.217685
  H       1.268997     -4.079162      3.392827
  H      -0.214247      0.018142      5.648968
  H      -1.915821     -0.532680      5.554790
  H      -1.388618      0.916316      4.627011
25
Coordinates from ORCA-job DMC_m2_shell2_reduced_opt_relaxed E -694.620169594224
  C      -2.650471     -0.081952     -0.337563
  O      -1.498687     -0.049181      0.493122
  C      -0.321848      0.661112     -0.200169
  O      -0.113267      0.437975     -1.383469
  O       0.729011      0.220211      0.836000
  C       2.045534      0.520027      0.398678
  H      -3.437048     -0.611597      0.208513
  H      -2.436938     -0.595862     -1.281894
  H      -2.988842      0.938495     -0.563552
  H       2.170077      1.603938      0.268710
  H       2.262884      0.027843     -0.556553
  H       2.740654      0.166655      1.166691
  Li     -0.446791     -0.814362      1.775057
  C       0.341123     -3.985539      2.802575
  O      -0.110763     -2.607546      2.834692
  C      -0.383989     -2.112334      4.061168
  O      -0.299325     -2.679702      5.113192
  O      -0.769130     -0.840070      3.839125
  C      -1.092920     -0.061838      5.019216
  H       0.526795     -4.199930      1.751050
  H      -0.437581     -4.637378      3.204325
  H       1.255848     -4.086572      3.390426
  H      -0.216231      0.004987      5.667103
  H      -1.920852     -0.531920      5.553959
  H      -1.375120      0.919980      4.641998
25
Coordinates from ORCA-job DMC_m2_shell2_reduced_opt_relaxed E -694.620172180082
  C      -2.647447     -0.087958     -0.333774
  O      -1.494767     -0.047268      0.494974
  C      -0.319710      0.658106     -0.204833
  O      -0.113148      0.427130     -1.386953
  O       0.732991      0.224253      0.832817
  C       2.048583      0.524253      0.392628
  H      -3.432982     -0.614315      0.217046
  H      -2.435001     -0.609463     -1.274239
  H      -2.987664      0.929950     -0.568211
  H       2.168927      1.607179      0.251387
  H       2.268059      0.022891     -0.557333
  H       2.744734      0.181598      1.164537
  Li     -0.440117     -0.804526      1.779911
  C       0.336220     -3.981393      2.796518
  O      -0.110151     -2.601752      2.834785
  C      -0.386094     -2.111169      4.062669
  O      -0.308635     -2.683637      5.112416
  O      -0.764498     -0.835859      3.845273
  C      -1.093857     -0.063569      5.027753
  H       0.524759     -4.190730      1.744528
  H      -0.446541     -4.632179      3.192071
  H       1.248161     -4.089566      3.387414
  H      -0.222193     -0.005023      5.683121
  H      -1.928029     -0.533198      5.553191
  H      -1.369480      0.921683      4.654703
25
Coordinates from ORCA-job DMC_m2_shell2_reduced_opt_relaxed E -694.620174234035
  C      -2.644815     -0.095736     -0.330978
  O      -1.492055     -0.046175      0.496806
  C      -0.318557      0.656274     -0.208479
  O      -0.112191      0.417540     -1.389046
  O       0.735853      0.231106      0.831799
  C       2.051088      0.530442      0.389664
  H      -3.429717     -0.619047      0.223743
  H      -2.432291     -0.624852     -1.267217
  H      -2.987272      0.919364     -0.574123
  H       2.168050      1.612164      0.237236
  H       2.272786      0.019727     -0.554787
  H       2.747242      0.197941      1.165967
  Li     -0.434281     -0.796059      1.783398
  C       0.329541     -3.978474      2.790665
  O      -0.111486     -2.597198      2.834280
  C      -0.388383     -2.110831      4.063215
  O      -0.317568     -2.688277      5.110572
  O      -0.759042     -0.832182      3.849825
  C      -1.091580     -0.064136      5.034232
  H       0.519217     -4.183851      1.738140
  H      -0.456393     -4.627914      3.182120
  H       1.239750     -4.092882      3.383054
  H      -0.223886     -0.013842      5.695471
  H      -1.931491     -0.531938      5.552198
  H      -1.360396      0.924273      4.664644
25
Coordinates from ORCA-job DMC_m2_shell2_reduced_opt_relaxed E -694.620175602408
  C      -2.643090     -0.101087     -0.328702
  O      -1.489869     -0.045917      0.497987
  C      -0.317573      0.654243     -0.211399
  O      -0.111259      0.409606     -1.390711
  O       0.738080      0.235679      0.830869
  C       2.052954      0.534530      0.387164
  H      -3.427726     -0.621239      0.229403
  H      -2.431159     -0.635929     -1.261824
  H      -2.986151      0.912368     -0.577786
  H       2.168461      1.615639      0.229475
  H       2.274934      0.019382     -0.554814
  H       2.749351      0.206589      1.165158
  Li     -0.430356     -0.789930      1.786262
  C       0.325633     -3.976064      2.786457
  O      -0.112222     -2.593823      2.833603
  C      -0.390620     -2.110468      4.063798
  O      -0.325471     -2.691951      5.109191
  O      -0.755195     -0.829414      3.853359
  C      -1.090577     -0.064438      5.038979
  H       0.516837     -4.178448      1.733640
  H      -0.462487     -4.624928      3.174427
  H       1.234406     -4.094413      3.380272
  H      -0.225780     -0.019584      5.704382
  H      -1.934497     -0.531125      5.551445
  H      -1.354503      0.926160      4.671764
25
Coordinates from ORCA-job DMC_m2_shell2_reduced_opt_relaxed E -694.620177101045
  C      -2.641193     -0.108837     -0.327629
  O      -1.488102     -0.046798      0.498790
  C      -0.317059      0.652376     -0.214178
  O      -0.109392      0.401622     -1.391927
  O       0.739678      0.242239      0.830890
  C       2.054153      0.541247      0.386109
  H      -3.425197     -0.626583      0.233603
  H      -2.428480     -0.648973     -1.257505
  H      -2.985629      0.902723     -0.582482
  H       2.167911      1.621802      0.223428
  H       2.277025      0.022048     -0.553442
  H       2.750707      0.217934      1.165877
  Li     -0.426413     -0.784044      1.788710
  C       0.319223     -3.974404      2.782341
  O      -0.114095     -2.590786      2.832520
  C      -0.393071     -2.110279      4.063814
  O      -0.334296     -2.696089      5.107113
  O      -0.749501     -0.826311      3.856635
  C      -1.086725     -0.064250      5.043622
  H       0.510684     -4.174638      1.729146
  H      -0.471295     -4.621725      3.167957
  H       1.227193     -4.097081      3.376506
  H      -0.224977     -0.026791      5.713438
  H      -1.935813     -0.528266      5.549949
  H      -1.343214      0.929303      4.679116
