25
Coordinates from ORCA-job DMC_m2_shell2_oxidized_opt_relaxed E -693.998149991193
  C          -2.68230915214314      0.25222156736821     -0.39920453513332
  O          -1.36924540361329     -0.01444225691418      0.27661487309527
  C          -0.27610013518269      0.43511725632699     -0.31661128908354
  O          -0.24827179661304      1.05735046592529     -1.37191768630214
  O           0.78211841755367      0.10817062593949      0.40590535031128
  C           2.12635124932451      0.54040312516760     -0.10214326057459
  H          -3.41933416004436     -0.18937322719015      0.26732991668102
  H          -2.67044483173434     -0.23944114802715     -1.37213189927163
  H          -2.80853962568798      1.33169368417847     -0.48520608263245
  H           2.14199336853022      1.62985383759344     -0.13867683753941
  H           2.27971444704061      0.09378799047555     -1.08483317097050
  H           2.82654013270444      0.15186468842269      0.63350125304818
  Li         -0.33768864775322     -0.91092041081328      1.93846413870139
  C           0.55338594792865     -4.11971453422324      3.05772411975549
  O           0.04605775232717     -2.70742052931507      3.06491236623097
  C          -0.39695871704657     -2.22475101942344      4.21353342616757
  O          -0.42125640422223     -2.83537581883527      5.27581764327080
  O          -0.80955000433992     -0.98063875070150      4.03801193079649
  C          -1.34661130589976     -0.25507324534012      5.23699742089291
  H           0.86931847356862     -4.28377727295675      2.03023635995363
  H          -0.26930804819176     -4.77815174742327      3.33720482328451
  H           1.38862025551171     -4.18606887917964      3.75531167244651
  H          -0.55002863863925     -0.18601163690262      5.97798260952778
  H          -2.20952743821070     -0.80676574042342      5.61061817104115
  H          -1.62680373516736      0.72290197627140      4.85295868630261
