25
Coordinates from ORCA-job DMC_m2_shell2_reduced_opt_relaxed E -694.620177101045
  C          -2.64119253873953     -0.10883667772876     -0.32762871297571
  O          -1.48810248706600     -0.04679845346330      0.49878998002658
  C          -0.31705935929298      0.65237578145399     -0.21417767175324
  O          -0.10939158551395      0.40162169338942     -1.39192696327403
  O           0.73967763097528      0.24223924521815      0.83088954129974
  C           2.05415304354217      0.54124696563971      0.38610895603528
  H          -3.42519683003402     -0.62658273545254      0.23360314795212
  H          -2.42847954731624     -0.64897310506561     -1.25750451526273
  H          -2.98562892756825      0.90272322892358     -0.58248198806644
  H           2.16791135777960      1.62180244521422      0.22342835403417
  H           2.27702503823547      0.02204823835176     -0.55344218685059
  H           2.75070728194680      0.21793375202283      1.16587725097255
  Li         -0.42641340636332     -0.78404360152331      1.78870959333835
  C           0.31922285640308     -3.97440437457793      2.78234064744073
  O          -0.11409480942114     -2.59078594976818      2.83251967559686
  C          -0.39307062724093     -2.11027939035958      4.06381368765967
  O          -0.33429589730115     -2.69608874062655      5.10711257492469
  O          -0.74950138408482     -0.82631112904686      3.85663547338945
  C          -1.08672545182928     -0.06424997798486      5.04362192256426
  H           0.51068365821530     -4.17463816654908      1.72914616294654
  H          -0.47129501107049     -4.62172457701784      3.16795684095824
  H           1.22719302529126     -4.09708117175969      3.37650563263846
  H          -0.22497675900321     -0.02679115206263      5.71343795876971
  H          -1.93581327264303     -0.52826593567758      5.54994903255266
  H          -1.34321399790057      0.92930278845075      4.67911560508252
