15
 energy: -24.979296023871 gnorm: 0.000718436608 xtb: 6.7.1pre (5071a88)
C           -1.54448876583885        0.74700336696350        0.78613958940288
C           -1.53046686804717       -0.71168398372802        0.32925132822622
O           -0.37016908092716       -1.40726156203807        0.75142271717194
C            0.74405259763262       -1.31005746072500       -0.12473774642518
O            0.58758921133624       -1.44497453894456       -1.37839767317221
O            1.55582163853459       -0.14570543734565        0.36068431637685
C            2.16246812692589        0.59367086097762       -0.64063888220557
H           -0.63622474241810        1.23101384261257        0.43917994632212
H           -2.41247896589417        1.27035057970531        0.38120453265712
H           -1.56649231072310        0.80052501513813        1.87343773095916
H           -2.39700372640696       -1.24808757340596        0.74443201628421
H           -1.57568346699404       -0.76028256871587       -0.76916140038058
H            3.26030605380532        0.53184412456354       -0.56259070944439
H            1.85153668115820        0.19738242297135       -1.61807089223703
H            1.87123359785684        1.65626289197229       -0.57215487353504
