15
Coordinates from ORCA-job EMC_anion_cpcm_5_default E -382.887559222954
  C          -2.37133273445477      0.50454996343637      0.59094754060486
  C          -1.51366460646400     -0.75164940828539      0.66562568537760
  O          -0.14284518387024     -0.45638957350651      0.91133696112666
  C           0.66834322494555     -0.41697816665217     -0.30080812531032
  O           0.20496104395302      0.13775663559689     -1.34248373378679
  O           1.92188771324484      0.07749312095494      0.25847032977204
  C           2.90897951916257      0.25649690769188     -0.74158829904246
  H          -2.05573395032768      1.12715176353881     -0.25068221231298
  H          -3.42870791929817      0.23966069604244      0.45980876006064
  H          -2.27660236643533      1.08925792348507      1.51283531117150
  H          -1.85544700975562     -1.38487341938338      1.49739731984057
  H          -1.61188864758776     -1.33309673663171     -0.26274135929924
  H           3.09284459121138     -0.67830986655829     -1.29731854064264
  H           2.62707484112356      1.03282929594199     -1.46645068561569
  H           3.83213146455264      0.55610084432900     -0.23434895194373
