10
EC_cation_cpcm_5_path11of20
C       -0.2214024170      -0.9351944586      -0.1084523050
C       -0.8743756993       0.4084255803      -0.0665388552
O        0.1720455509       1.3239755076       0.0679697119
C        1.3742999576       0.6611409292       0.2076032110
O        2.4067732458       1.1546380047       0.4711480048
O        1.1485486379      -0.6843656390       0.0005488319
H       -0.3993916597      -1.5170690605      -1.0422345011
H       -0.5395929146      -1.6381435933       0.6935060768
H       -1.4577848090       0.6726360495      -0.9792417523
H       -1.6091198925       0.5539566800       0.7556915871
