10
EC_cation_cpcm_20_path07of20
C       -0.2195050532      -0.9302838268      -0.1070521885
C       -0.8694203005       0.4068109886      -0.0639799990
O        0.1634228511       1.3192549766       0.1284575355
C        1.3836745934       0.6656507876       0.2148363518
O        2.4319085015       1.1692582999       0.3908277159
O        1.1415984890      -0.6908960898       0.0553126246
H       -0.3857356442      -1.5116778891      -1.0456794775
H       -0.5674610075      -1.6472750480       0.6761948274
H       -1.4408132974       0.6810933545      -0.9842400314
H       -1.6376691323       0.5380644466       0.7353226512
