10
EC_cation_cpcm_20_path01of20
C       -0.2195430214      -0.9303533249      -0.1065127430
C       -0.8692848031       0.4066728373      -0.0635329566
O        0.1623343069       1.3184490546       0.1365818848
C        1.3840313089       0.6655560492       0.2151562206
O        2.4336419220       1.1706944353       0.3783744648
O        1.1406748308      -0.6917726806       0.0644030823
H       -0.3820977151      -1.5099361414      -1.0468691497
H       -0.5710700348      -1.6487317936       0.6740101571
H       -1.4379695369       0.6829727810      -0.9848959405
H       -1.6407172573       0.5364487831       0.7332849901
