10
EC_cation_cpcm_20_path02of20
C       -0.2195366934      -0.9303417419      -0.1066026506
C       -0.8693073860       0.4066958625      -0.0636074637
O        0.1625157309       1.3185833750       0.1352278266
C        1.3839718563       0.6655718389       0.2151029092
O        2.4333530186       1.1704550794       0.3804500067
O        1.1408287739      -0.6916265821       0.0628880060
H       -0.3827040366      -1.5102264327      -1.0466708710
H       -0.5704685302      -1.6484890027       0.6743742688
H       -1.4384434970       0.6826595433      -0.9847866223
H       -1.6402092364       0.5367180603       0.7336246003
