10
EC_cation_cpcm_5_path14of20
C       -0.2216874316      -0.9359376699      -0.1090929792
C       -0.8751934506       0.4087324937      -0.0673640950
O        0.1757116691       1.3256714924       0.0467818816
C        1.3708228744       0.6595431673       0.2053616888
O        2.3988932355       1.1498414338       0.5003935248
O        1.1514623767      -0.6814841592      -0.0198981785
H       -0.4058760043      -1.5195562980      -1.0402306148
H       -0.5300440755      -1.6346101817       0.6992649347
H       -1.4642857057       0.6688144213      -0.9771533985
H       -1.5998034881       0.5589853002       0.7619372461
