10
EC_cation_cpcm_20_path09of20
C       -0.2194923971      -0.9302606607      -0.1072320037
C       -0.8694654663       0.4068570390      -0.0641290131
O        0.1637856992       1.3195236172       0.1257494191
C        1.3835556883       0.6656823671       0.2147297288
O        2.4313306946       1.1687795881       0.3949787995
O        1.1419063750      -0.6906038929       0.0522824720
H       -0.3869482872      -1.5122584716      -1.0452829200
H       -0.5662579983      -1.6467894662       0.6769230508
H       -1.4417612175       0.6804668790      -0.9840213950
H       -1.6366530906       0.5386030011       0.7360018715
