10
EC_cation_cpcm_20_path16of20
C       -0.2194481008      -0.9301795796      -0.1078613568
C       -0.8696235466       0.4070182154      -0.0646505625
O        0.1650556674       1.3204638594       0.1162710116
C        1.3831395202       0.6657928952       0.2143565485
O        2.4293083707       1.1671040968       0.4095075924
O        1.1429839762      -0.6895812036       0.0416769381
H       -0.3911925378      -1.5142905105      -1.0438949691
H       -0.5620474665      -1.6450899296       0.6794718328
H       -1.4450789380       0.6782742147      -0.9832561678
H       -1.6330969448       0.5404879419       0.7383791427
