10
EC_cation_cpcm_5_path05of20
C       -0.2208323878      -0.9337080360      -0.1071709567
C       -0.8727401968       0.4078117536      -0.0648883757
O        0.1647133145       1.3205835380       0.1103453724
C        1.3812541239       0.6643364528       0.2120862556
O        2.4225332664       1.1642311465       0.4126569649
O        1.1427211602      -0.6901285985       0.0414428529
H       -0.3864229705      -1.5120945855      -1.0462422736
H       -0.5586905926      -1.6452104167       0.6819883611
H       -1.4447830157       0.6802793059      -0.9834184600
H       -1.6277527015       0.5438994397       0.7432002692
