10
EC_cation_cpcm_20_path08of20
C       -0.2194987251      -0.9302722437      -0.1071420961
C       -0.8694428834       0.4068340138      -0.0640545060
O        0.1636042751       1.3193892969       0.1271034773
C        1.3836151408       0.6656665773       0.2147830403
O        2.4316195981       1.1690189440       0.3929032577
O        1.1417524320      -0.6907499913       0.0537975483
H       -0.3863419657      -1.5119681803      -1.0454811987
H       -0.5668595029      -1.6470322571       0.6765589391
H       -1.4412872575       0.6807801167      -0.9841307132
H       -1.6371611115       0.5383337238       0.7356622614
