10
EC_cation_cpcm_5_path20of20
C       -0.2222574609      -0.9374240925      -0.1103743276
C       -0.8768289531       0.4093463205      -0.0690145745
O        0.1830439054       1.3290634620       0.0044062211
C        1.3638687081       0.6563476436       0.2008786442
O        2.3831332150       1.1402482920       0.5588845647
O        1.1572898544      -0.6757211997      -0.0607921994
H       -0.4188446934      -1.5245307730      -1.0362228423
H       -0.5109463975      -1.6275433583       0.7107826505
H       -1.4772874990       0.6611711649      -0.9729766908
H       -1.5811706791       0.5690425405       0.7744285641
