10
EC_cation_cpcm_5_path01of20
C       -0.2204523683      -0.9327170876      -0.1063167244
C       -0.8716498618       0.4074025358      -0.0637880560
O        0.1598251570       1.3183222250       0.1385958127
C        1.3858902347       0.6664668020       0.2150749520
O        2.4330399468       1.1706265744       0.3736629383
O        1.1388361750      -0.6939705715       0.0687055335
H       -0.3777771777      -1.5087782688      -1.0489141220
H       -0.5714223780      -1.6499216322       0.6743098839
H       -1.4361151535       0.6853748102      -0.9862029317
H       -1.6401745742       0.5371946129       0.7348727239
