10
EC_cation_cpcm_20_path05of20
C       -0.2195177092      -0.9303069928      -0.1068723733
C       -0.8693751347       0.4067649381      -0.0638309849
O        0.1630600030       1.3189863359       0.1311656520
C        1.3837934986       0.6656192081       0.2149429747
O        2.4324863083       1.1697370117       0.3866766322
O        1.1412906029      -0.6911882867       0.0583427772
H       -0.3845230012      -1.5110973065      -1.0460760349
H       -0.5686640166      -1.6477606299       0.6754666039
H       -1.4398653772       0.6817198300      -0.9844586678
H       -1.6386851739       0.5375258921       0.7346434308
