10
EC_cation_cpcm_20_path03of20
C       -0.2195303653      -0.9303301588      -0.1066925582
C       -0.8693299689       0.4067188877      -0.0636819708
O        0.1626971549       1.3187176953       0.1338737684
C        1.3839124038       0.6655876286       0.2150495977
O        2.4330641152       1.1702157235       0.3825255485
O        1.1409827169      -0.6914804837       0.0613729297
H       -0.3833103581      -1.5105167240      -1.0464725923
H       -0.5698670257      -1.6482462117       0.6747383805
H       -1.4389174571       0.6823463055      -0.9846773041
H       -1.6397012156       0.5369873376       0.7339642105
