10
EC_cation_cpcm_5_path12of20
C       -0.2214974219      -0.9354421957      -0.1086658631
C       -0.8746482831       0.4085278848      -0.0668139352
O        0.1732675903       1.3245408359       0.0609071018
C        1.3731409298       0.6606083419       0.2068560369
O        2.4041465757       1.1530391477       0.4808965115
O        1.1495198842      -0.6834051457      -0.0062668382
H       -0.4015531079      -1.5178981397      -1.0415665390
H       -0.5364099682      -1.6369657894       0.6954256961
H       -1.4599517746       0.6713621735      -0.9785456343
H       -1.6060144244       0.5556328867       0.7577734735
