10
EC_cation_cpcm_5_path00of20
C       -0.2203573634      -0.9324693505      -0.1061031664
C       -0.8713772781       0.4073002313      -0.0635129761
O        0.1586031176       1.3177568967       0.1456584228
C        1.3870492624       0.6669993893       0.2158221261
O        2.4356666169       1.1722254314       0.3639144316
O        1.1378649287      -0.6949310648       0.0755212036
H       -0.3756157295      -1.5079491897      -1.0495820841
H       -0.5746053243      -1.6510994361       0.6723902646
H       -1.4339481880       0.6866486863      -0.9868990497
H       -1.6432800423       0.5355184062       0.7327908376
