17
Coordinates from ORCA-job TMP_cation_opt E -761.625381020986
  C           2.26813215785420     -1.10133417502401      0.22137701220514
  O           1.50933780022685     -0.01981300362337     -0.43938516681188
  P          -0.03717868451173      0.07081577963759     -0.55743628112386
  O          -0.46348461963259      0.56525799182423     -1.94902099010535
  O          -0.62482378626392     -1.27874665783130     -0.06027261028934
  C          -2.06682255349586     -1.60678278369219     -0.14965742722818
  O          -0.64341083667861      1.21526752124461      0.36573461397459
  C          -0.11267868507879      2.57659677399400      0.45956591893012
  H           3.31144160743870     -0.81848390515057      0.09850086307543
  H           2.05212314104983     -2.04434644949878     -0.28303176915296
  H           1.98780622411863     -1.14512294374470      1.27554640114232
  H          -2.12192906609408     -2.67341331099666      0.05716709654298
  H          -2.42663135199467     -1.38235896352604     -1.15579401184533
  H          -2.60095418392830     -1.03084837559970      0.60773318380327
  H           0.84555136013249      2.66122972728032     -0.05593179238813
  H          -0.00859246502956      2.77147096869279      1.53108419515985
  H          -0.86788705811258      3.24061080601378      0.03382176411133
