17
Coordinates from ORCA-job TMP_cation_opt E -761.605440839381
  C       2.355009     -1.102955     -0.118484
  O       1.447257     -0.199077      0.552587
  P      -0.005997      0.009041     -0.088523
  O      -0.055820      0.158210     -1.560468
  O      -0.820550     -1.226088      0.525334
  C      -2.138380     -1.493398     -0.007188
  O      -0.572748      1.238790      0.767386
  C      -0.207413      2.573850      0.348144
  H       3.321638     -0.981055      0.372594
  H       2.434126     -0.847909     -1.179740
  H       2.011794     -2.137088     -0.006040
  H      -2.446735     -2.451070      0.414896
  H      -2.104725     -1.553490     -1.099328
  H      -2.838417     -0.710422      0.303784
  H       0.854543      2.755180      0.546009
  H      -0.814484      3.255616      0.945651
  H      -0.419099      2.711864     -0.716613
17
Coordinates from ORCA-job TMP_cation_opt E -761.611625763637
  C       2.361168     -1.111915     -0.122556
  O       1.432377     -0.148122      0.461215
  P      -0.043208      0.020175     -0.133605
  O      -0.130867      0.147232     -1.614757
  O      -0.827527     -1.216189      0.511338
  C      -2.144517     -1.538507     -0.001400
  O      -0.619646      1.266487      0.690635
  C      -0.179101      2.619024      0.379892
  H       3.321733     -0.929036      0.357287
  H       2.442294     -0.957445     -1.202192
  H       2.027222     -2.134530      0.088872
  H      -2.419520     -2.493829      0.444387
  H      -2.122657     -1.614862     -1.097740
  H      -2.857661     -0.758372      0.299430
  H       0.870252      2.750754      0.674487
  H      -0.818586      3.285957      0.957029
  H      -0.291757      2.813175     -0.692322
17
Coordinates from ORCA-job TMP_cation_opt E -761.617025328795
  C       2.392347     -1.123254     -0.124513
  O       1.425530     -0.122075      0.359107
  P      -0.064674      0.015215     -0.170341
  O      -0.193674      0.148876     -1.665094
  O      -0.840817     -1.208982      0.484943
  C      -2.171941     -1.563182      0.005276
  O      -0.641579      1.282052      0.608375
  C      -0.159686      2.648682      0.407848
  H       3.338126     -0.856431      0.341872
  H       2.473739     -1.063443     -1.212803
  H       2.074994     -2.122100      0.187584
  H      -2.413598     -2.519239      0.464371
  H      -2.178115     -1.636852     -1.091681
  H      -2.882104     -0.786022      0.320161
  H       0.864975      2.735769      0.790126
  H      -0.844838      3.289331      0.958710
  H      -0.178687      2.881654     -0.663942
17
Coordinates from ORCA-job TMP_cation_opt E -761.621260000147
  C       2.416476     -1.128746     -0.120066
  O       1.416999     -0.087597      0.218985
  P      -0.079261      0.007815     -0.223876
  O      -0.265361      0.164232     -1.733948
  O      -0.838609     -1.202041      0.431497
  C      -2.198222     -1.579797      0.015518
  O      -0.664111      1.294878      0.488037
  C      -0.135014      2.662843      0.438858
  H       3.346481     -0.757300      0.303988
  H       2.491258     -1.206488     -1.206382
  H       2.111195     -2.071181      0.335400
  H      -2.380828     -2.549864      0.470426
  H      -2.258958     -1.628364     -1.077055
  H      -2.898200     -0.825642      0.389867
  H       0.831891      2.683689      0.950396
  H      -0.884663      3.277215      0.931147
  H      -0.011073      2.946346     -0.612793
17
Coordinates from ORCA-job TMP_cation_opt E -761.622634908245
  C       2.404237     -1.128548     -0.108448
  O       1.415757     -0.050988      0.130413
  P      -0.082175      0.016877     -0.264908
  O      -0.316471      0.192557     -1.777036
  O      -0.813445     -1.198529      0.384857
  C      -2.190112     -1.588048      0.020694
  O      -0.682828      1.305345      0.415848
  C      -0.121779      2.660402      0.451417
  H       3.337857     -0.722658      0.274734
  H       2.470728     -1.309829     -1.182349
  H       2.088604     -2.015345      0.441489
  H      -2.324398     -2.578149      0.449710
  H      -2.295354     -1.602786     -1.066871
  H      -2.882320     -0.867068      0.461828
  H       0.801379      2.635316      1.035899
  H      -0.895608      3.272949      0.908145
  H       0.085926      2.978500     -0.575420
17
Coordinates from ORCA-job TMP_cation_opt E -761.623542802831
  C       2.370694     -1.125583     -0.088943
  O       1.418870     -0.004368      0.051398
  P      -0.083450      0.037912     -0.307566
  O      -0.375008      0.236118     -1.812485
  O      -0.773821     -1.198925      0.332056
  C      -2.162542     -1.601258      0.022958
  O      -0.704262      1.319449      0.361561
  C      -0.109097      2.654769      0.455845
  H       3.318678     -0.720872      0.259458
  H       2.430570     -1.406534     -1.141560
  H       2.029532     -1.949565      0.538782
  H      -2.248915     -2.615233      0.408059
  H      -2.318906     -1.569902     -1.056764
  H      -2.842604     -0.924597      0.543183
  H       0.782396      2.588266      1.084129
  H      -0.884443      3.277340      0.897608
  H       0.152307      3.002983     -0.547719
17
Coordinates from ORCA-job TMP_cation_opt E -761.624066238854
  C       2.328461     -1.122597     -0.064154
  O       1.424682      0.040985     -0.014817
  P      -0.085260      0.063042     -0.345179
  O      -0.435419      0.290249     -1.835031
  O      -0.730553     -1.204885      0.278024
  C      -2.126854     -1.620373      0.021224
  O      -0.721906      1.334484      0.332021
  C      -0.096212      2.652231      0.453766
  H       3.292069     -0.739539      0.265955
  H       2.387167     -1.485719     -1.091609
  H       1.953374     -1.887538      0.617243
  H      -2.172504     -2.656722      0.350694
  H      -2.339129     -1.535014     -1.045664
  H      -2.788026     -0.992674      0.620553
  H       0.787013      2.555972      1.090220
  H      -0.856325      3.287236      0.905223
  H       0.179422      3.020862     -0.538468
17
Coordinates from ORCA-job TMP_cation_opt E -761.624216442378
  C       2.310158     -1.127024     -0.048719
  O       1.430531      0.057389     -0.040052
  P      -0.085225      0.074364     -0.357263
  O      -0.463335      0.326254     -1.835769
  O      -0.709660     -1.212495      0.251203
  C      -2.109269     -1.631526      0.017101
  O      -0.724627      1.340214      0.335659
  C      -0.092571      2.656903      0.449285
  H       3.279004     -0.757061      0.280909
  H       2.372740     -1.519732     -1.065047
  H       1.915782     -1.868126      0.647768
  H      -2.139488     -2.679014      0.310663
  H      -2.352767     -1.510470     -1.039930
  H      -2.757026     -1.029837      0.656676
  H       0.804974      2.558155      1.065248
  H      -0.839622      3.293121      0.920314
  H       0.160401      3.028884     -0.548044
17
Coordinates from ORCA-job TMP_cation_opt E -761.624279162294
  C       2.306620     -1.135603     -0.039774
  O       1.436211      0.058778     -0.047096
  P      -0.083527      0.077473     -0.357311
  O      -0.473119      0.349481     -1.828263
  O      -0.701291     -1.218489      0.241072
  C      -2.102639     -1.635681      0.012892
  O      -0.720201      1.340417      0.350657
  C      -0.094467      2.663636      0.444979
  H       3.275456     -0.769771      0.294258
  H       2.374172     -1.534516     -1.053323
  H       1.901484     -1.869700      0.657549
  H      -2.129006     -2.688761      0.285213
  H      -2.360485     -1.491960     -1.038224
  H      -2.743555     -1.045834      0.670489
  H       0.822865      2.573437      1.032389
  H      -0.832905      3.294362      0.936143
  H       0.124387      3.032731     -0.561649
17
Coordinates from ORCA-job TMP_cation_opt E -761.624306041872
  C       2.307786     -1.142503     -0.034705
  O       1.440234      0.055931     -0.051910
  P      -0.081681      0.077324     -0.356457
  O      -0.476051      0.362396     -1.822707
  O      -0.698145     -1.220973      0.238443
  C      -2.100377     -1.635593      0.010211
  O      -0.714940      1.338354      0.362343
  C      -0.097110      2.667598      0.442390
  H       3.274833     -0.775782      0.303348
  H       2.379556     -1.542948     -1.047306
  H       1.895541     -1.873026      0.661947
  H      -2.126122     -2.691311      0.271688
  H      -2.363298     -1.479817     -1.038042
  H      -2.738912     -1.050726      0.674631
  H       0.835493      2.584513      1.006130
  H      -0.830062      3.291124      0.950435
  H       0.093254      3.035436     -0.570439
17
Coordinates from ORCA-job TMP_cation_opt E -761.624327787666
  C       2.308490     -1.148511     -0.029210
  O       1.444017      0.053096     -0.062170
  P      -0.079838      0.077195     -0.358448
  O      -0.479009      0.374492     -1.819719
  O      -0.694792     -1.221554      0.236115
  C      -2.097766     -1.634155      0.007801
  O      -0.709500      1.335184      0.372181
  C      -0.099581      2.669607      0.440433
  H       3.273373     -0.779631      0.312561
  H       2.385139     -1.554552     -1.039174
  H       1.887788     -1.872209      0.669338
  H      -2.122439     -2.692136      0.259885
  H      -2.364373     -1.468463     -1.038013
  H      -2.734786     -1.054263      0.677951
  H       0.848585      2.591701      0.978109
  H      -0.825247      3.284355      0.969119
  H       0.059937      3.039842     -0.576759
17
Coordinates from ORCA-job TMP_cation_opt E -761.624353181912
  C       2.307825     -1.154458     -0.020807
  O       1.448556      0.050370     -0.083082
  P      -0.077731      0.077890     -0.365383
  O      -0.483682      0.390304     -1.819844
  O      -0.689527     -1.220886      0.230637
  C      -2.093738     -1.631723      0.004778
  O      -0.702947      1.330267      0.381752
  C      -0.102219      2.669754      0.438752
  H       3.270177     -0.782144      0.324329
  H       2.391476     -1.575157     -1.024166
  H       1.875376     -1.864428      0.684474
  H      -2.116089     -2.692532      0.244948
  H      -2.365956     -1.454403     -1.037624
  H      -2.727980     -1.059454      0.683881
  H       0.865742      2.596077      0.940267
  H      -0.814882      3.272434      0.998163
  H       0.015597      3.048087     -0.581075
17
Coordinates from ORCA-job TMP_cation_opt E -761.624382960864
  C       2.305395     -1.159140     -0.008566
  O       1.453721      0.047490     -0.116786
  P      -0.075602      0.079676     -0.378568
  O      -0.490021      0.410111     -1.824557
  O      -0.682293     -1.219852      0.219074
  C      -2.088756     -1.628700      0.000766
  O      -0.695390      1.323367      0.389968
  C      -0.104679      2.667274      0.437738
  H       3.265382     -0.781615      0.337608
  H       2.397722     -1.607028     -0.999333
  H       1.859314     -1.846625      0.710268
  H      -2.107759     -2.692975      0.225681
  H      -2.370494     -1.437290     -1.036512
  H      -2.716924     -1.067221      0.694129
  H       0.886638      2.597020      0.891671
  H      -0.796222      3.254730      1.038525
  H      -0.040034      3.060779     -0.581106
17
Coordinates from ORCA-job TMP_cation_opt E -761.624424457495
  C       2.301320     -1.161156      0.009504
  O       1.459678      0.042790     -0.167284
  P      -0.073554      0.082153     -0.399847
  O      -0.498221      0.435123     -1.835404
  O      -0.673088     -1.220275      0.196930
  C      -2.083705     -1.625168     -0.005178
  O      -0.685981      1.313284      0.396360
  C      -0.106449      2.661012      0.437772
  H       3.259608     -0.774705      0.350833
  H       2.402968     -1.654197     -0.958746
  H       1.841274     -1.813197      0.752136
  H      -2.099096     -2.693813      0.198803
  H      -2.381945     -1.414675     -1.034019
  H      -2.699215     -1.078596      0.710820
  H       0.911970      2.594416      0.827556
  H      -0.764586      3.228349      1.093308
  H      -0.110977      3.078653     -0.573543
17
Coordinates from ORCA-job TMP_cation_opt E -761.624504588196
  C       2.294395     -1.153345      0.053008
  O       1.468999      0.023121     -0.283888
  P      -0.071369      0.082416     -0.450594
  O      -0.516588      0.486007     -1.863130
  O      -0.658356     -1.228940      0.136189
  C      -2.080213     -1.618059     -0.020705
  O      -0.663604      1.285957      0.404227
  C      -0.104285      2.639566      0.439527
  H       3.250837     -0.738782      0.366307
  H       2.409470     -1.757128     -0.849021
  H       1.815731     -1.714530      0.855697
  H      -2.093857     -2.695264      0.133181
  H      -2.420553     -1.360721     -1.025410
  H      -2.657539     -1.105048      0.749453
  H       0.959118      2.583178      0.682769
  H      -0.673770      3.160051      1.208115
  H      -0.258417      3.111521     -0.535725
17
Coordinates from ORCA-job TMP_cation_opt E -761.624561538502
  C       2.291393     -1.142115      0.073376
  O       1.471447      0.012629     -0.335126
  P      -0.071087      0.080675     -0.475809
  O      -0.522024      0.501527     -1.881802
  O      -0.654063     -1.237567      0.099485
  C      -2.081942     -1.615590     -0.028376
  O      -0.657415      1.272858      0.398220
  C      -0.100638      2.625878      0.442652
  H       3.251246     -0.715569      0.359577
  H       2.402739     -1.802069     -0.789010
  H       1.814217     -1.653830      0.909625
  H      -2.098631     -2.695533      0.104941
  H      -2.445133     -1.337897     -1.019543
  H      -2.635418     -1.115109      0.767064
  H       0.974608      2.571556      0.626984
  H      -0.628518      3.123653      1.255282
  H      -0.310782      3.126500     -0.507541
17
Coordinates from ORCA-job TMP_cation_opt E -761.624670188842
  C       2.286959     -1.131228      0.091576
  O       1.477037      0.007858     -0.369928
  P      -0.067539      0.081234     -0.497245
  O      -0.516327      0.504587     -1.906939
  O      -0.647837     -1.250142      0.053932
  C      -2.081148     -1.613990     -0.037097
  O      -0.658632      1.264640      0.381356
  C      -0.100800      2.615632      0.449239
  H       3.261100     -0.707498      0.330118
  H       2.369492     -1.848284     -0.727391
  H       1.826280     -1.586990      0.969161
  H      -2.104797     -2.694489      0.089661
  H      -2.468728     -1.326144     -1.016362
  H      -2.608111     -1.113226      0.776348
  H       0.981709      2.563316      0.584853
  H      -0.592608      3.086165      1.300445
  H      -0.356051      3.148556     -0.471728
17
Coordinates from ORCA-job TMP_cation_opt E -761.624785190897
  C       2.287033     -1.113181      0.132748
  O       1.486579     -0.024563     -0.448495
  P      -0.061586      0.072309     -0.533336
  O      -0.512051      0.531804     -1.932206
  O      -0.644297     -1.271462     -0.013130
  C      -2.085940     -1.605791     -0.059937
  O      -0.638444      1.234116      0.382392
  C      -0.098504      2.592768      0.454457
  H       3.273945     -0.683387      0.296233
  H       2.337389     -1.926618     -0.593688
  H       1.842015     -1.454930      1.068647
  H      -2.126392     -2.688205      0.042537
  H      -2.503805     -1.287148     -1.017442
  H      -2.574783     -1.112568      0.781718
  H       0.992835      2.568957      0.432102
  H      -0.475037      3.000082      1.393153
  H      -0.498956      3.167816     -0.385751
17
Coordinates from ORCA-job TMP_cation_opt E -761.624900299243
  C       2.283574     -1.090341      0.177445
  O       1.498985     -0.057735     -0.518667
  P      -0.051851      0.061152     -0.568465
  O      -0.500747      0.553937     -1.958688
  O      -0.639228     -1.295799     -0.085241
  C      -2.087158     -1.597189     -0.089559
  O      -0.617581      1.199541      0.380819
  C      -0.096184      2.567708      0.461828
  H       3.290628     -0.682120      0.241854
  H       2.271980     -1.997078     -0.430699
  H       1.866629     -1.285229      1.167316
  H      -2.148164     -2.678802      0.008648
  H      -2.528499     -1.262880     -1.031602
  H      -2.544127     -1.094564      0.764730
  H       0.974362      2.587186      0.250341
  H      -0.315968      2.892497      1.480042
  H      -0.656651      3.179712     -0.250101
17
Coordinates from ORCA-job TMP_cation_opt E -761.625015858981
  C       2.276834     -1.115611      0.169561
  O       1.511397     -0.028984     -0.473097
  P      -0.040748      0.072048     -0.549301
  O      -0.487549      0.543823     -1.949654
  O      -0.621600     -1.288326     -0.065571
  C      -2.066536     -1.597064     -0.092774
  O      -0.622388      1.212663      0.383872
  C      -0.112580      2.589284      0.463593
  H       3.297942     -0.742380      0.213691
  H       2.212214     -2.003136     -0.462880
  H       1.877147     -1.316755      1.165215
  H      -2.124441     -2.673055      0.054699
  H      -2.486424     -1.307743     -1.059396
  H      -2.553056     -1.055279      0.720584
  H       0.954472      2.615956      0.236142
  H      -0.323770      2.903263      1.486971
  H      -0.690916      3.191295     -0.241655
17
Coordinates from ORCA-job TMP_cation_opt E -761.625127531400
  C       2.277281     -1.114404      0.178906
  O       1.513634     -0.031784     -0.477563
  P      -0.037390      0.069022     -0.552039
  O      -0.482496      0.550941     -1.947949
  O      -0.620110     -1.287086     -0.062350
  C      -2.066368     -1.592908     -0.103247
  O      -0.617299      1.203708      0.388607
  C      -0.114550      2.584039      0.464499
  H       3.302491     -0.750635      0.197207
  H       2.189803     -2.014814     -0.431733
  H       1.887914     -1.281780      1.184527
  H      -2.128705     -2.665682      0.064975
  H      -2.469802     -1.323342     -1.082146
  H      -2.564512     -1.035108      0.691786
  H       0.935570      2.623925      0.170683
  H      -0.262488      2.873668      1.506141
  H      -0.742976      3.192240     -0.190304
17
Coordinates from ORCA-job TMP_cation_opt E -761.625233648988
  C       2.272485     -1.107588      0.191727
  O       1.513156     -0.029140     -0.479998
  P      -0.035839      0.068147     -0.558259
  O      -0.477695      0.561680     -1.949613
  O      -0.618136     -1.284703     -0.063495
  C      -2.065360     -1.592657     -0.117895
  O      -0.620409      1.197243      0.385330
  C      -0.113633      2.575070      0.465987
  H       3.305192     -0.766106      0.169832
  H       2.146953     -2.026313     -0.383337
  H       1.906716     -1.226044      1.212930
  H      -2.129760     -2.660309      0.080693
  H      -2.448514     -1.354814     -1.112393
  H      -2.576032     -1.015804      0.654861
  H       0.910731      2.627743      0.094134
  H      -0.176913      2.831803      1.525361
  H      -0.792942      3.201791     -0.115862
17
Coordinates from ORCA-job TMP_cation_opt E -761.625293188415
  C       2.267359     -1.101669      0.203093
  O       1.513093     -0.025686     -0.478707
  P      -0.034957      0.069126     -0.563614
  O      -0.473255      0.571065     -1.952382
  O      -0.616590     -1.284288     -0.070839
  C      -2.064211     -1.595416     -0.130424
  O      -0.626966      1.196260      0.379001
  C      -0.112832      2.569198      0.466961
  H       3.306505     -0.785208      0.143527
  H       2.105640     -2.034978     -0.338111
  H       1.929078     -1.179016      1.237764
  H      -2.128547     -2.659035      0.089336
  H      -2.436636     -1.379836     -1.133706
  H      -2.580541     -1.006105      0.628836
  H       0.888129      2.634036      0.037566
  H      -0.109527      2.799334      1.535100
  H      -0.825744      3.212217     -0.053399
17
Coordinates from ORCA-job TMP_cation_opt E -761.625341706700
  C       2.264822     -1.099016      0.212059
  O       1.512595     -0.021547     -0.467899
  P      -0.034764      0.070885     -0.565007
  O      -0.467680      0.578436     -1.952439
  O      -0.617363     -1.282821     -0.074374
  C      -2.064416     -1.599980     -0.141935
  O      -0.636481      1.200998      0.372285
  C      -0.113471      2.567345      0.466930
  H       3.308303     -0.806574      0.115924
  H       2.068863     -2.041160     -0.301627
  H       1.958649     -1.146740      1.258652
  H      -2.126839     -2.659791      0.096241
  H      -2.426249     -1.404062     -1.152908
  H      -2.587692     -1.000389      0.604291
  H       0.865914      2.643478     -0.008425
  H      -0.054372      2.776450      1.538643
  H      -0.849820      3.224486     -0.000410
17
Coordinates from ORCA-job TMP_cation_opt E -761.625364454748
  C       2.266697     -1.101529      0.214597
  O       1.512597     -0.019897     -0.454128
  P      -0.034585      0.071790     -0.561672
  O      -0.462488      0.578598     -1.950014
  O      -0.619569     -1.281258     -0.071417
  C      -2.065354     -1.602456     -0.146765
  O      -0.641755      1.206989      0.370271
  C      -0.115860      2.570399      0.465967
  H       3.310894     -0.817774      0.101404
  H       2.056009     -2.044035     -0.292690
  H       1.977964     -1.145088      1.266451
  H      -2.126381     -2.660718      0.098270
  H      -2.421293     -1.413445     -1.161209
  H      -2.594491     -0.998471      0.591850
  H       0.854100      2.652284     -0.027698
  H      -0.035275      2.773073      1.537909
  H      -0.861210      3.231538      0.018875
17
Coordinates from ORCA-job TMP_cation_opt E -761.625373699869
  C       2.269317     -1.103952      0.215160
  O       1.512265     -0.020056     -0.444475
  P      -0.034839      0.071665     -0.558183
  O      -0.459995      0.575584     -1.947665
  O      -0.621813     -1.280392     -0.067263
  C      -2.066263     -1.603651     -0.148456
  O      -0.643334      1.211030      0.370456
  C      -0.117132      2.573780      0.464944
  H       3.313009     -0.821192      0.095044
  H       2.054074     -2.045280     -0.292618
  H       1.987844     -1.150492      1.268900
  H      -2.126471     -2.662043      0.095820
  H      -2.419937     -1.413504     -1.163630
  H      -2.599717     -0.999525      0.587085
  H       0.849090      2.657988     -0.035622
  H      -0.029940      2.775168      1.536688
  H      -0.866157      3.234871      0.023817
17
Coordinates from ORCA-job TMP_cation_opt E -761.625376495909
  C       2.270133     -1.103745      0.215815
  O       1.511403     -0.020448     -0.442031
  P      -0.035558      0.071236     -0.557257
  O      -0.460684      0.573096     -1.947076
  O      -0.623017     -1.280168     -0.065312
  C      -2.066673     -1.604314     -0.149003
  O      -0.643147      1.212167      0.370471
  C      -0.116371      2.574790      0.464427
  H       3.313413     -0.820427      0.093584
  H       2.054304     -2.045294     -0.291411
  H       1.990145     -1.150681      1.269932
  H      -2.126349     -2.663551      0.091543
  H      -2.420382     -1.410464     -1.163549
  H      -2.602022     -1.002478      0.587105
  H       0.848427      2.659161     -0.038765
  H      -0.027045      2.775166      1.536166
  H      -0.866577      3.235952      0.025361
17
Coordinates from ORCA-job TMP_cation_opt E -761.625378311653
  C       2.270121     -1.102555      0.216534
  O       1.510011     -0.020236     -0.440809
  P      -0.036681      0.070965     -0.556996
  O      -0.462667      0.570491     -1.946974
  O      -0.624093     -1.279720     -0.063265
  C      -2.066933     -1.605237     -0.149263
  O      -0.643039      1.213029      0.369888
  C      -0.114684      2.575195      0.463823
  H       3.313073     -0.818456      0.093480
  H       2.054598     -2.044511     -0.290120
  H       1.990422     -1.149539      1.270729
  H      -2.125703     -2.665760      0.085732
  H      -2.421083     -1.406370     -1.162736
  H      -2.603817     -1.007539      0.589136
  H       0.849545      2.658443     -0.040563
  H      -0.024327      2.774611      1.535636
  H      -0.864743      3.237187      0.025767
17
Coordinates from ORCA-job TMP_cation_opt E -761.625379316666
  C       2.269373     -1.100889      0.218395
  O       1.509172     -0.020198     -0.441418
  P      -0.037352      0.070784     -0.557846
  O      -0.464158      0.568938     -1.947800
  O      -0.624575     -1.279653     -0.063140
  C      -2.066943     -1.605995     -0.150159
  O      -0.642837      1.213127      0.368792
  C      -0.113122      2.574871      0.463223
  H       3.312398     -0.818144      0.092991
  H       2.052289     -2.044471     -0.284566
  H       1.990919     -1.144081      1.273101
  H      -2.124979     -2.667829      0.079062
  H      -2.422196     -1.401936     -1.162241
  H      -2.604035     -1.012740      0.591684
  H       0.848444      2.658665     -0.046088
  H      -0.017043      2.771422      1.535107
  H      -0.865356      3.238127      0.030903
17
Coordinates from ORCA-job TMP_cation_opt E -761.625379998029
  C       2.268829     -1.100337      0.218939
  O       1.508420     -0.019517     -0.440515
  P      -0.037939      0.070940     -0.557777
  O      -0.465257      0.567261     -1.948100
  O      -0.625048     -1.279034     -0.061535
  C      -2.066998     -1.606702     -0.149948
  O      -0.643228      1.214064      0.367644
  C      -0.112130      2.575285      0.462324
  H       3.311830     -0.817097      0.094449
  H       2.052502     -2.043679     -0.284771
  H       1.989835     -1.144335      1.273467
  H      -2.123883     -2.669986      0.072867
  H      -2.423167     -1.397102     -1.160573
  H      -2.604042     -1.018760      0.596132
  H       0.849589      2.657875     -0.046916
  H      -0.015691      2.771717      1.534218
  H      -0.863624      3.239405      0.030096
17
Coordinates from ORCA-job TMP_cation_opt E -761.625380549356
  C       2.268091     -1.099833      0.220844
  O       1.508639     -0.019765     -0.441272
  P      -0.037757      0.070860     -0.558524
  O      -0.465125      0.566503     -1.949130
  O      -0.624953     -1.279132     -0.062050
  C      -2.066903     -1.606935     -0.150416
  O      -0.643089      1.214133      0.366423
  C      -0.111751      2.575292      0.461276
  H       3.311360     -0.817983      0.095481
  H       2.050684     -2.044193     -0.280451
  H       1.989433     -1.140811      1.275589
  H      -2.123060     -2.671785      0.065082
  H      -2.425076     -1.390592     -1.158910
  H      -2.602376     -1.024581      0.601140
  H       0.847195      2.659370     -0.052939
  H      -0.009283      2.769526      1.533057
  H      -0.866028      3.239924      0.034801
17
Coordinates from ORCA-job TMP_cation_opt E -761.625380878964
  C       2.268005     -1.100565      0.221185
  O       1.508907     -0.019663     -0.440165
  P      -0.037531      0.070897     -0.557998
  O      -0.464430      0.565549     -1.949220
  O      -0.624965     -1.278813     -0.060914
  C      -2.066893     -1.606976     -0.149914
  O      -0.643368      1.214936      0.365742
  C      -0.112092      2.576075      0.460222
  H       3.311304     -0.818053      0.097455
  H       2.051574     -2.044129     -0.282013
  H       1.988297     -1.143263      1.275575
  H      -2.122253     -2.673044      0.059743
  H      -2.426214     -1.385286     -1.156827
  H      -2.601448     -1.029106      0.605717
  H       0.846717      2.660152     -0.054281
  H      -0.009072      2.770751      1.531878
  H      -0.866538      3.240537      0.033814
17
Coordinates from ORCA-job TMP_cation_opt E -761.625381020986
  C       2.268132     -1.101334      0.221377
  O       1.509338     -0.019813     -0.439385
  P      -0.037179      0.070816     -0.557436
  O      -0.463485      0.565258     -1.949021
  O      -0.624824     -1.278747     -0.060273
  C      -2.066823     -1.606783     -0.149657
  O      -0.643411      1.215268      0.365735
  C      -0.112679      2.576597      0.459566
  H       3.311442     -0.818484      0.098501
  H       2.052123     -2.044346     -0.283032
  H       1.987806     -1.145123      1.275546
  H      -2.121929     -2.673413      0.057167
  H      -2.426631     -1.382359     -1.155794
  H      -2.600954     -1.030848      0.607733
  H       0.845551      2.661230     -0.055932
  H      -0.008592      2.771471      1.531084
  H      -0.867887      3.240611      0.033822
