10
Coordinates from ORCA-job EC_cation_cpcm_10_default E -342.062228033411
  C          -0.21987196575908     -0.93113647149089     -0.10644541554942
  C          -0.87005770575366      0.40688276206752     -0.06357943598640
  O           0.16116530742286      1.31845523508756      0.13741696738897
  C           1.38522004145245      0.66609607145084      0.21534673005714
  O           2.43404717180520      1.17097401354057      0.37665619354272
  O           1.13996103100858     -0.69276924453824      0.06568429617010
  H          -0.38094572250120     -1.50967098262487     -1.04745793990289
  H          -0.57122238352601     -1.64921432719886      0.67411044698190
  H          -1.43740096387715      0.68375190185406     -0.98531817362722
  H          -1.64089481027199      0.53663104185231      0.73358634092513
