10
 energy: -20.117657182430 gnorm: 0.000973632012 xtb: 6.7.1pre (5071a88)
C           -0.20952318888233       -0.94407378549955       -0.09931103728069
C           -0.87346656131672        0.42284619172892       -0.05915693432347
O            0.15293588761082        1.29760480280669        0.20457091344991
C            1.36496545930676        0.65656298875758        0.21888590195663
O            2.41552257745785        1.16475820046147        0.26960837110647
O            1.11800369025724       -0.69049114493502        0.14788888344813
H           -0.33689727526598       -1.48400857608672       -1.06181640766228
H           -0.57572952779387       -1.67557493638358        0.65424336765976
H           -1.40030695151838        0.70187252870703       -0.99640347746259
H           -1.65550410985538        0.55050373044319        0.72149042910817
