13
 energy: -23.972716456896 gnorm: 0.000332822840 xtb: 6.7.1pre (5071a88)
C            1.65104581538441       -0.32507301209575        0.18067860945488
C            0.12615311804915       -0.43380163499090        0.22202074701514
C           -0.57289110796785        0.95126666914774        0.36559466268420
O           -1.36080346101289        1.08970352127457       -0.76823336289605
C           -1.62829899913530       -0.26553475322073       -1.28096293733504
O           -2.72532391928400       -0.83038035510342       -1.00802370769859
O           -0.36424143476683       -0.95197483331914       -0.97452169268448
H            2.02767391154749        0.07973503818295        1.11986130537198
H            1.94672274282424        0.32543838064708       -0.63940671214599
H            2.08313263555995       -1.31012494186445        0.01558377532653
H           -0.16367386878245       -1.08143364994245        1.07397748664169
H            0.15980857775678        1.77232251780131        0.40444128627313
H           -1.17930400017264        0.97985706348309        1.28899052999257
