13
Coordinates from ORCA-job PC_anion_cpcm_10_default E -381.716070087111
  C           1.63379609577442     -0.33947783299632      0.18526067638188
  C           0.12819193340596     -0.43235886558825      0.35028523524809
  C          -0.56514698150387      0.93583147645984      0.45603930214641
  O          -1.82929832122163      0.73709656015232     -0.15535374251312
  C          -1.56396914185930     -0.14527764536050     -1.29888134698381
  O          -2.55766941764950     -0.69632301687048     -1.83612327307789
  O          -0.49133746109073     -1.04166730696507     -0.78657550809130
  H           2.08207776574011      0.15156778869091      1.05806364767182
  H           1.88199523928021      0.24416408384694     -0.70815387699497
  H           2.07933282563038     -1.33468988523445      0.08793628471867
  H          -0.10882564753377     -1.03888997165426      1.24083546439971
  H           0.01978775784627      1.70033585373322     -0.08527413177772
  H          -0.70893463681851      1.25968877178611      1.49194125887223
