13
 energy: -23.972717740610 gnorm: 0.000409010520 xtb: 6.7.1pre (5071a88)
C            1.65107812459718       -0.32450708853850        0.17921714977337
C            0.12628016190440       -0.43464208163636        0.22474660237143
C           -0.57339456154683        0.95027175270779        0.36600090636518
O           -1.35474232903444        1.08988240918306       -0.77210107857383
C           -1.62647600996184       -0.26544888075419       -1.28174607033408
O           -2.72666078965066       -0.82493500590994       -1.01071568304219
O           -0.36626824842244       -0.95672870645127       -0.96922661487617
H            2.02978570453630        0.08258229893739        1.11657906542812
H            1.94382858837193        0.32463554022941       -0.64298573835864
H            2.08372732459667       -1.30945127785449        0.01496002065870
H           -0.16054122107266       -1.08034034664718        1.07914459110296
H            0.15873880043672        1.77144833537823        0.41031499602274
H           -1.18535553475429        0.97723306135610        1.28581184346236
