17
Coordinates from ORCA-job TMP_cation_cpcm_80_moread E -761.708782364675
  C           2.08460757229015     -1.29132809475297      0.16111586480036
  O           1.35129569092544     -0.04293511020290      0.11423009601195
  P           0.01532606283734      0.20373557396806     -0.73973208864693
  O           0.61284943165351      0.63166844521179     -2.07419766302727
  O          -0.84411029385717     -1.08235262977215     -0.87273839234714
  C          -1.86676209419598     -1.49478611664751      0.11186650528733
  O          -0.82106460274735      1.25137702857845      0.04891031755666
  C          -0.32722583916475      2.60770393878696      0.35947779251894
  H           3.13918092491984     -1.03629806957342      0.04638088908509
  H           1.72675361510667     -1.99328603649336     -0.59438113078515
  H           1.91018752429797     -1.69298839812429      1.17006823972212
  H          -2.16188777842465     -2.49362459144965     -0.20187381129694
  H          -2.70262678028292     -0.79659334946855      0.05563185061782
  H          -1.42299893382678     -1.50758653528525      1.10918085404789
  H           0.43405917755362      2.52868088858055      1.13722593037083
  H          -1.20207342877750      3.14628089832499      0.71675169492668
  H           0.07448974169258      3.06233216831908     -0.54791695884231
