17
 energy: -29.400150818281 gnorm: 0.000957157496 xtb: 6.7.1pre (5071a88)
C            2.23287658234536       -1.15573758677710        0.12091799117038
O            0.88391686893331       -0.90897732088541        0.36864292500690
P            0.00099823042402        0.01802391548953       -0.62756308269550
O            0.68563745985690        0.50051653047386       -1.80450654460626
O           -1.29339517014321       -0.86035050770050       -0.85803483460962
C           -2.12564392495557       -1.40321327685091        0.13474942401776
O           -0.51165369947688        1.14583469098904        0.41525403820274
C           -0.19160661335566        2.49244574932015        0.23499268029121
H            2.84462892125546       -0.67567321502237        0.89964112529453
H            2.53338061508469       -0.80048990756350       -0.86807970392829
H            2.40457814489602       -2.23571609611406        0.23232923025383
H           -2.12073038062170       -2.49670670730322        0.02680145495244
H           -3.15386390319536       -1.07760745330543       -0.07475492307880
H           -1.82554652064041       -1.11216626066123        1.14181620116128
H            0.50429795885761        2.81652728082658        1.02289690019894
H           -1.10927111798649        3.07769523712949        0.38628546495381
H            0.24139653872187        2.67559493795503       -0.75138835658551
