12
 energy: -19.883274808837 gnorm: 0.000268007896 xtb: 6.7.1pre (5071a88)
O            2.19767910916133        1.33532715055757        0.66718339315671
C            1.37275782830713        0.63302969101616       -0.01117417308124
C            0.70403043169807       -0.63359717332195        0.56128267488632
C           -0.58748668006747       -0.76544598935570       -0.22945864587581
C           -0.93339054897648        0.70686919155102       -0.49467458946764
O            0.25044703953847        1.36857667578202       -0.73262443496043
H            1.36049078356268       -1.50243425538157        0.44413252760095
H            0.48902335894579       -0.52824603278599        1.64068104346787
H           -0.40195621475855       -1.27286381141344       -1.18013644154811
H           -1.38808603612099       -1.28951249699626        0.30197826611051
H           -1.60595644974722        0.82798389048103       -1.36226442824027
H           -1.45755261154278        1.12031315986713        0.39507479795115
