12
 energy: -19.229936102032 gnorm: 0.000819777555 xtb: 6.7.1pre (5071a88)
O            2.33239341358768        1.12552268210208        0.34619593524884
C            1.20901055743260        0.78899288739720        0.17674115626941
C            0.70545032911723       -0.65452676560450        0.55202786596927
C           -0.59080697795159       -0.75034578671612       -0.19702155168365
C           -0.96947116735814        0.69626930794952       -0.49485311674906
O            0.20631316485848        1.46454375881458       -0.29492919985734
H            1.42211857077359       -1.45523674496296        0.36381234544872
H            0.59833354263886       -0.54534781540532        1.64067574649771
H           -0.51321812239452       -1.32057858332177       -1.13211969396568
H           -1.33288324646271       -1.30486846195366        0.39553086182659
H           -1.31083225918654        0.86140100044363       -1.52342772839336
H           -1.75640779505490        1.09417452125729        0.16736736938856
