13
 energy: -23.973933566408 gnorm: 0.000514821053 xtb: 6.7.1pre (5071a88)
C            1.41544026133120       -0.38882531550329       -0.09446696318894
C            0.04147171525296       -0.44880180574392        0.58011111529640
C           -0.64836765091295        0.94782998267988        0.59121592924565
O           -1.73875201398489        0.83244415809019       -0.26238378193385
C           -1.53577358069205       -0.37958818717658       -1.07997846285108
O           -1.09355524871738       -0.26145053015610       -2.25986107822561
O           -0.84653544387375       -1.25714253965770       -0.12925545102592
H            2.07048514668530        0.31911406612440        0.41482621617469
H            1.26619720408206       -0.08226491094475       -1.12747331672585
H            1.87425457862171       -1.37642377150667       -0.08740027224850
H            0.14077246721591       -0.84919194877962        1.60421055749939
H            0.05437271881857        1.72806281423434        0.24906861151697
H           -1.00001014382674        1.21623799833987        1.60138688646673
