10
EC_cation_smd_acetonitrile
C           -0.22829760686824       -0.96563463252297       -0.10822849777545
C           -0.90210006671486        0.42183964120747       -0.06701755910043
O            0.17623310584700        1.31382227375676        0.13342777522538
C            1.34060849496377        0.64479283747136        0.20742770936275
O            2.39709484120234        1.15318187502620        0.37178089716541
O            1.14420383271619       -0.67848174211543        0.07137107790598
H           -0.35957740696965       -1.47281018578221       -1.06769985868158
H           -0.56020963066324       -1.62211279274081        0.70029937553404
H           -1.40242841688736        0.67808494389194       -1.00446409644667
H           -1.60552714662596        0.52731778180769        0.76310318681059
