17
Coordinates from ORCA-job TMP_cation_cpcm_40_moread E -761.707679757099
  C           2.08705479893426     -1.29117866613212      0.15991310566000
  O           1.35081382060424     -0.04390284875636      0.11751887804794
  P           0.01552208737289      0.20272503023776     -0.73696638219143
  O           0.61430888053351      0.62987905644126     -2.07149721316781
  O          -0.84406114540017     -1.08317989150923     -0.87051295374036
  C          -1.86961016620397     -1.49425397010454      0.11151372489343
  O          -0.82114381952542      1.25096311007524      0.05042196306250
  C          -0.32717841399054      2.60770990178020      0.35953954307487
  H           3.14073114242475     -1.03371741112961      0.04237741661057
  H           1.72877757872770     -1.99214210256744     -0.59627609201616
  H           1.91655377265873     -1.69512093581237      1.16845733570040
  H          -2.16411562349291     -2.49335911941785     -0.20198132385952
  H          -2.70521369990220     -0.79599590280877      0.05205203011809
  H          -1.42892461731213     -1.50600408628039      1.11020181605136
  H           0.43322938470011      2.52953504209937      1.13822018391177
  H          -1.20222700494071      3.14707622252093      0.71513562299210
  H           0.07548301481188      3.06096658136372     -0.54811766514782
