17
 energy: -29.400149469102 gnorm: 0.000928289333 xtb: 6.7.1pre (5071a88)
C            2.23297167850827       -1.15663133418196        0.12007692745751
O            0.88482091505578       -0.90669374637622        0.36926334505092
P            0.00133229620880        0.01859965877640       -0.62791365800186
O            0.68621919154916        0.50136541451232       -1.80458598014265
O           -1.29197484727472       -0.86121107566781       -0.85862949660474
C           -2.12490424983639       -1.40278534362490        0.13481199962142
O           -0.51433713708521        1.14580828368120        0.41376887565749
C           -0.19270609929569        2.49234756060020        0.23622852977078
H            2.84701426790872       -0.67556871127388        0.89642758796915
H            2.53255193105329       -0.80434084566301       -0.87028710962636
H            2.40280655273328       -2.23662275820862        0.23406391591168
H           -2.11851684924594       -2.49639398048437        0.02940725802988
H           -3.15308367994209       -1.07891113657960       -0.07717244867593
H           -1.82617614266216       -1.10874169012916        1.14120512898338
H            0.50197535879739        2.81483220639180        1.02580894423556
H           -1.11024811685186        3.07817259641637        0.38663429660514
H            0.24225492037940        2.67677491181149       -0.74910812624164
