21
Coordinates from ORCA-job DMSO_m1_shell2_reduced_opt_relaxed E -1113.802556348685
  C      -1.239567      0.272923     -0.552321
  S      -0.217965     -0.616739      0.667244
  C       1.417150     -0.209965     -0.028343
  O      -0.314522      0.239465      1.951612
  H      -0.936438      1.323330     -0.572451
  H      -1.106434     -0.197530     -1.531194
  H      -2.280392      0.177124     -0.234662
  H       2.168319     -0.626664      0.646584
  H       1.505623     -0.676586     -1.014086
  H       1.516633      0.877027     -0.093542
  Li     -0.653828      0.385797      3.696721
  C      -1.572915      1.754249      7.655704
  S      -0.730834      0.314252      6.920755
  C      -1.809365     -0.985400      7.606606
  O      -1.102001      0.371658      5.420565
  H      -2.624678      1.743451      7.356891
  H      -1.468829      1.703365      8.743752
  H      -1.073038      2.649350      7.278396
  H      -1.468294     -1.938709      7.196396
  H      -1.702666     -0.991568      8.695561
  H      -2.842516     -0.784259      7.310306
21
Coordinates from ORCA-job DMSO_m1_shell2_reduced_opt_relaxed E -1113.803708450236
  C      -1.243027      0.260406     -0.543163
  S      -0.218794     -0.647325      0.671007
  C       1.411545     -0.198337     -0.027601
  O      -0.314551      0.224726      1.949936
  H      -0.967376      1.318107     -0.529639
  H      -1.086792     -0.177310     -1.536451
  H      -2.284780      0.136588     -0.241840
  H       2.170926     -0.629741      0.627085
  H       1.497503     -0.626544     -1.033479
  H       1.507520      0.890332     -0.051160
  Li     -0.647978      0.376572      3.698290
  C      -1.558766      1.752477      7.647073
  S      -0.703228      0.304887      6.925518
  C      -1.817076     -0.977699      7.604633
  O      -1.091144      0.365442      5.426018
  H      -2.599688      1.761272      7.313589
  H      -1.493106      1.693713      8.740160
  H      -1.039105      2.643769      7.290738
  H      -1.471661     -1.939037      7.220048
  H      -1.747626     -0.965726      8.699057
  H      -2.839353     -0.781999      7.270676
21
Coordinates from ORCA-job DMSO_m1_shell2_reduced_opt_relaxed E -1113.804506234519
  C      -1.255594      0.227912     -0.537986
  S      -0.211924     -0.678752      0.676246
  C       1.414388     -0.176153     -0.022797
  O      -0.316868      0.224700      1.944409
  H      -1.028512      1.295095     -0.483405
  H      -1.064683     -0.165820     -1.544330
  H      -2.296982      0.057732     -0.258229
  H       2.186378     -0.619348      0.609202
  H       1.500932     -0.554066     -1.049258
  H       1.498287      0.912745      0.005435
  Li     -0.650076      0.379384      3.697276
  C      -1.524776      1.755187      7.646234
  S      -0.677672      0.286811      6.928908
  C      -1.836643     -0.975527      7.597420
  O      -1.094721      0.365628      5.429357
  H      -2.548338      1.803294      7.267750
  H      -1.510993      1.680348      8.740887
  H      -0.969539      2.637261      7.321638
  H      -1.493149     -1.948092      7.239782
  H      -1.814099     -0.945040      8.694119
  H      -2.841974     -0.778729      7.217836
21
Coordinates from ORCA-job DMSO_m1_shell2_reduced_opt_relaxed E -1113.804820061577
  C      -1.264160      0.197016     -0.541649
  S      -0.203189     -0.685756      0.681631
  C       1.420837     -0.158355     -0.015716
  O      -0.322761      0.244631      1.938302
  H      -1.069919      1.269856     -0.471521
  H      -1.050844     -0.178472     -1.549806
  H      -2.303029     -0.004538     -0.273205
  H       2.198835     -0.599262      0.610698
  H       1.511899     -0.517413     -1.047904
  H       1.490252      0.930987      0.031320
  Li     -0.662676      0.396798      3.693303
  C      -1.494421      1.756334      7.655850
  S      -0.674114      0.273417      6.924994
  C      -1.854102     -0.977744      7.588048
  O      -1.114868      0.376014      5.426658
  H      -2.509624      1.833568      7.259780
  H      -1.501612      1.667574      8.748885
  H      -0.914893      2.629170      7.348899
  H      -1.518735     -1.955222      7.235790
  H      -1.848556     -0.944127      8.684277
  H      -2.850879     -0.769905      7.191860
21
Coordinates from ORCA-job DMSO_m1_shell2_reduced_opt_relaxed E -1113.805211056862
  C      -1.273833      0.124811     -0.548702
  S      -0.178214     -0.683792      0.698800
  C       1.433090     -0.111397      0.000920
  O      -0.338413      0.296911      1.926527
  H      -1.137755      1.206687     -0.475127
  H      -1.026612     -0.239229     -1.552049
  H      -2.303185     -0.131411     -0.290224
  H       2.223154     -0.523928      0.631607
  H       1.539585     -0.464720     -1.030624
  H       1.459822      0.980011      0.051064
  Li     -0.695696      0.441235      3.683364
  C      -1.425623      1.749251      7.680698
  S      -0.682446      0.243018      6.907165
  C      -1.900175     -0.978358      7.561660
  O      -1.165736      0.405029      5.416603
  H      -2.432865      1.882725      7.278213
  H      -1.444637      1.634497      8.769960
  H      -0.803114      2.599220      7.394300
  H      -1.598264     -1.962745      7.198425
  H      -1.899991     -0.955268      8.657106
  H      -2.885648     -0.727978      7.160809
21
Coordinates from ORCA-job DMSO_m1_shell2_reduced_opt_relaxed E -1113.805583126174
  C      -1.275400     -0.012173     -0.547462
  S      -0.123870     -0.666484      0.738368
  C       1.446619     -0.008139      0.025659
  O      -0.369483      0.381285      1.909952
  H      -1.233907      1.079342     -0.503428
  H      -0.985945     -0.383379     -1.535790
  H      -2.279543     -0.351455     -0.285808
  H       2.259940     -0.339682      0.674115
  H       1.585843     -0.384439     -0.992949
  H       1.384147      1.083113      0.042140
  Li     -0.751662      0.514969      3.667034
  C      -1.297554      1.717131      7.719002
  S      -0.710997      0.184489      6.865361
  C      -1.999610     -0.964612      7.509553
  O      -1.245758      0.458886      5.398200
  H      -2.295650      1.949284      7.338272
  H      -1.308632      1.560877      8.802254
  H      -0.607197      2.519003      7.450221
  H      -1.780226     -1.956154      7.108765
  H      -1.981153     -0.976812      8.604253
  H      -2.966518     -0.620480      7.132783
21
Coordinates from ORCA-job DMSO_m1_shell2_reduced_opt_relaxed E -1113.805931505809
  C      -1.266271     -0.092890     -0.544926
  S      -0.110688     -0.634268      0.783883
  C       1.445929      0.037823      0.062947
  O      -0.412227      0.474954      1.892795
  H      -1.261097      1.000414     -0.553368
  H      -0.951417     -0.502748     -1.509773
  H      -2.260179     -0.456077     -0.276645
  H       2.258220     -0.231808      0.740524
  H       1.616273     -0.385836     -0.931987
  H       1.340206      1.125155      0.021144
  Li     -0.813486      0.602960      3.648638
  C      -1.224350      1.686165      7.745902
  S      -0.736853      0.169431      6.810573
  C      -2.039584     -0.956552      7.455432
  O      -1.325142      0.533880      5.377567
  H      -2.227505      1.966326      7.413922
  H      -1.197076      1.488598      8.821943
  H      -0.513205      2.469820      7.478006
  H      -1.869825     -1.938908      7.010548
  H      -1.984767     -1.012510      8.547501
  H      -3.003511     -0.559359      7.125870
21
Coordinates from ORCA-job DMSO_m1_shell2_reduced_opt_relaxed E -1113.806603487285
  C      -1.244896     -0.219736     -0.513079
  S      -0.118859     -0.552655      0.897145
  C       1.431135      0.093268      0.157564
  O      -0.507092      0.670001      1.859113
  H      -1.269170      0.863752     -0.657939
  H      -0.890550     -0.737404     -1.410619
  H      -2.233860     -0.583036     -0.227592
  H       2.224320     -0.054927      0.892507
  H       1.662150     -0.445551     -0.767591
  H       1.279773      1.159888     -0.028669
  Li     -0.936335      0.797175      3.611325
  C      -1.112498      1.619692      7.777503
  S      -0.784530      0.181037      6.675683
  C      -2.078436     -0.941834      7.321618
  O      -1.473130      0.715170      5.336852
  H      -2.131167      1.959674      7.573257
  H      -0.986111      1.326992      8.824779
  H      -0.394848      2.396463      7.507567
  H      -1.991349     -1.885290      6.779599
  H      -1.936049     -1.104157      8.395607
  H      -3.045055     -0.473952      7.115862
21
Coordinates from ORCA-job DMSO_m1_shell2_reduced_opt_relaxed E -1113.807121871650
  C      -1.226071     -0.329065     -0.448070
  S      -0.129633     -0.472626      1.013080
  C       1.412226      0.148713      0.244526
  O      -0.590225      0.826521      1.831705
  H      -1.276186      0.728242     -0.721847
  H      -0.837590     -0.938211     -1.271828
  H      -2.212045     -0.687165     -0.145972
  H       2.189464      0.114335      1.010066
  H       1.690838     -0.484105     -0.605797
  H       1.232606      1.180372     -0.069210
  Li     -1.031473      0.960707      3.581611
  C      -1.015721      1.550851      7.777558
  S      -0.824671      0.201540      6.542417
  C      -2.115224     -0.920412      7.188146
  O      -1.579105      0.877667      5.306600
  H      -2.034564      1.937365      7.692386
  H      -0.811569      1.168543      8.783531
  H      -0.294032      2.325989      7.513518
  H      -2.108009     -1.817989      6.566970
  H      -1.899837     -1.181157      8.230924
  H      -3.075737     -0.405545      7.100179
21
Coordinates from ORCA-job DMSO_m1_shell2_reduced_opt_relaxed E -1113.807604282016
  C      -1.212570     -0.428442     -0.356058
  S      -0.153359     -0.381193      1.141621
  C       1.388881      0.197153      0.339299
  O      -0.675426      0.973110      1.805367
  H      -1.279085      0.582262     -0.767097
  H      -0.791703     -1.128125     -1.087692
  H      -2.200905     -0.768619     -0.040491
  H       2.148462      0.275804      1.119439
  H       1.706911     -0.524817     -0.422432
  H       1.201270      1.179676     -0.101265
  Li     -1.114825      1.122768      3.554664
  C      -0.930579      1.479226      7.760003
  S      -0.859004      0.243585      6.396777
  C      -2.139902     -0.896326      7.034646
  O      -1.661079      1.050978      5.282492
  H      -1.940218      1.895797      7.800214
  H      -0.656417      1.001145      8.707344
  H      -0.211610      2.263491      7.515087
  H      -2.207317     -1.735311      6.339251
  H      -1.856041     -1.257226      8.030892
  H      -3.092041     -0.360366      7.068433
21
Coordinates from ORCA-job DMSO_m1_shell2_reduced_opt_relaxed E -1113.807931491329
  C      -1.213255     -0.504769     -0.266448
  S      -0.195266     -0.310526      1.255911
  C       1.361067      0.220510      0.440079
  O      -0.762780      1.078861      1.778842
  H      -1.283321      0.459291     -0.776891
  H      -0.763221     -1.264387     -0.916170
  H      -2.207704     -0.826838      0.049610
  H       2.102695      0.375852      1.226284
  H       1.703041     -0.559674     -0.250373
  H       1.180598      1.160931     -0.086875
  Li     -1.173831      1.261064      3.533525
  C      -0.872992      1.424729      7.745235
  S      -0.864492      0.306776      6.273469
  C      -2.131820     -0.875546      6.870983
  O      -1.693954      1.219833      5.273023
  H      -1.873545      1.845947      7.872428
  H      -0.561682      0.863196      8.633353
  H      -0.159020      2.225338      7.540712
  H      -2.235518     -1.656327      6.114748
  H      -1.811185     -1.315149      7.823495
  H      -3.080373     -0.344540      6.985555
21
Coordinates from ORCA-job DMSO_m1_shell2_reduced_opt_relaxed E -1113.808539962793
  C      -1.223612     -0.599176     -0.143653
  S      -0.277385     -0.228090      1.407956
  C       1.311480      0.243321      0.605417
  O      -0.906350      1.183498      1.743014
  H      -1.288034      0.300054     -0.762173
  H      -0.729325     -1.414295     -0.683446
  H      -2.228674     -0.903789      0.156561
  H       2.020411      0.484965      1.400322
  H       1.684753     -0.594505      0.005318
  H       1.149048      1.128561     -0.014872
  Li     -1.242794      1.427621      3.509942
  C      -0.803235      1.352864      7.714297
  S      -0.845618      0.405031      6.110679
  C      -2.096731     -0.839702      6.626252
  O      -1.691687      1.449190      5.274033
  H      -1.793665      1.760559      7.934760
  H      -0.461207      0.689538      8.515909
  H      -0.096028      2.174519      7.580191
  H      -2.227787     -1.539227      5.798099
  H      -1.747931     -1.369521      7.520868
  H      -3.042189     -0.326846      6.821018
21
Coordinates from ORCA-job DMSO_m1_shell2_reduced_opt_relaxed E -1113.809392279537
  C      -1.255382     -0.600708     -0.110287
  S      -0.377357     -0.202236      1.485091
  C       1.265399      0.189367      0.747059
  O      -0.993399      1.230453      1.725363
  H      -1.257906      0.274101     -0.766427
  H      -0.760582     -1.451829     -0.589989
  H      -2.285125     -0.859951      0.145973
  H       1.944181      0.433782      1.567013
  H       1.635848     -0.678748      0.190211
  H       1.163209      1.059827      0.093765
  Li     -1.279589      1.513468      3.497912
  C      -0.811642      1.346419      7.705273
  S      -0.797695      0.502269      6.031210
  C      -1.986634     -0.833157      6.466499
  O      -1.680092      1.574846      5.275232
  H      -1.820866      1.688710      7.951595
  H      -0.436203      0.648241      8.460670
  H      -0.148347      2.211096      7.629702
  H      -2.081311     -1.488642      5.598362
  H      -1.616398     -1.394503      7.332686
  H      -2.956665     -0.378235      6.683581
21
Coordinates from ORCA-job DMSO_m1_shell2_reduced_opt_relaxed E -1113.810379526097
  C      -1.286523     -0.558308     -0.126465
  S      -0.467790     -0.197233      1.517372
  C       1.224853      0.104907      0.856457
  O      -1.038934      1.259956      1.715683
  H      -1.211989      0.311825     -0.784949
  H      -0.812761     -1.436448     -0.577436
  H      -2.339528     -0.762818      0.080003
  H       1.876877      0.319102      1.705922
  H       1.575593     -0.782978      0.318415
  H       1.193896      0.976204      0.197022
  Li     -1.306236      1.559019      3.490133
  C      -0.851817      1.366860      7.706056
  S      -0.755668      0.583001      5.995752
  C      -1.857411     -0.840603      6.377201
  O      -1.688872      1.635003      5.272121
  H      -1.885106      1.631067      7.949439
  H      -0.438634      0.669202      8.441862
  H      -0.248360      2.276612      7.668918
  H      -1.899549     -1.475031      5.489551
  H      -1.462001     -1.400999      7.232765
  H      -2.856595     -0.453770      6.594670
21
Coordinates from ORCA-job DMSO_m1_shell2_reduced_opt_relaxed E -1113.811268646572
  C      -1.302973     -0.526759     -0.134620
  S      -0.542186     -0.185278      1.548188
  C       1.184937      0.041307      0.954766
  O      -1.080506      1.289805      1.706088
  H      -1.164533      0.334654     -0.794419
  H      -0.845632     -1.426887     -0.558063
  H      -2.371147     -0.687205      0.028074
  H       1.810923      0.237847      1.827630
  H       1.521149     -0.864319      0.437338
  H       1.211221      0.906655      0.287272
  Li     -1.337030      1.598637      3.481715
  C      -0.874203      1.374715      7.694911
  S      -0.732161      0.645304      5.956157
  C      -1.758631     -0.841149      6.303471
  O      -1.709874      1.680660      5.266508
  H      -1.920673      1.576649      7.941772
  H      -0.425808      0.678716      8.411297
  H      -0.319167      2.315404      7.684110
  H      -1.769968     -1.455986      5.401235
  H      -1.335352     -1.400346      7.146361
  H      -2.774945     -0.507855      6.530700
21
Coordinates from ORCA-job DMSO_m1_shell2_reduced_opt_relaxed E -1113.812118772452
  C      -1.310475     -0.505682     -0.136582
  S      -0.619449     -0.168826      1.584038
  C       1.137150     -0.009446      1.064431
  O      -1.131569      1.320061      1.694873
  H      -1.110527      0.342555     -0.797728
  H      -0.864618     -1.426142     -0.527062
  H      -2.389915     -0.627604     -0.022484
  H       1.731989      0.177837      1.960708
  H       1.464253     -0.932122      0.571853
  H       1.218410      0.845407      0.387762
  Li     -1.374650      1.639081      3.471731
  C      -0.880330      1.372857      7.674157
  S      -0.715210      0.703306      5.906368
  C      -1.673068     -0.834594      6.222554
  O      -1.734881      1.726689      5.259793
  H      -1.933503      1.519134      7.931513
  H      -0.396219      0.676116      8.366033
  H      -0.368026      2.337371      7.688048
  H      -1.666284     -1.426673      5.305170
  H      -1.219609     -1.395603      7.048317
  H      -2.700027     -0.549150      6.467004
21
Coordinates from ORCA-job DMSO_m1_shell2_reduced_opt_relaxed E -1113.813022277131
  C      -1.306132     -0.485112     -0.146312
  S      -0.681507     -0.151757      1.612130
  C       1.091243     -0.056161      1.153955
  O      -1.183936      1.349324      1.681877
  H      -1.048887      0.356287     -0.796362
  H      -0.870757     -1.420359     -0.512406
  H      -2.392027     -0.574074     -0.073815
  H       1.661361      0.124163      2.067209
  H       1.407431     -0.993123      0.681593
  H       1.209966      0.787393      0.468253
  Li     -1.412373      1.678915      3.460540
  C      -0.884017      1.368225      7.657435
  S      -0.707143      0.745303      5.862441
  C      -1.601353     -0.829338      6.167278
  O      -1.762064      1.763038      5.251560
  H      -1.942701      1.464427      7.914966
  H      -0.369547      0.675740      8.331235
  H      -0.408310      2.350598      7.684510
  H      -1.586557     -1.408154      5.241662
  H      -1.117563     -1.384585      6.979393
  H      -2.631683     -0.576178      6.433350
21
Coordinates from ORCA-job DMSO_m1_shell2_reduced_opt_relaxed E -1113.813829343712
  C      -1.299928     -0.489138     -0.123044
  S      -0.780458     -0.122367      1.674842
  C       1.016450     -0.084841      1.314013
  O      -1.272791      1.382360      1.665651
  H      -0.977692      0.328584     -0.773943
  H      -0.867119     -1.444650     -0.434562
  H      -2.390102     -0.548001     -0.115658
  H       1.543508      0.104819      2.251036
  H       1.330535     -1.041474      0.881588
  H       1.192885      0.735703      0.612757
  Li     -1.460808      1.738663      3.445550
  C      -0.860552      1.342075      7.614650
  S      -0.687759      0.809349      5.779069
  C      -1.524604     -0.805593      6.035290
  O      -1.774803      1.834502      5.243500
  H      -1.918635      1.385370      7.887614
  H      -0.310698      0.637845      8.246262
  H      -0.420188      2.338965      7.678673
  H      -1.508801     -1.348709      5.088348
  H      -1.008336     -1.373281      6.818156
  H      -2.556662     -0.595611      6.330704
21
Coordinates from ORCA-job DMSO_m1_shell2_reduced_opt_relaxed E -1113.814103081294
  C      -1.281528     -0.404407     -0.243236
  S      -0.910435     -0.152093      1.631453
  C       0.904789     -0.217349      1.398005
  O      -1.358140      1.369916      1.650760
  H      -0.842888      0.427075     -0.800433
  H      -0.881047     -1.369618     -0.565526
  H      -2.369325     -0.388430     -0.326685
  H       1.381193     -0.110753      2.374422
  H       1.183588     -1.169428      0.932984
  H       1.171686      0.620452      0.746983
  Li     -1.491247      1.756255      3.430911
  C      -0.922602      1.380351      7.651392
  S      -0.633385      0.875643      5.804260
  C      -1.347033     -0.799255      6.044405
  O      -1.762849      1.837102      5.234250
  H      -1.993501      1.319925      7.859185
  H      -0.340343      0.722407      8.302218
  H      -0.574321      2.411485      7.726772
  H      -1.255159     -1.349674      5.106283
  H      -0.814231     -1.312020      6.853218
  H      -2.399778     -0.663013      6.308873
21
Coordinates from ORCA-job DMSO_m1_shell2_reduced_opt_relaxed E -1113.815119285581
  C      -1.248630     -0.596043     -0.071099
  S      -0.903425     -0.139388      1.771452
  C       0.909512     -0.002352      1.520789
  O      -1.536105      1.313097      1.663683
  H      -0.899632      0.223207     -0.704489
  H      -0.750387     -1.539867     -0.311132
  H      -2.332350     -0.699376     -0.146304
  H       1.374106      0.223873      2.482014
  H       1.296747     -0.943408      1.113712
  H       1.076552      0.816100      0.814300
  Li     -1.506030      1.819926      3.422359
  C      -0.756801      1.242362      7.573371
  S      -0.607134      0.852871      5.679913
  C      -1.539496     -0.725632      5.826112
  O      -1.611003      2.005419      5.239800
  H      -1.817117      1.296651      7.831052
  H      -0.234411      0.470274      8.145726
  H      -0.281298      2.215143      7.706722
  H      -1.537410     -1.218244      4.852099
  H      -1.070471     -1.358892      6.588036
  H      -2.561774     -0.471149      6.122377
21
Coordinates from ORCA-job DMSO_m1_shell2_reduced_opt_relaxed E -1113.815514736969
  C      -1.209782     -0.609309     -0.107761
  S      -0.905876     -0.177625      1.740487
  C       0.905652      0.050223      1.522071
  O      -1.591603      1.250070      1.658467
  H      -0.865045      0.224814     -0.724011
  H      -0.689554     -1.539780     -0.353066
  H      -2.289612     -0.731914     -0.207849
  H       1.346851      0.246337      2.500917
  H       1.337480     -0.852664      1.074681
  H       1.052597      0.909718      0.861435
  Li     -1.531863      1.780165      3.409382
  C      -0.688913      1.240263      7.551016
  S      -0.623329      0.792318      5.673742
  C      -1.630242     -0.733422      5.888831
  O      -1.586688      1.973955      5.228404
  H      -1.735516      1.333694      7.851120
  H      -0.166394      0.470052      8.125583
  H      -0.181780      2.202383      7.639938
  H      -1.661221     -1.261707      4.934150
  H      -1.184085     -1.359743      6.670390
  H      -2.637633     -0.423255      6.182565
21
Coordinates from ORCA-job DMSO_m1_shell2_reduced_opt_relaxed E -1113.815873389082
  C      -1.185309     -0.607190     -0.124558
  S      -0.945427     -0.201058      1.738789
  C       0.870022      0.050933      1.569172
  O      -1.656722      1.214891      1.657876
  H      -0.805094      0.231235     -0.713396
  H      -0.668357     -1.541232     -0.362162
  H      -2.262190     -0.713153     -0.265068
  H       1.290280      0.198135      2.565853
  H       1.317233     -0.824402      1.082960
  H       1.023653      0.943442      0.955240
  Li     -1.569382      1.787041      3.395096
  C      -0.655601      1.238576      7.529384
  S      -0.613734      0.784721      5.655320
  C      -1.633986     -0.729641      5.885880
  O      -1.567127      1.975522      5.215177
  H      -1.699868      1.318215      7.841328
  H      -0.115137      0.477107      8.098365
  H      -0.159655      2.207442      7.606041
  H      -1.653718     -1.277698      4.942061
  H      -1.203425     -1.341229      6.687727
  H      -2.643013     -0.407087      6.159410
21
Coordinates from ORCA-job DMSO_m1_shell2_reduced_opt_relaxed E -1113.816290259152
  C      -1.168380     -0.617417     -0.095296
  S      -0.970324     -0.194819      1.768457
  C       0.847785      0.061877      1.622748
  O      -1.700797      1.211998      1.658157
  H      -0.759479      0.210529     -0.679786
  H      -0.659058     -1.560950     -0.310491
  H      -2.242855     -0.708729     -0.260776
  H       1.258700      0.180374      2.627318
  H       1.300524     -0.797875      1.113486
  H       1.004134      0.970735      1.033829
  Li     -1.616225      1.825340      3.382047
  C      -0.620459      1.222217      7.487608
  S      -0.618291      0.783919      5.613451
  C      -1.642100     -0.725474      5.850026
  O      -1.571664      1.986483      5.203772
  H      -1.659001      1.285594      7.821759
  H      -0.058227      0.462656      8.037558
  H      -0.134226      2.196195      7.559203
  H      -1.658640     -1.280287      4.910085
  H      -1.217589     -1.331649      6.659452
  H      -2.650383     -0.396148      6.117886
21
Coordinates from ORCA-job DMSO_m1_shell2_reduced_opt_relaxed E -1113.817132292378
  C      -1.154277     -0.636631      0.003419
  S      -1.022609     -0.151169      1.856062
  C       0.805268      0.067895      1.751835
  O      -1.755874      1.249627      1.661335
  H      -0.690914      0.155235     -0.590698
  H      -0.668071     -1.603503     -0.154628
  H      -2.223284     -0.698633     -0.203936
  H       1.196851      0.163773      2.766796
  H       1.253360     -0.790125      1.234392
  H       0.986734      0.981014      1.176590
  Li     -1.715292      1.932591      3.360534
  C      -0.569070      1.185756      7.391421
  S      -0.627720      0.811804      5.512959
  C      -1.622568     -0.716574      5.726978
  O      -1.606123      2.020176      5.182747
  H      -1.595654      1.203303      7.766147
  H       0.037159      0.425799      7.892346
  H      -0.110076      2.171433      7.477087
  H      -1.632746     -1.255003      4.777428
  H      -1.188426     -1.328988      6.526995
  H      -2.633226     -0.403208      6.004686
21
Coordinates from ORCA-job DMSO_m1_shell2_reduced_opt_relaxed E -1113.817406891312
  C      -1.131267     -0.677975      0.295679
  S      -1.102585     -0.012251      2.096379
  C       0.739482      0.105926      2.060953
  O      -1.832776      1.356453      1.687204
  H      -0.595001      0.030089     -0.342337
  H      -0.675257     -1.672326      0.269715
  H      -2.186629     -0.722243      0.025471
  H       1.093324      0.236708      3.086150
  H       1.173695     -0.787591      1.593003
  H       0.970934      0.980450      1.444243
  Li     -1.961791      2.169825      3.321174
  C      -0.444166      1.088873      7.113480
  S      -0.681273      0.858018      5.242818
  C      -1.609091     -0.707724      5.419425
  O      -1.706163      2.073212      5.121981
  H      -1.426448      1.038568      7.591007
  H       0.231555      0.314240      7.489633
  H      -0.006439      2.080496      7.229515
  H      -1.669255     -1.181649      4.438029
  H      -1.115509     -1.358660      6.152245
  H      -2.601898     -0.427867      5.784726
21
Coordinates from ORCA-job DMSO_m1_shell2_reduced_opt_relaxed E -1113.818173182198
  C      -1.091757     -0.630759      0.117122
  S      -1.032139     -0.095699      1.955281
  C       0.803386      0.108651      1.892383
  O      -1.802281      1.277745      1.667698
  H      -0.589060      0.132467     -0.483537
  H      -0.613750     -1.609045      0.009464
  H      -2.151522     -0.682733     -0.135153
  H       1.178121      0.146817      2.917465
  H       1.261076     -0.712194      1.325335
  H       0.986926      1.053085      1.370023
  Li     -1.956849      2.032526      3.326571
  C      -0.441882      1.139478      7.191309
  S      -0.716826      0.746734      5.354346
  C      -1.726694     -0.744271      5.689061
  O      -1.687854      1.987376      5.127719
  H      -1.415995      1.178529      7.686659
  H       0.205807      0.374232      7.630245
  H       0.039457      2.117791      7.212824
  H      -1.807526     -1.317288      4.763839
  H      -1.269551     -1.337437      6.490704
  H      -2.707641     -0.381435      6.011137
21
Coordinates from ORCA-job DMSO_m1_shell2_reduced_opt_relaxed E -1113.818442248886
  C      -1.106721     -0.603392      0.077298
  S      -1.107962     -0.121084      1.925641
  C       0.735390      0.043534      1.970374
  O      -1.800445      1.290212      1.655438
  H      -0.557414      0.153577     -0.489637
  H      -0.655708     -1.594161     -0.035721
  H      -2.154317     -0.616892     -0.227338
  H       1.052589      0.043130      3.015109
  H       1.203027     -0.774485      1.408938
  H       0.981423      0.998012      1.493715
  Li     -1.956613      2.031762      3.316986
  C      -0.453395      1.174624      7.203013
  S      -0.674864      0.800097      5.357473
  C      -1.633959     -0.739368      5.643875
  O      -1.701131      1.988314      5.119476
  H      -1.431946      1.168964      7.691772
  H       0.218595      0.430526      7.642410
  H      -0.012828      2.171537      7.254863
  H      -1.671775     -1.297835      4.706894
  H      -1.168873     -1.330213      6.442128
  H      -2.639631     -0.432287      5.947788
21
Coordinates from ORCA-job DMSO_m1_shell2_reduced_opt_relaxed E -1113.818940956759
  C      -1.173065     -0.652808      0.215122
  S      -1.031797     -0.046632      2.028009
  C       0.810526      0.068127      1.930937
  O      -1.728212      1.353798      1.700900
  H      -0.683120      0.065914     -0.448102
  H      -0.719367     -1.645695      0.132124
  H      -2.241661     -0.695715     -0.001513
  H       1.202365      0.168801      2.944520
  H       1.223181     -0.812940      1.426162
  H       1.034840      0.963669      1.341751
  Li     -1.920937      2.155917      3.325070
  C      -0.523092      1.134664      7.217283
  S      -0.663446      0.847132      5.344291
  C      -1.594356     -0.724609      5.520626
  O      -1.702417      2.030545      5.123821
  H      -1.520285      1.114819      7.666668
  H       0.125285      0.366578      7.651884
  H      -0.079090      2.124514      7.335666
  H      -1.610359     -1.224856      4.550577
  H      -1.132761     -1.357254      6.287589
  H      -2.608792     -0.449398      5.827107
21
Coordinates from ORCA-job DMSO_m1_shell2_reduced_opt_relaxed E -1113.818736261098
  C      -1.081375     -0.683103      0.337207
  S      -1.061588     -0.013944      2.144798
  C       0.772709      0.187583      2.121148
  O      -1.836513      1.326872      1.714495
  H      -0.600979      0.046178     -0.321564
  H      -0.569392     -1.650084      0.303868
  H      -2.134948     -0.791853      0.075572
  H       1.121295      0.320817      3.146748
  H       1.250052     -0.673879      1.640395
  H       0.967169      1.087383      1.527229
  Li     -2.108048      2.208624      3.280132
  C      -0.345122      1.046187      6.979818
  S      -0.743107      0.751810      5.138647
  C      -1.761463     -0.737045      5.469878
  O      -1.697614      2.027636      5.034963
  H      -1.278968      1.113284      7.545678
  H       0.287438      0.232613      7.349015
  H       0.189067      1.997063      7.021033
  H      -1.934053     -1.257809      4.526287
  H      -1.266622     -1.387596      6.199835
  H      -2.704495     -0.366164      5.885313
21
Coordinates from ORCA-job DMSO_m1_shell2_reduced_opt_relaxed E -1113.819606062695
  C      -1.102450     -0.696726      0.246962
  S      -1.011459     -0.069956      2.064636
  C       0.812776      0.188848      1.965290
  O      -1.805814      1.277414      1.717350
  H      -0.664410      0.056715     -0.413902
  H      -0.577855     -1.653861      0.167303
  H      -2.164693     -0.817447      0.028820
  H       1.201658      0.311460      2.977857
  H       1.289261     -0.654421      1.452201
  H       0.965161      1.103990      1.383184
  Li     -1.995895      2.141169      3.305348
  C      -0.414526      1.068123      7.129305
  S      -0.694411      0.750821      5.266949
  C      -1.758159     -0.718985      5.552215
  O      -1.626624      2.029314      5.077084
  H      -1.382817      1.152571      7.631132
  H       0.184167      0.254110      7.549136
  H       0.125356      2.014654      7.193302
  H      -1.880257     -1.248240      4.605301
  H      -1.313945     -1.367816      6.315532
  H      -2.721621     -0.337164      5.905490
21
Coordinates from ORCA-job DMSO_m1_shell2_reduced_opt_relaxed E -1113.819868776609
  C      -1.114116     -0.704802      0.267347
  S      -1.010551     -0.068781      2.081047
  C       0.811148      0.194602      1.978803
  O      -1.790525      1.284406      1.733717
  H      -0.685712      0.044357     -0.404617
  H      -0.586636     -1.660618      0.189640
  H      -2.177286     -0.832345      0.056516
  H       1.199014      0.339368      2.988874
  H       1.290210     -0.659097      1.486439
  H       0.965699      1.098239      1.379770
  Li     -1.999385      2.168882      3.301744
  C      -0.420773      1.063164      7.124072
  S      -0.680330      0.756804      5.255901
  C      -1.745414     -0.716770      5.522861
  O      -1.616239      2.030481      5.064844
  H      -1.391503      1.149919      7.620892
  H       0.170718      0.243962      7.544466
  H       0.123243      2.006507      7.201759
  H      -1.871881     -1.231376      4.568576
  H      -1.297549     -1.378982      6.272211
  H      -2.708688     -0.343350      5.885630
21
Coordinates from ORCA-job DMSO_m1_shell2_reduced_opt_relaxed E -1113.820186953508
  C      -1.090308     -0.733912      0.303061
  S      -0.980340     -0.083558      2.118064
  C       0.819135      0.268181      1.993830
  O      -1.796306      1.247199      1.775557
  H      -0.713787      0.030965     -0.381856
  H      -0.519575     -1.663930      0.219803
  H      -2.150101     -0.914810      0.113972
  H       1.208342      0.467116      2.994163
  H       1.336052     -0.580286      1.532526
  H       0.929410      1.156507      1.363299
  Li     -2.039316      2.193731      3.287402
  C      -0.381418      1.021551      7.073983
  S      -0.682758      0.695491      5.205843
  C      -1.823397     -0.711438      5.526893
  O      -1.550699      2.015151      5.010970
  H      -1.337051      1.179201      7.582114
  H       0.163402      0.174041      7.501284
  H       0.222696      1.929451      7.129010
  H      -2.022661     -1.222122      4.583202
  H      -1.380471     -1.398714      6.255999
  H      -2.747406     -0.285246      5.931375
21
Coordinates from ORCA-job DMSO_m1_shell2_reduced_opt_relaxed E -1113.820216550752
  C      -1.092174     -0.728053      0.297411
  S      -0.986161     -0.088746      2.118661
  C       0.813655      0.259506      2.001518
  O      -1.794948      1.247274      1.781073
  H      -0.713058      0.042343     -0.379633
  H      -0.521860     -1.657892      0.210153
  H      -2.151941     -0.906359      0.106500
  H       1.198895      0.461914      3.002627
  H       1.332016     -0.592291      1.547366
  H       0.927273      1.143847      1.366103
  Li     -2.040278      2.202082      3.285134
  C      -0.384243      1.026948      7.074318
  S      -0.678618      0.694807      5.202849
  C      -1.814100     -0.715597      5.525473
  O      -1.547301      2.014424      5.004645
  H      -1.343853      1.183836      7.574842
  H       0.160225      0.181484      7.506033
  H       0.217446      1.936392      7.127057
  H      -2.014174     -1.226494      4.581940
  H      -1.365790     -1.402086      6.252357
  H      -2.737565     -0.292765      5.934066
21
Coordinates from ORCA-job DMSO_m1_shell2_reduced_opt_relaxed E -1113.820235794321
  C      -1.095614     -0.729579      0.303130
  S      -0.979048     -0.088661      2.124143
  C       0.819113      0.262399      1.992757
  O      -1.791426      1.245471      1.793065
  H      -0.719235      0.041358     -0.374618
  H      -0.526193     -1.659763      0.214437
  H      -2.156907     -0.906757      0.120771
  H       1.209054      0.477805      2.989312
  H       1.338375     -0.594114      1.547748
  H       0.925776      1.137514      1.343667
  Li     -2.032029      2.214079      3.286754
  C      -0.390986      1.025229      7.078246
  S      -0.676664      0.691367      5.203004
  C      -1.813761     -0.717577      5.522651
  O      -1.538151      2.016139      5.002716
  H      -1.355090      1.181020      7.570130
  H       0.151847      0.180339      7.512990
  H       0.208904      1.935627      7.130376
  H      -2.013008     -1.227202      4.578137
  H      -1.365031     -1.405204      6.248538
  H      -2.736482     -0.294921      5.932542
21
Coordinates from ORCA-job DMSO_m1_shell2_reduced_opt_relaxed E -1113.820242873361
  C      -1.093374     -0.720021      0.291836
  S      -0.986682     -0.094467      2.116695
  C       0.814835      0.250850      1.997730
  O      -1.793094      1.244131      1.794242
  H      -0.703015      0.052410     -0.376203
  H      -0.531999     -1.654907      0.201812
  H      -2.154809     -0.885188      0.099603
  H       1.199672      0.452782      2.999071
  H       1.333812     -0.602330      1.545720
  H       0.927641      1.132354      1.358465
  Li     -2.042572      2.208857      3.288646
  C      -0.388906      1.032694      7.075824
  S      -0.678104      0.690240      5.203617
  C      -1.809711     -0.720894      5.530927
  O      -1.543447      2.012671      5.002573
  H      -1.353525      1.181248      7.568867
  H       0.162620      0.194026      7.511584
  H       0.202426      1.948880      7.121351
  H      -2.001893     -1.239365      4.589770
  H      -1.360187     -1.399665      6.264748
  H      -2.736245     -0.299734      5.933616
21
Coordinates from ORCA-job DMSO_m1_shell2_reduced_opt_relaxed E -1113.820248243255
  C      -1.096594     -0.721498      0.296314
  S      -0.985568     -0.091901      2.118182
  C       0.816624      0.251050      1.994729
  O      -1.790672      1.246998      1.794915
  H      -0.706905      0.048658     -0.374805
  H      -0.536204     -1.657033      0.207331
  H      -2.158532     -0.886224      0.106282
  H       1.202717      0.456501      2.994882
  H       1.333969     -0.604284      1.545210
  H       0.929031      1.130185      1.352168
  Li     -2.032047      2.214661      3.288984
  C      -0.392134      1.031947      7.077645
  S      -0.677847      0.693437      5.204194
  C      -1.806603     -0.721266      5.526749
  O      -1.547208      2.014495      5.006656
  H      -1.357825      1.176867      7.569672
  H       0.160894      0.193907      7.512594
  H       0.196474      1.949766      7.126075
  H      -1.993747     -1.239775      4.584677
  H      -1.358216     -1.398879      6.262257
  H      -2.736166     -0.303043      5.925783
21
Coordinates from ORCA-job DMSO_m1_shell2_reduced_opt_relaxed E -1113.820251089426
  C      -1.095754     -0.723233      0.299676
  S      -0.983975     -0.091793      2.119646
  C       0.817666      0.254915      1.994412
  O      -1.792173      1.245040      1.796756
  H      -0.708269      0.046402     -0.373387
  H      -0.533726     -1.657819      0.210908
  H      -2.157434     -0.890395      0.110054
  H       1.204099      0.460741      2.994339
  H       1.335814     -0.599191      1.543861
  H       0.927616      1.134947      1.352614
  Li     -2.030795      2.216341      3.288802
  C      -0.389599      1.029207      7.075092
  S      -0.679068      0.691579      5.201654
  C      -1.810641     -0.720809      5.526156
  O      -1.546651      2.014872      5.006314
  H      -1.353997      1.175695      7.569218
  H       0.162864      0.190451      7.509399
  H       0.200440      1.946191      7.123041
  H      -1.996121     -1.242590      4.585578
  H      -1.365863     -1.396183      6.265786
  H      -2.740990     -0.299798      5.920575
21
Coordinates from ORCA-job DMSO_m1_shell2_reduced_opt_relaxed E -1113.820252338642
  C      -1.095395     -0.722912      0.299674
  S      -0.984453     -0.092837      2.119203
  C       0.817107      0.255104      1.995067
  O      -1.793951      1.243279      1.798010
  H      -0.708446      0.047102     -0.373332
  H      -0.532628     -1.657028      0.210219
  H      -2.156775     -0.891079      0.109095
  H       1.203154      0.459082      2.995505
  H       1.335334     -0.597949      1.542741
  H       0.926716      1.136702      1.355334
  Li     -2.031002      2.216679      3.288899
  C      -0.388399      1.028881      7.074605
  S      -0.678803      0.690967      5.200722
  C      -1.811085     -0.720805      5.526059
  O      -1.545654      2.015359      5.005872
  H      -1.352510      1.175638      7.569253
  H       0.164129      0.190209      7.509018
  H       0.201781      1.945805      7.122370
  H      -1.993194     -1.246215      4.586825
  H      -1.369470     -1.393177      6.270277
  H      -2.743014     -0.298234      5.915077
21
Coordinates from ORCA-job DMSO_m1_shell2_reduced_opt_relaxed E -1113.820252806999
  C      -1.095225     -0.722644      0.299600
  S      -0.984524     -0.093692      2.118911
  C       0.816719      0.255188      1.995175
  O      -1.794882      1.242082      1.799012
  H      -0.709347      0.047988     -0.373361
  H      -0.531517     -1.656140      0.209300
  H      -2.156388     -0.892088      0.108854
  H       1.202758      0.458406      2.995763
  H       1.335060     -0.597367      1.542008
  H       0.926034      1.137444      1.356281
  Li     -2.031758      2.216509      3.289227
  C      -0.388010      1.028752      7.074767
  S      -0.678071      0.690344      5.200431
  C      -1.811117     -0.720708      5.525945
  O      -1.543924      2.015606      5.005357
  H      -1.352194      1.176139      7.569102
  H       0.163952      0.189862      7.509489
  H       0.202712      1.945316      7.122573
  H      -1.991128     -1.248263      4.587498
  H      -1.371856     -1.391422      6.273055
  H      -2.743852     -0.296739      5.911506
