21
Coordinates from ORCA-job DMSO_m1_shell2_oxidized_opt_relaxed E -1113.279183733994
  C          -0.75387208234326      1.17477792927810     -0.63688131385932
  S          -0.63401165580608     -0.32841932295665      0.37690384503314
  C           0.92176011948571     -1.08975422841129     -0.17201753473436
  O          -0.45188833271221      0.10634055709997      1.83853670078273
  H           0.14498269301640      1.77844684693133     -0.47380674877527
  H          -0.83946057320808      0.85085649575518     -1.67968521705830
  H          -1.65949607063542      1.70575511592486     -0.33216062485073
  H           1.07741416552432     -1.98935812579475      0.42912384950381
  H           0.79164896334576     -1.35824023158831     -1.22590230210535
  H           1.73224264926140     -0.36592699095277     -0.03671918020679
  Li         -0.74605851853868      0.27329156284697      3.67822071046527
  C          -2.50356140056249      1.53886868829948      7.52038408594157
  S          -0.93515416453478      0.79197959258781      6.98816554675384
  C          -0.83111854657320     -0.73011110415389      7.97498315228197
  O          -1.08580904566191      0.38501524108947      5.51490617842620
  H          -3.30933197331341      0.81596099216271      7.35525155213426
  H          -2.39504745513939      1.78726222428745      8.58163328271172
  H          -2.64980439380310      2.44962550269774      6.93385220136707
  H           0.08182606512634     -1.25278888181280      7.67784923757895
  H          -0.76696566336431     -0.42626460836466      9.02533256934983
  H          -1.72485177956359     -1.33274625492598      7.78252400925968
