21
Coordinates from ORCA-job DMSO_m1_shell2_oxidized_opt_relaxed E -1113.270723545192
  C      -1.239567      0.272923     -0.552321
  S      -0.217965     -0.616739      0.667244
  C       1.417150     -0.209965     -0.028343
  O      -0.314522      0.239465      1.951612
  H      -0.936438      1.323330     -0.572451
  H      -1.106434     -0.197530     -1.531194
  H      -2.280392      0.177124     -0.234662
  H       2.168319     -0.626664      0.646584
  H       1.505623     -0.676586     -1.014086
  H       1.516633      0.877027     -0.093542
  Li     -0.653828      0.385797      3.696721
  C      -1.572915      1.754249      7.655704
  S      -0.730834      0.314252      6.920755
  C      -1.809365     -0.985400      7.606606
  O      -1.102001      0.371658      5.420565
  H      -2.624678      1.743451      7.356891
  H      -1.468829      1.703365      8.743752
  H      -1.073038      2.649350      7.278396
  H      -1.468294     -1.938709      7.196396
  H      -1.702666     -0.991568      8.695561
  H      -2.842516     -0.784259      7.310306
21
Coordinates from ORCA-job DMSO_m1_shell2_oxidized_opt_relaxed E -1113.275789875918
  C      -1.241352      0.395490     -0.605635
  S      -0.272031     -0.533121      0.628395
  C       1.427627     -0.345410     -0.006849
  O      -0.333868      0.292044      1.934808
  H      -0.855665      1.418753     -0.641598
  H      -1.136810     -0.108000     -1.572260
  H      -2.288361      0.381758     -0.289439
  H       2.106003     -0.833851      0.698543
  H       1.483776     -0.841380     -0.981323
  H       1.644653      0.723882     -0.087940
  Li     -0.688809      0.425769      3.686747
  C      -1.687430      1.794898      7.666186
  S      -0.797735      0.388488      6.921029
  C      -1.682240     -1.038502      7.634376
  O      -1.150848      0.402832      5.415619
  H      -2.746007      1.705937      7.404369
  H      -1.536838      1.759389      8.750109
  H      -1.258794      2.715889      7.260561
  H      -1.249427     -1.948929      7.210016
  H      -1.531050     -1.025101      8.718666
  H      -2.741352     -0.946265      7.376114
21
Coordinates from ORCA-job DMSO_m1_shell2_oxidized_opt_relaxed E -1113.277229443494
  C      -1.178460      0.595680     -0.646051
  S      -0.359173     -0.463258      0.584995
  C       1.363883     -0.546498      0.004637
  O      -0.350148      0.313518      1.917656
  H      -0.652362      1.556320     -0.665179
  H      -1.123442      0.083060     -1.612250
  H      -2.221580      0.717263     -0.341851
  H       1.932005     -1.143312      0.723095
  H       1.357513     -1.039198     -0.973466
  H       1.744815      0.478412     -0.060108
  Li     -0.710467      0.441510      3.681105
  C      -1.887581      1.790539      7.646802
  S      -0.841838      0.488909      6.925619
  C      -1.470701     -1.040817      7.685212
  O      -1.175156      0.418907      5.421222
  H      -2.930677      1.551854      7.412227
  H      -1.706090      1.800022      8.726788
  H      -1.586586      2.744400      7.205126
  H      -0.905461     -1.879323      7.269988
  H      -1.297097     -0.966679      8.764038
  H      -2.537954     -1.116738      7.450887
21
Coordinates from ORCA-job DMSO_m1_shell2_oxidized_opt_relaxed E -1113.277925099716
  C      -1.054113      0.823113     -0.673589
  S      -0.455650     -0.388916      0.538227
  C       1.236233     -0.771140     -0.002770
  O      -0.362935      0.319875      1.900540
  H      -0.370555      1.679411     -0.661976
  H      -1.065630      0.324041     -1.648456
  H      -2.067459      1.109946     -0.380805
  H       1.660647     -1.480611      0.711955
  H       1.158265     -1.230323     -0.994116
  H       1.800914      0.167245     -0.031896
  Li     -0.723686      0.445957      3.678195
  C      -2.129860      1.732641      7.616909
  S      -0.886697      0.601006      6.931999
  C      -1.219958     -0.986302      7.750617
  O      -1.185952      0.428447      5.432891
  H      -3.120891      1.314197      7.408892
  H      -1.937251      1.808526      8.692420
  H      -1.991380      2.704565      7.136143
  H      -0.511486     -1.718563      7.355428
  H      -1.051141     -0.833810      8.822042
  H      -2.257971     -1.264735      7.537843
21
Coordinates from ORCA-job DMSO_m1_shell2_oxidized_opt_relaxed E -1113.278452466101
  C      -0.844761      1.067660     -0.685142
  S      -0.559581     -0.291437      0.481552
  C       1.023737     -1.011386     -0.038055
  O      -0.376326      0.314050      1.880065
  H       0.004945      1.757020     -0.630083
  H      -0.937543      0.614901     -1.678200
  H      -1.781779      1.551218     -0.397509
  H       1.253541     -1.826934      0.652003
  H       0.873049     -1.399564     -1.051140
  H       1.786130     -0.225129     -0.012687
  Li     -0.734548      0.440607      3.676325
  C      -2.409616      1.596040      7.579923
  S      -0.952662      0.727398      6.938252
  C      -0.932214     -0.850696      7.834651
  O      -1.190171      0.433488      5.450640
  H      -3.291770      0.969124      7.409835
  H      -2.229981      1.764218      8.647252
  H      -2.478020      2.549619      7.050131
  H      -0.076865     -1.423272      7.467717
  H      -0.801047     -0.606055      8.894247
  H      -1.881077     -1.366298      7.650718
21
Coordinates from ORCA-job DMSO_m1_shell2_oxidized_opt_relaxed E -1113.278734808254
  C      -0.663497      1.209215     -0.680664
  S      -0.627178     -0.218783      0.438020
  C       0.841337     -1.151075     -0.082117
  O      -0.391432      0.299520      1.862390
  H       0.281373      1.755603     -0.590067
  H      -0.805592      0.810999     -1.691117
  H      -1.519579      1.824188     -0.391217
  H       0.925929     -2.017643      0.578474
  H       0.656091     -1.474609     -1.112085
  H       1.717927     -0.498156     -0.013879
  Li     -0.742406      0.430843      3.675188
  C      -2.586602      1.458793      7.558307
  S      -1.006415      0.813070      6.944028
  C      -0.749673     -0.710992      7.896106
  O      -1.186625      0.437494      5.467725
  H      -3.360975      0.697188      7.417992
  H      -2.437222      1.693729      8.617702
  H      -2.803420      2.369965      6.994742
  H       0.186645     -1.155699      7.549487
  H      -0.662015     -0.410908      8.945916
  H      -1.603228     -1.378171      7.735565
21
Coordinates from ORCA-job DMSO_m1_shell2_oxidized_opt_relaxed E -1113.278933077041
  C      -0.581395      1.260336     -0.671863
  S      -0.660417     -0.195847      0.410426
  C       0.757948     -1.200483     -0.117739
  O      -0.405088      0.273512      1.849270
  H       0.396661      1.738880     -0.557012
  H      -0.737123      0.901079     -1.694896
  H      -1.396440      1.927219     -0.378372
  H       0.783385     -2.088199      0.519663
  H       0.569509     -1.487568     -1.157885
  H       1.672780     -0.606352     -0.022550
  Li     -0.744430      0.413890      3.675289
  C      -2.652965      1.393101      7.548077
  S      -1.024343      0.853221      6.953294
  C      -0.681637     -0.637453      7.932643
  O      -1.173050      0.437523      5.483289
  H      -3.370894      0.576551      7.418558
  H      -2.530181      1.658302      8.603772
  H      -2.933522      2.276269      6.968096
  H       0.283642     -1.029367      7.601463
  H      -0.620677     -0.318489      8.978785
  H      -1.488319     -1.361556      7.778185
21
Coordinates from ORCA-job DMSO_m1_shell2_oxidized_opt_relaxed E -1113.279033858958
  C      -0.543853      1.284222     -0.661653
  S      -0.679675     -0.192685      0.388394
  C       0.718007     -1.222250     -0.148678
  O      -0.416862      0.241414      1.838249
  H       0.448356      1.727047     -0.526403
  H      -0.701255      0.955673     -1.694689
  H      -1.338041      1.973103     -0.361827
  H       0.718081     -2.124079      0.469318
  H       0.534725     -1.484627     -1.196264
  H       1.646121     -0.653045     -0.032778
  Li     -0.743776      0.391873      3.676134
  C      -2.681890      1.363069      7.539210
  S      -1.028632      0.875221      6.964350
  C      -0.652175     -0.596396      7.961235
  O      -1.155509      0.433870      5.498441
  H      -3.367168      0.518781      7.411545
  H      -2.581561      1.644685      8.593033
  H      -2.991970      2.228597      6.947656
  H       0.326018     -0.966756      7.643142
  H      -0.608345     -0.269263      9.005715
  H      -1.437152     -1.343885      7.806363
21
Coordinates from ORCA-job DMSO_m1_shell2_oxidized_opt_relaxed E -1113.279085123986
  C      -0.592301      1.263841     -0.654648
  S      -0.671702     -0.225723      0.383881
  C       0.762452     -1.198024     -0.163587
  O      -0.415760      0.208115      1.836035
  H       0.384698      1.738106     -0.514796
  H      -0.739549      0.940743     -1.690825
  H      -1.408401      1.923270     -0.347713
  H       0.800711     -2.103519      0.447777
  H       0.589241     -1.460620     -1.212829
  H       1.666313     -0.591634     -0.044286
  Li     -0.734276      0.365955      3.679119
  C      -2.647124      1.403370      7.532868
  S      -1.004611      0.861032      6.975290
  C      -0.690081     -0.624447      7.973293
  O      -1.134642      0.420574      5.508380
  H      -3.355444      0.580155      7.393431
  H      -2.552145      1.679575      8.588561
  H      -2.923991      2.278954      6.939703
  H       0.276116     -1.031730      7.663945
  H      -0.644111     -0.303168      9.019485
  H      -1.501947     -1.340256      7.807409
21
Coordinates from ORCA-job DMSO_m1_shell2_oxidized_opt_relaxed E -1113.279111493076
  C      -0.632312      1.246371     -0.648908
  S      -0.660925     -0.250325      0.381570
  C       0.799622     -1.176929     -0.174302
  O      -0.412819      0.182812      1.835295
  H       0.329672      1.749578     -0.505611
  H      -0.769859      0.924886     -1.686876
  H      -1.468532      1.877559     -0.336909
  H       0.866727     -2.083637      0.432612
  H       0.632639     -1.438995     -1.224663
  H       1.683527     -0.542111     -0.052683
  Li     -0.726694      0.344639      3.681438
  C      -2.617574      1.436504      7.527556
  S      -0.987894      0.845433      6.982725
  C      -0.722286     -0.648434      7.981943
  O      -1.119608      0.407790      5.515074
  H      -3.347016      0.633580      7.378312
  H      -2.524414      1.706780      8.584891
  H      -2.863145      2.320956      6.933897
  H       0.233799     -1.083111      7.678755
  H      -0.675243     -0.330012      9.028933
  H      -1.554223     -1.338764      7.807445
21
Coordinates from ORCA-job DMSO_m1_shell2_oxidized_opt_relaxed E -1113.279141439629
  C      -0.726307      1.194141     -0.640888
  S      -0.630889     -0.301509      0.386501
  C       0.888250     -1.118186     -0.183789
  O      -0.401578      0.145185      1.838803
  H       0.194298      1.770003     -0.498859
  H      -0.842186      0.864864     -1.678988
  H      -1.608184      1.756330     -0.322844
  H       1.025955     -2.017895      0.421435
  H       0.732819     -1.389426     -1.233511
  H       1.722218     -0.418221     -0.066245
  Li     -0.711369      0.310578      3.685796
  C      -2.539671      1.511684      7.521591
  S      -0.951957      0.803987      6.992914
  C      -0.805226     -0.709711      7.986421
  O      -1.096427      0.382944      5.521947
  H      -3.323267      0.765578      7.352509
  H      -2.442371      1.763639      8.582988
  H      -2.709120      2.417076      6.933079
  H       0.121281     -1.208949      7.691229
  H      -0.750032     -0.401547      9.035992
  H      -1.682793     -1.335995      7.794412
21
Coordinates from ORCA-job DMSO_m1_shell2_oxidized_opt_relaxed E -1113.279136169046
  C      -0.814715      1.133420     -0.634352
  S      -0.598450     -0.348609      0.394400
  C       0.972071     -1.051451     -0.188604
  O      -0.389656      0.115524      1.843849
  H       0.059588      1.778425     -0.497614
  H      -0.909953      0.794211     -1.671322
  H      -1.735775      1.625784     -0.311722
  H       1.180806     -1.936659      0.417607
  H       0.828041     -1.335536     -1.236475
  H       1.751925     -0.290441     -0.078959
  Li     -0.697860      0.282273      3.689582
  C      -2.456088      1.579504      7.519405
  S      -0.919369      0.760536      7.000564
  C      -0.893314     -0.766560      7.984300
  O      -1.078217      0.360333      5.525709
  H      -3.290766      0.895255      7.333659
  H      -2.352694      1.812769      8.584447
  H      -2.550171      2.500432      6.938260
  H      -0.002204     -1.329006      7.693843
  H      -0.827656     -0.470433      9.036660
  H      -1.812100     -1.325199      7.777260
21
Coordinates from ORCA-job DMSO_m1_shell2_oxidized_opt_relaxed E -1113.279154479371
  C      -0.765948      1.166970     -0.639406
  S      -0.616656     -0.322402      0.390830
  C       0.927412     -1.087915     -0.184431
  O      -0.398398      0.133129      1.841467
  H       0.133704      1.775859     -0.501692
  H      -0.872232      0.830597     -1.676265
  H      -1.666848      1.697686     -0.320654
  H       1.097151     -1.980880      0.422694
  H       0.776085     -1.366641     -1.232745
  H       1.738373     -0.360582     -0.072421
  Li     -0.707443      0.298673      3.686947
  C      -2.502293      1.542760      7.522076
  S      -0.937531      0.784225      6.995021
  C      -0.844992     -0.736965      7.984167
  O      -1.089581      0.374040      5.522373
  H      -3.311561      0.825779      7.348135
  H      -2.398882      1.786182      8.584888
  H      -2.637820      2.456214      6.937238
  H       0.065700     -1.265006      7.689714
  H      -0.782933     -0.433376      9.034652
  H      -1.741863     -1.333774      7.787905
21
Coordinates from ORCA-job DMSO_m1_shell2_oxidized_opt_relaxed E -1113.279159501355
  C      -0.752380      1.175490     -0.640815
  S      -0.622004     -0.316084      0.389051
  C       0.915908     -1.096432     -0.183479
  O      -0.403579      0.135739      1.840624
  H       0.153384      1.775010     -0.502446
  H      -0.860695      0.840040     -1.677803
  H      -1.648165      1.715912     -0.323883
  H       1.075550     -1.991207      0.423786
  H       0.763074     -1.373712     -1.231974
  H       1.734764     -0.378161     -0.070706
  Li     -0.711916      0.301171      3.685821
  C      -2.513886      1.532724      7.523172
  S      -0.942212      0.790405      6.993269
  C      -0.832869     -0.728817      7.984127
  O      -1.092153      0.377915      5.521287
  H      -3.316945      0.807702      7.354144
  H      -2.409250      1.779587      8.585109
  H      -2.660694      2.443660      6.937090
  H       0.082333     -1.248258      7.688255
  H      -0.770863     -0.422649      9.033887
  H      -1.723958     -1.335464      7.791977
21
Coordinates from ORCA-job DMSO_m1_shell2_oxidized_opt_relaxed E -1113.279164645895
  C      -0.753724      1.174058     -0.641026
  S      -0.622645     -0.318513      0.387565
  C       0.918947     -1.093501     -0.183129
  O      -0.409508      0.131284      1.840342
  H       0.150277      1.775955     -0.501749
  H      -0.859633      0.838571     -1.678285
  H      -1.651433      1.712269     -0.325769
  H       1.080557     -1.987966      0.424117
  H       0.767583     -1.371234     -1.231728
  H       1.736229     -0.373574     -0.069989
  Li     -0.715864      0.297133      3.684929
  C      -2.511132      1.534520      7.523792
  S      -0.941009      0.789449      6.992863
  C      -0.835433     -0.730359      7.983695
  O      -1.091033      0.378305      5.520744
  H      -3.316740      0.811732      7.357623
  H      -2.403855      1.782238      8.585305
  H      -2.656935      2.445441      6.937400
  H       0.078170     -1.252300      7.687214
  H      -0.771349     -0.423630      9.033176
  H      -1.728029     -1.335307      7.793404
21
Coordinates from ORCA-job DMSO_m1_shell2_oxidized_opt_relaxed E -1113.279170477236
  C      -0.756013      1.172327     -0.640526
  S      -0.624148     -0.322680      0.384564
  C       0.923050     -1.089617     -0.182293
  O      -0.419616      0.123078      1.839731
  H       0.145485      1.777076     -0.497654
  H      -0.857395      0.838417     -1.678794
  H      -1.656644      1.707118     -0.327775
  H       1.087057     -1.984235      0.424108
  H       0.775467     -1.366877     -1.231578
  H       1.737306     -0.366740     -0.066483
  Li     -0.722431      0.289780      3.683458
  C      -2.506864      1.537482      7.523772
  S      -0.938809      0.788356      6.992484
  C      -0.838437     -0.732237      7.982959
  O      -1.088653      0.378812      5.520016
  H      -3.315174      0.817070      7.360596
  H      -2.397005      1.786503      8.584771
  H      -2.651335      2.448216      6.936734
  H       0.073060     -1.257663      7.686128
  H      -0.772247     -0.425284      9.032267
  H      -1.733211     -1.334331      7.794009
21
Coordinates from ORCA-job DMSO_m1_shell2_oxidized_opt_relaxed E -1113.279176674174
  C      -0.758835      1.170615     -0.639166
  S      -0.626645     -0.327826      0.380709
  C       0.927236     -1.085616     -0.179940
  O      -0.433326      0.112627      1.839070
  H       0.139696      1.778152     -0.489628
  H      -0.853561      0.839932     -1.679129
  H      -1.663118      1.701135     -0.329707
  H       1.092915     -1.981026      0.424829
  H       0.786036     -1.361134     -1.230590
  H       1.737386     -0.359056     -0.058563
  Li     -0.731528      0.280290      3.681421
  C      -2.501624      1.541125      7.522849
  S      -0.935884      0.787490      6.991673
  C      -0.840770     -0.734114      7.981046
  O      -1.085668      0.379846      5.518643
  H      -3.312093      0.822706      7.361598
  H      -2.389972      1.791173      8.583461
  H      -2.644535      2.451735      6.935235
  H       0.068729     -1.262912      7.684096
  H      -0.773175     -0.427761      9.030466
  H      -1.737821     -1.332810      7.792121
21
Coordinates from ORCA-job DMSO_m1_shell2_oxidized_opt_relaxed E -1113.279181219185
  C      -0.756342      1.172755     -0.637665
  S      -0.631020     -0.329315      0.377353
  C       0.925209     -1.086821     -0.176306
  O      -0.446062      0.106075      1.838448
  H       0.142157      1.778376     -0.480233
  H      -0.845510      0.846280     -1.679442
  H      -1.661696      1.703256     -0.331335
  H       1.086782     -1.984329      0.426427
  H       0.790296     -1.358891     -1.228692
  H       1.734732     -0.360797     -0.047564
  Li     -0.740627      0.274157      3.679356
  C      -2.501904      1.540375      7.521446
  S      -0.935082      0.789655      6.990054
  C      -0.836483     -0.732150      7.978327
  O      -1.084509      0.382491      5.516731
  H      -3.310347      0.819600      7.360342
  H      -2.390711      1.791134      8.581937
  H      -2.647260      2.450405      6.933550
  H       0.074087     -1.259013      7.681274
  H      -0.769742     -0.426583      9.028041
  H      -1.732524     -1.332089      7.788444
21
Coordinates from ORCA-job DMSO_m1_shell2_oxidized_opt_relaxed E -1113.279183123758
  C      -0.755013      1.173961     -0.636850
  S      -0.633229     -0.329306      0.376577
  C       0.923330     -1.088337     -0.173388
  O      -0.451294      0.104888      1.838450
  H       0.143502      1.778431     -0.474967
  H      -0.841212      0.849611     -1.679501
  H      -1.660844      1.704432     -0.331888
  H       1.081382     -1.987257      0.428151
  H       0.792130     -1.357964     -1.226861
  H       1.732955     -0.363238     -0.039890
  Li     -0.744915      0.272556      3.678421
  C      -2.502461      1.539739      7.520520
  S      -0.934830      0.791080      6.988809
  C      -0.833238     -0.730959      7.976032
  O      -1.084831      0.384191      5.515421
  H      -3.309258      0.817576      7.357223
  H      -2.392802      1.789366      8.581396
  H      -2.648450      2.450075      6.933271
  H       0.078655     -1.255520      7.678996
  H      -0.768068     -0.426543      9.026168
  H      -1.728064     -1.332211      7.784404
21
Coordinates from ORCA-job DMSO_m1_shell2_oxidized_opt_relaxed E -1113.279183733994
  C      -0.753872      1.174778     -0.636881
  S      -0.634012     -0.328419      0.376904
  C       0.921760     -1.089754     -0.172018
  O      -0.451888      0.106341      1.838537
  H       0.144983      1.778447     -0.473807
  H      -0.839461      0.850856     -1.679685
  H      -1.659496      1.705755     -0.332161
  H       1.077414     -1.989358      0.429124
  H       0.791649     -1.358240     -1.225902
  H       1.732243     -0.365927     -0.036719
  Li     -0.746059      0.273292      3.678221
  C      -2.503561      1.538869      7.520384
  S      -0.935154      0.791980      6.988166
  C      -0.831119     -0.730111      7.974983
  O      -1.085809      0.385015      5.514906
  H      -3.309332      0.815961      7.355252
  H      -2.395047      1.787262      8.581633
  H      -2.649804      2.449626      6.933852
  H       0.081826     -1.252789      7.677849
  H      -0.766966     -0.426265      9.025333
  H      -1.724852     -1.332746      7.782524
