21
Coordinates from ORCA-job DMSO_m1_shell2_reduced_opt_relaxed E -1113.820252806999
  C          -1.09522511816774     -0.72264446510911      0.29959979040649
  S          -0.98452380115005     -0.09369235123987      2.11891069092974
  C           0.81671940979881      0.25518769822801      1.99517461330600
  O          -1.79488230195416      1.24208198573162      1.79901233722456
  H          -0.70934661369780      0.04798752573473     -0.37336099708153
  H          -0.53151697827232     -1.65614024124557      0.20929970852229
  H          -2.15638812338709     -0.89208838460101      0.10885409266197
  H           1.20275782847317      0.45840567614857      2.99576302818311
  H           1.33506047374925     -0.59736679940040      1.54200800499185
  H           0.92603428493452      1.13744429677413      1.35628073117280
  Li         -2.03175779616602      2.21650911555344      3.28922718174873
  C          -0.38800991933257      1.02875175125767      7.07476742730791
  S          -0.67807140630300      0.69034363568717      5.20043148271338
  C          -1.81111656711288     -0.72070780686339      5.52594539773660
  O          -1.54392363309997      2.01560633101326      5.00535703460816
  H          -1.35219440056513      1.17613878981280      7.56910203841417
  H           0.16395212373524      0.18986186211755      7.50948920455649
  H           0.20271193993246      1.94531579438209      7.12257304615261
  H          -1.99112807671437     -1.24826259964806      4.58749832621573
  H          -1.37185590245744     -1.39142229055885      6.27305500150518
  H          -2.74385242224289     -0.29673852377477      5.91150585872362
