17
Coordinates from ORCA-job TMP_cation_cpcm_14_default E -761.703655895262
  C           2.44417545804079     -1.02042128484556     -0.10566037143577
  O           1.48196534378253      0.10068412159095     -0.13391211651169
  P           0.05574805779085     -0.02389689646457     -0.74039254015964
  O          -0.07324890380429     -0.59312653306186     -2.14972717491023
  O          -0.69642492104221     -1.16316106974768      0.10033256929451
  C          -2.12933781951806     -1.22250228534960      0.31400209852711
  O          -0.63553004500399      1.36006535478184     -0.61241535657473
  C          -0.31785796253283      2.35239848002494      0.43583234028732
  H           3.38596814890264     -0.56850075577257      0.19743831796883
  H           2.51709940046340     -1.45621338360073     -1.10364903659128
  H           2.10221297150442     -1.75284957536816      0.62713244599948
  H          -2.44968958262506     -2.22102568444146      0.00976294295098
  H          -2.64586332334487     -0.42544043446318     -0.22306971828918
  H          -2.26338702365194     -1.11148785397585      1.39876499493628
  H          -0.40112627815279      1.88026696052520      1.41652297394571
  H          -1.06412575714106      3.13351748028938      0.30877302407979
  H           0.68942222633250      2.73169336987872      0.26026459648242
