17
 energy: -29.400149888613 gnorm: 0.000647463025 xtb: 6.7.1pre (5071a88)
C            2.26245649386026       -1.06858855530186       -0.21600233799602
O            1.29374195680298       -0.16227880387800        0.21848769217735
P           -0.07309489147085        0.06634851649581       -0.61934879548350
O           -0.16572510174487       -0.61790835226136       -1.88802502511306
O           -1.16722265781533       -0.36957812677830        0.49614978474762
C           -2.08253272456110       -1.39101357188642        0.24955992898867
O           -0.21192891140785        1.64081837084065       -0.63982653322092
C           -0.12567265427159        2.50507785774741        0.46356820560795
H            3.24091134458747       -0.57412447295745       -0.13980955790755
H            2.06600559939334       -1.41112551667375       -1.23483836555929
H            2.30430514630169       -1.92501702390135        0.47285201071580
H           -1.86753811115142       -2.24581095303226        0.90860516870378
H           -2.06307584386325       -1.70672187103435       -0.79669990129992
H           -3.07818252926147       -1.03145487209939        0.54519297198573
H            0.12468286890713        1.98513175568860        1.38798527536727
H           -1.08290912096459        3.03466291919126        0.56147785681195
H            0.62577912665956        3.27158270984051        0.23067161147397
