13
 energy: -23.973933545406 gnorm: 0.000507130854 xtb: 6.7.1pre (5071a88)
C            1.41539818904938       -0.38883819341169       -0.09449028750953
C            0.04145428519808       -0.44880272701239        0.58013137891650
C           -0.64837475557222        0.94783359698532        0.59125591161679
O           -1.73869480777169        0.83248087474141       -0.26244065153256
C           -1.53570236067582       -0.37956998226563       -1.08001192726258
O           -1.09337401754288       -0.26144153772750       -2.25986213815363
O           -0.84659505081775       -1.25713562309885       -0.12921507279621
H            2.07047144336914        0.31908581029206        0.41478841578002
H            1.26610792874233       -0.08225987837429       -1.12748548598386
H            1.87421297806158       -1.37643779332998       -0.08746840947441
H            0.14077745750436       -0.84918905212746        1.60422081985358
H            0.05439761776030        1.72806075455548        0.24916051517969
H           -1.00007889730477        1.21621376077355        1.60141692136620
