13
Coordinates from ORCA-job PC_anion_cpcm_40_moread E -381.724826157198
  C           1.56048073689097     -0.34139439293653     -0.00049558159748
  C           0.13149642040028     -0.41364672817326      0.51480439100600
  C          -0.57733014310454      0.95441786884789      0.53180366535870
  O          -1.25179229090752      1.00864179765026     -0.71887815396430
  C          -1.74951087044714     -0.34913633495354     -0.93837575252320
  O          -2.14997060952921     -0.63185143800093     -2.09932258951750
  O          -0.67098855153623     -1.19623142320800     -0.37979096731787
  H           2.19650952357877      0.19643630597529      0.71304090807755
  H           1.59201813101471      0.18371357793228     -0.96201628895407
  H           1.97316369742124     -1.34609140617287     -0.13907812294991
  H           0.11636056547283     -0.87022292301321      1.51562098790669
  H           0.12526766778834      1.79143329303755      0.59766287381581
  H          -1.29570426704246      1.01393181301508      1.36502462065958
