18
Coordinates from ORCA-job DEC_anion_cpcm_20_moread E -422.146286561789
  C      -3.096416      0.395636      0.369268
  C      -2.371148     -0.816987     -0.195162
  O      -1.030604     -0.901608      0.296181
  C      -0.118900     -0.173806     -0.347027
  O      -0.316782      0.511242     -1.311202
  O       1.059255     -0.344734      0.247145
  C       2.159884      0.354984     -0.341958
  C       3.402255      0.047096      0.471625
  H      -2.612420      1.308209      0.029924
  H      -3.081992      0.369649      1.456122
  H      -4.127128      0.395722      0.026351
  H      -2.347708     -0.770232     -1.288604
  H      -2.844110     -1.745990      0.129159
  H       2.271820      0.028994     -1.381919
  H       1.938748      1.428018     -0.344128
  H       4.256105      0.564490      0.044198
  H       3.593931     -1.022245      0.468976
  H       3.265210      0.371561      1.499335
18
Coordinates from ORCA-job DEC_anion_cpcm_20_moread E -422.170566996519
  C      -3.013472      0.427447      0.401356
  C      -2.401067     -0.830809     -0.196262
  O      -1.032693     -0.995969      0.211288
  C      -0.107608     -0.322917     -0.500977
  O      -0.338464      0.490042     -1.377046
  O       1.060920     -0.437305      0.156079
  C       2.148805      0.351950     -0.353873
  C       3.360242      0.087431      0.517498
  H      -2.500111      1.312558      0.020995
  H      -2.932692      0.412698      1.490562
  H      -4.069239      0.487245      0.124493
  H      -2.445794     -0.798875     -1.291914
  H      -2.909421     -1.728052      0.165311
  H       2.333013      0.064386     -1.398973
  H       1.865154      1.411331     -0.336555
  H       4.208009      0.668854      0.150089
  H       3.619376     -0.973382      0.494920
  H       3.155042      0.373367      1.551293
18
Coordinates from ORCA-job DEC_anion_cpcm_20_moread E -422.194421235500
  C      -2.927266      0.453412      0.428834
  C      -2.414216     -0.837304     -0.192458
  O      -1.036815     -1.085484      0.132770
  C      -0.097311     -0.456752     -0.654833
  O      -0.361305      0.483041     -1.431163
  O       1.066684     -0.521960      0.074940
  C       2.126959      0.341711     -0.362245
  C       3.310285      0.124689      0.559121
  H      -2.390895      1.310402      0.014781
  H      -2.787574      0.440083      1.513454
  H      -3.995702      0.569710      0.212004
  H      -2.519926     -0.807973     -1.286171
  H      -2.955376     -1.702908      0.201054
  H       2.376683      0.088231     -1.406083
  H       1.785543      1.383940     -0.337944
  H       4.142508      0.761045      0.244317
  H       3.632829     -0.919998      0.528025
  H       3.044896      0.376114      1.589880
18
Coordinates from ORCA-job DEC_anion_cpcm_20_moread E -422.204209043766
  C      -2.901518      0.461542      0.442911
  C      -2.431290     -0.840943     -0.187604
  O      -1.056873     -1.134159      0.101142
  C      -0.093051     -0.518338     -0.742468
  O      -0.375884      0.499475     -1.468547
  O       1.088046     -0.561223      0.042393
  C       2.130538      0.332415     -0.366042
  C       3.300014      0.143585      0.578735
  H      -2.355189      1.306145      0.016036
  H      -2.738059      0.446491      1.525709
  H      -3.973876      0.604869      0.253388
  H      -2.565900     -0.809163     -1.278962
  H      -2.995363     -1.688807      0.217181
  H       2.415565      0.094937     -1.405596
  H       1.764908      1.366995     -0.345141
  H       4.123935      0.804090      0.286842
  H       3.655678     -0.891643      0.551827
  H       3.008319      0.383731      1.606478
18
Coordinates from ORCA-job DEC_anion_cpcm_20_moread E -422.206664715952
  C      -2.832796      0.469765      0.469748
  C      -2.416778     -0.830459     -0.202452
  O      -1.054248     -1.180681      0.060456
  C      -0.085984     -0.603539     -0.831620
  O      -0.384366      0.479321     -1.445974
  O       1.073273     -0.602972      0.014378
  C       2.100852      0.307771     -0.383776
  C       3.247356      0.175542      0.598434
  H      -2.262499      1.306601      0.060336
  H      -2.657410      0.418184      1.549817
  H      -3.900571      0.655291      0.302345
  H      -2.577218     -0.767549     -1.287959
  H      -3.011143     -1.664185      0.190574
  H       2.433887      0.067404     -1.406208
  H       1.710561      1.334325     -0.397132
  H       4.060662      0.853312      0.318699
  H       3.636936     -0.847427      0.606914
  H       2.919486      0.429295      1.611705
18
Coordinates from ORCA-job DEC_anion_cpcm_20_moread E -422.207753674321
  C      -2.925948      0.444567      0.474620
  C      -2.432145     -0.823229     -0.207791
  O      -1.068781     -1.128490      0.098536
  C      -0.083081     -0.537531     -0.788056
  O      -0.378495      0.535673     -1.426731
  O       1.088706     -0.537358      0.064647
  C       2.151041      0.301305     -0.389742
  C       3.305555      0.162702      0.583006
  H      -2.375636      1.313335      0.105922
  H      -2.789917      0.375892      1.559942
  H      -3.994959      0.591102      0.272207
  H      -2.562042     -0.747005     -1.296994
  H      -3.011873     -1.685112      0.147533
  H       2.461826     -0.002281     -1.404120
  H       1.813111      1.344608     -0.450681
  H       4.147008      0.786030      0.260030
  H       3.648456     -0.876095      0.638380
  H       3.007174      0.481887      1.587576
18
Coordinates from ORCA-job DEC_anion_cpcm_20_moread E -422.208470865942
  C      -3.008646      0.411695      0.476082
  C      -2.432973     -0.816179     -0.215615
  O      -1.072595     -1.064640      0.139429
  C      -0.083498     -0.450191     -0.740587
  O      -0.383721      0.618640     -1.371611
  O       1.089749     -0.449614      0.124630
  C       2.190085      0.289358     -0.397653
  C       3.353132      0.147159      0.565171
  H      -2.481038      1.314130      0.156468
  H      -2.917571      0.318691      1.564215
  H      -4.073553      0.519174      0.231794
  H      -2.528864     -0.720621     -1.306432
  H      -2.991710     -1.709539      0.095783
  H       2.468754     -0.096025     -1.394429
  H       1.916996      1.346284     -0.524880
  H       4.223637      0.697089      0.189746
  H       3.637879     -0.903799      0.684991
  H       3.093937      0.548390      1.551182
18
Coordinates from ORCA-job DEC_anion_cpcm_20_moread E -422.209014292771
  C      -3.116928      0.357968      0.467254
  C      -2.416059     -0.805763     -0.220329
  O      -1.063100     -0.953641      0.201426
  C      -0.085180     -0.299151     -0.672522
  O      -0.400138      0.768636     -1.273986
  O       1.085256     -0.299247      0.208699
  C       2.231687      0.273746     -0.404830
  C       3.409566      0.113870      0.537801
  H      -2.642006      1.306887      0.203124
  H      -3.079464      0.240314      1.556032
  H      -4.171979      0.396251      0.166855
  H      -2.467411     -0.689491     -1.311804
  H      -2.926726     -1.744581      0.038182
  H       2.443026     -0.228928     -1.366073
  H       2.061152      1.336840     -0.630368
  H       4.313764      0.541218      0.089923
  H       3.601501     -0.943099      0.751845
  H       3.223040      0.628170      1.487056
18
Coordinates from ORCA-job DEC_anion_cpcm_20_moread E -422.209094926120
  C      -3.128467      0.351829      0.461063
  C      -2.410981     -0.807029     -0.217316
  O      -1.057969     -0.936263      0.212429
  C      -0.086349     -0.277496     -0.661390
  O      -0.404067      0.795320     -1.251771
  O       1.082668     -0.281151      0.218113
  C       2.234101      0.273619     -0.404962
  C       3.414915      0.106372      0.532577
  H      -2.661574      1.304312      0.195220
  H      -3.095879      0.239555      1.550565
  H      -4.181738      0.378558      0.153745
  H      -2.454657     -0.693789     -1.309681
  H      -2.912260     -1.750765      0.040588
  H       2.431847     -0.238573     -1.363546
  H       2.075764      1.337898     -0.635969
  H       4.320872      0.522469      0.078094
  H       3.596062     -0.951656      0.750378
  H       3.237712      0.626791      1.480147
18
Coordinates from ORCA-job DEC_anion_cpcm_20_moread E -422.209181068406
  C      -3.151642      0.341750      0.446531
  C      -2.401411     -0.809022     -0.209039
  O      -1.049120     -0.901519      0.237797
  C      -0.088142     -0.239967     -0.635732
  O      -0.408301      0.843595     -1.210032
  O       1.080659     -0.252753      0.234504
  C       2.238549      0.275275     -0.404911
  C       3.425542      0.090668      0.521032
  H      -2.699249      1.299421      0.174600
  H      -3.130311      0.243316      1.537622
  H      -4.200583      0.345273      0.124227
  H      -2.427945     -0.705587     -1.303295
  H      -2.883234     -1.761409      0.051634
  H       2.409198     -0.248242     -1.361592
  H       2.098715      1.341971     -0.638733
  H       4.332805      0.491495      0.056135
  H       3.589632     -0.970105      0.738816
  H       3.264838      0.615839      1.468718
18
Coordinates from ORCA-job DEC_anion_cpcm_20_moread E -422.209203888531
  C      -3.164331      0.338179      0.437203
  C      -2.398013     -0.809915     -0.203849
  O      -1.047419     -0.885001      0.253367
  C      -0.088733     -0.224630     -0.620079
  O      -0.408631      0.863586     -1.190207
  O       1.083008     -0.242682      0.242684
  C       2.241101      0.278171     -0.403655
  C       3.432463      0.082154      0.514088
  H      -2.718900      1.297677      0.160283
  H      -3.149632      0.248954      1.529176
  H      -4.210852      0.328980      0.107301
  H      -2.416139     -0.714845     -1.298979
  H      -2.871160     -1.765482      0.060789
  H       2.399279     -0.245260     -1.362397
  H       2.107253      1.346297     -0.633661
  H       4.339266      0.478702      0.044643
  H       3.590590     -0.980441      0.727342
  H       3.280849      0.605554      1.464235
18
Coordinates from ORCA-job DEC_anion_cpcm_20_moread E -422.209226880065
  C      -3.186576      0.332707      0.421804
  C      -2.392803     -0.809924     -0.194736
  O      -1.046583     -0.856686      0.280481
  C      -0.088891     -0.201715     -0.595052
  O      -0.406713      0.891335     -1.162935
  O       1.088832     -0.227344      0.256138
  C       2.245600      0.284085     -0.400572
  C       3.444539      0.067816      0.502410
  H      -2.753794      1.295712      0.137169
  H      -3.183807      0.258220      1.514950
  H      -4.228724      0.300708      0.079610
  H      -2.398214     -0.730110     -1.291091
  H      -2.852364     -1.770223      0.076997
  H       2.385423     -0.236036     -1.364050
  H       2.120853      1.354656     -0.622683
  H       4.350448      0.457725      0.025550
  H       3.593519     -0.997807      0.706852
  H       3.309256      0.586881      1.457441
18
Coordinates from ORCA-job DEC_anion_cpcm_20_moread E -422.209238420782
  C      -3.204353      0.328730      0.408640
  C      -2.388179     -0.809679     -0.185942
  O      -1.046496     -0.832460      0.303741
  C      -0.088818     -0.184755     -0.576215
  O      -0.403820      0.909964     -1.144756
  O       1.093665     -0.215928      0.266858
  C       2.248504      0.290269     -0.396886
  C       3.454000      0.055645      0.492588
  H      -2.782157      1.294406      0.117079
  H      -3.212189      0.267127      1.502553
  H      -4.242372      0.277214      0.056420
  H      -2.383693     -0.744150     -1.283199
  H      -2.837448     -1.772982      0.092898
  H       2.374659     -0.223632     -1.365676
  H       2.130981      1.363377     -0.610034
  H       4.358836      0.441372      0.010175
  H       3.595883     -1.012798      0.686988
  H       3.332999      0.568280      1.453051
18
Coordinates from ORCA-job DEC_anion_cpcm_20_moread E -422.209249881047
  C      -3.218668      0.327622      0.393705
  C      -2.384180     -0.810878     -0.174665
  O      -1.047302     -0.810924      0.327749
  C      -0.088970     -0.174656     -0.559860
  O      -0.399499      0.920034     -1.131495
  O       1.098555     -0.211798      0.275268
  C       2.249322      0.299143     -0.391141
  C       3.462236      0.043783      0.482344
  H      -2.804495      1.293516      0.091399
  H      -3.236982      0.282936      1.488323
  H      -4.252553      0.258033      0.032580
  H      -2.370740     -0.764172     -1.272837
  H      -2.826236     -1.774378      0.115525
  H       2.364722     -0.199546     -1.369248
  H       2.135185      1.375919     -0.586892
  H       4.364486      0.432325     -0.002761
  H       3.600752     -1.028327      0.657978
  H       3.354369      0.541368      1.452310
18
Coordinates from ORCA-job DEC_anion_cpcm_20_moread E -422.209259640803
  C      -3.225183      0.329483      0.382557
  C      -2.382203     -0.813089     -0.164872
  O      -1.048216     -0.798987      0.343907
  C      -0.089260     -0.173952     -0.552283
  O      -0.395007      0.919412     -1.127348
  O       1.101778     -0.216258      0.278084
  C       2.248101      0.306951     -0.385670
  C       3.466620      0.036477      0.475386
  H      -2.814055      1.293247      0.069636
  H      -3.249894      0.299821      1.477588
  H      -4.256637      0.249432      0.016688
  H      -2.363891     -0.782790     -1.263682
  H      -2.822196     -1.774220      0.136490
  H       2.359224     -0.173640     -1.373291
  H       2.132698      1.386964     -0.562223
  H       4.365821      0.433518     -0.008498
  H       3.606460     -1.038597      0.630722
  H       3.365838      0.516227      1.455093
18
Coordinates from ORCA-job DEC_anion_cpcm_20_moread E -422.209263901669
  C      -3.226399      0.331081      0.378236
  C      -2.381745     -0.814670     -0.160126
  O      -1.048240     -0.795365      0.349529
  C      -0.089540     -0.175525     -0.551798
  O      -0.392287      0.917420     -1.127151
  O       1.102796     -0.221629      0.277164
  C       2.247035      0.309988     -0.383452
  C       3.467625      0.034218      0.473007
  H      -2.815406      1.293033      0.059799
  H      -3.252907      0.308725      1.473419
  H      -4.257161      0.248198      0.011080
  H      -2.361995     -0.791621     -1.259239
  H      -2.821816     -1.773981      0.146731
  H       2.357851     -0.160976     -1.375647
  H       2.129639      1.391462     -0.549843
  H       4.365111      0.437504     -0.008795
  H       3.609583     -1.042065      0.617853
  H       3.367858      0.504203      1.457516
18
Coordinates from ORCA-job DEC_anion_cpcm_20_moread E -422.209264724204
  C      -3.225973      0.331590      0.377742
  C      -2.381964     -0.815294     -0.159266
  O      -1.048135     -0.795711      0.349864
  C      -0.089795     -0.176189     -0.552479
  O      -0.391606      0.917406     -1.126473
  O       1.102948     -0.224377      0.275966
  C       2.246796      0.309984     -0.383499
  C       3.467495      0.034343      0.472872
  H      -2.814246      1.292805      0.058007
  H      -3.252337      0.310756      1.472957
  H      -4.256755      0.249320      0.010550
  H      -2.361965     -0.793150     -1.258453
  H      -2.822299     -1.774081      0.148624
  H       2.358029     -0.159140     -1.376456
  H       2.128180      1.391665     -0.547654
  H       4.364478      0.439821     -0.007970
  H       3.610602     -1.042059      0.615757
  H       3.366548      0.502312      1.458194
