18
Coordinates from ORCA-job DEC_anion_cpcm_200_moread E -422.214396961750
  C          -3.23566805443320      0.32779478117634      0.37435652666117
  C          -2.38079710389528     -0.81372716653407     -0.15578271883437
  O          -1.04717735750588     -0.78095939939758      0.35701705471351
  C          -0.08911661996790     -0.16615253378801     -0.54653023361598
  O          -0.38970530129451      0.92716939064474     -1.12365360560847
  O           1.10373733387457     -0.21412245491526      0.27949546712701
  C           2.25099114521399      0.31181102065604     -0.38362224901656
  C           3.47158639960380      0.02900793059418      0.47005073755031
  H          -2.83418930784868      1.29213350665200      0.05076770301056
  H          -3.26416895509214      0.31196403183099      1.46956228647957
  H          -4.26485918185346      0.23339170254708      0.00612729374395
  H          -2.35766230854194     -0.79697823865082     -1.25485380064888
  H          -2.81335397947093     -1.77477948757010      0.15523367473010
  H           2.35610377656689     -0.15973417522181     -1.37584706695532
  H           2.13913589493102      1.39400011804406     -0.54848161864947
  H           4.36947350322662      0.42857962734919     -0.01376333760380
  H           3.60888916213657     -1.04810644517004      0.61307110054993
  H           3.37678096435047      0.49870780175307      1.45513636636676
