18
Coordinates from ORCA-job DEC_anion_cpcm_200_moread E -422.153078848544
  C      -3.096416      0.395636      0.369268
  C      -2.371148     -0.816987     -0.195162
  O      -1.030604     -0.901608      0.296181
  C      -0.118900     -0.173806     -0.347027
  O      -0.316782      0.511242     -1.311202
  O       1.059255     -0.344734      0.247145
  C       2.159884      0.354984     -0.341958
  C       3.402255      0.047096      0.471625
  H      -2.612420      1.308209      0.029924
  H      -3.081992      0.369649      1.456122
  H      -4.127128      0.395722      0.026351
  H      -2.347708     -0.770232     -1.288604
  H      -2.844110     -1.745990      0.129159
  H       2.271820      0.028994     -1.381919
  H       1.938748      1.428018     -0.344128
  H       4.256105      0.564490      0.044198
  H       3.593931     -1.022245      0.468976
  H       3.265210      0.371561      1.499335
18
Coordinates from ORCA-job DEC_anion_cpcm_200_moread E -422.175764862435
  C      -3.010885      0.428108      0.402394
  C      -2.401810     -0.830883     -0.196537
  O      -1.031952     -0.996864      0.208641
  C      -0.107555     -0.325666     -0.504316
  O      -0.338227      0.484919     -1.381583
  O       1.059795     -0.438432      0.153110
  C       2.148641      0.352663     -0.354378
  C       3.358429      0.087937      0.518913
  H      -2.497755      1.312890      0.020566
  H      -2.927270      0.413359      1.491477
  H      -4.067204      0.488840      0.128347
  H      -2.449754     -0.799159     -1.291847
  H      -2.910213     -1.727384      0.166717
  H       2.335489      0.067252     -1.399308
  H       1.864000      1.411696     -0.335869
  H       4.206156      0.670779      0.153792
  H       3.619065     -0.972671      0.495439
  H       3.151048      0.372615      1.552727
18
Coordinates from ORCA-job DEC_anion_cpcm_200_moread E -422.199421956845
  C      -2.924611      0.454055      0.429976
  C      -2.415104     -0.837042     -0.192925
  O      -1.036078     -1.086176      0.129781
  C      -0.097027     -0.459874     -0.658135
  O      -0.360480      0.477509     -1.435944
  O       1.065483     -0.523131      0.071911
  C       2.126826      0.342354     -0.362753
  C       3.308342      0.125243      0.560582
  H      -2.388946      1.311057      0.014882
  H      -2.782072      0.440255      1.514242
  H      -3.993311      0.571180      0.216175
  H      -2.524028     -0.807899     -1.286083
  H      -2.955869     -1.701971      0.202233
  H       2.379041      0.090877     -1.406173
  H       1.784215      1.384078     -0.337450
  H       4.140186      0.762963      0.247966
  H       3.632541     -0.918996      0.528877
  H       3.040892      0.375517      1.591122
18
Coordinates from ORCA-job DEC_anion_cpcm_200_moread E -422.209253891351
  C      -2.902273      0.461655      0.444116
  C      -2.433283     -0.840529     -0.187573
  O      -1.056767     -1.133336      0.098491
  C      -0.092529     -0.519469     -0.745148
  O      -0.374503      0.495879     -1.475711
  O       1.088025     -0.560933      0.039685
  C       2.132666      0.333305     -0.366418
  C       3.300257      0.143394      0.580132
  H      -2.358253      1.307353      0.016422
  H      -2.736393      0.446596      1.526497
  H      -3.975064      0.603944      0.257252
  H      -2.570646     -0.809582     -1.278443
  H      -2.995545     -1.688473      0.218955
  H       2.419399      0.096751     -1.405586
  H       1.767015      1.367746     -0.344776
  H       4.124361      0.804161      0.289825
  H       3.656318     -0.891682      0.553005
  H       3.007214      0.383220      1.607556
18
Coordinates from ORCA-job DEC_anion_cpcm_200_moread E -422.211712675565
  C      -2.833181      0.469737      0.471686
  C      -2.418190     -0.829412     -0.202687
  O      -1.054033     -1.180226      0.057507
  C      -0.085276     -0.605611     -0.834373
  O      -0.383005      0.475433     -1.453912
  O       1.073055     -0.602889      0.011696
  C       2.102700      0.308297     -0.384407
  C       3.246981      0.175788      0.599950
  H      -2.264855      1.308284      0.062945
  H      -2.656376      0.416900      1.551423
  H      -3.901259      0.654520      0.306263
  H      -2.580604     -0.766286     -1.287741
  H      -3.010997     -1.663669      0.190944
  H       2.437557      0.067689     -1.406000
  H       1.712475      1.334771     -0.397992
  H       4.060556      0.853451      0.321205
  H       3.636789     -0.847066      0.609225
  H       2.917663      0.430290      1.612551
18
Coordinates from ORCA-job DEC_anion_cpcm_200_moread E -422.212807851296
  C      -2.925972      0.444522      0.476216
  C      -2.433390     -0.822292     -0.208210
  O      -1.068236     -1.127894      0.095716
  C      -0.082493     -0.539176     -0.789826
  O      -0.377293      0.532034     -1.432741
  O       1.088011     -0.537049      0.062254
  C       2.152603      0.301844     -0.390415
  C       3.305049      0.162930      0.584318
  H      -2.377748      1.314924      0.108183
  H      -2.788725      0.374784      1.561251
  H      -3.995195      0.590278      0.275556
  H      -2.564995     -0.746190     -1.297033
  H      -3.011478     -1.684633      0.147820
  H       2.464714     -0.002351     -1.403979
  H       1.814792      1.345052     -0.451480
  H       4.146754      0.786021      0.262089
  H       3.648021     -0.875752      0.640310
  H       3.005581      0.482949      1.588253
18
Coordinates from ORCA-job DEC_anion_cpcm_200_moread E -422.213575033962
  C      -3.014883      0.409187      0.477641
  C      -2.434407     -0.814663     -0.216395
  O      -1.072184     -1.059227      0.139138
  C      -0.082852     -0.445045     -0.739380
  O      -0.383050      0.622557     -1.373199
  O       1.089556     -0.442913      0.125807
  C       2.194881      0.288834     -0.399125
  C       3.356129      0.146161      0.565431
  H      -2.492236      1.315660      0.161145
  H      -2.924897      0.314088      1.565653
  H      -4.079961      0.512209      0.232894
  H      -2.530275     -0.718549     -1.306979
  H      -2.989525     -1.710614      0.093295
  H       2.472602     -0.103104     -1.393458
  H       1.926643      1.346265     -0.531386
  H       4.228995      0.690324      0.187433
  H       3.636775     -0.905254      0.690620
  H       3.098689      0.554085      1.549147
18
Coordinates from ORCA-job DEC_anion_cpcm_200_moread E -422.214123306029
  C      -3.124559      0.354843      0.466405
  C      -2.416729     -0.804760     -0.220032
  O      -1.062170     -0.945826      0.203100
  C      -0.084881     -0.289976     -0.669013
  O      -0.400686      0.778418     -1.270557
  O       1.085819     -0.290232      0.210713
  C       2.236556      0.273743     -0.405744
  C       3.413555      0.111037      0.537104
  H      -2.657737      1.307730      0.201743
  H      -3.087175      0.238514      1.555316
  H      -4.179754      0.385020      0.166021
  H      -2.467963     -0.690663     -1.311583
  H      -2.922087     -1.746118      0.038807
  H       2.444399     -0.234680     -1.364562
  H       2.072161      1.336758     -0.635373
  H       4.319592      0.531326      0.086496
  H       3.600369     -0.946001      0.755269
  H       3.231292      0.630868      1.484172
18
Coordinates from ORCA-job DEC_anion_cpcm_200_moread E -422.214212509145
  C      -3.137220      0.347992      0.461041
  C      -2.410977     -0.804980     -0.217202
  O      -1.056683     -0.926388      0.214741
  C      -0.085702     -0.267597     -0.657991
  O      -0.403826      0.805265     -1.249411
  O       1.083014     -0.270577      0.220488
  C       2.239213      0.272846     -0.406361
  C       3.418844      0.103565      0.531901
  H      -2.679016      1.305172      0.196697
  H      -3.105726      0.235293      1.550505
  H      -4.190232      0.366098      0.152680
  H      -2.453694     -0.692545     -1.309578
  H      -2.905997     -1.752068      0.039565
  H       2.432999     -0.246920     -1.361460
  H       2.087952      1.336708     -0.643492
  H       4.326936      0.511019      0.074117
  H       3.593950     -0.954190      0.755808
  H       3.246165      0.631307      1.476235
18
Coordinates from ORCA-job DEC_anion_cpcm_200_moread E -422.214303457292
  C      -3.159437      0.338152      0.447668
  C      -2.401264     -0.806269     -0.209187
  O      -1.047975     -0.891656      0.239850
  C      -0.087203     -0.232508     -0.633580
  O      -0.406911      0.850402     -1.210602
  O       1.080743     -0.243580      0.235952
  C       2.243118      0.273818     -0.406704
  C       3.428478      0.088827      0.520841
  H      -2.714596      1.300430      0.179057
  H      -3.139743      0.237342      1.538523
  H      -4.207707      0.334568      0.123806
  H      -2.426454     -0.701941     -1.303217
  H      -2.877225     -1.761978      0.049278
  H       2.410773     -0.257242     -1.359481
  H       2.109245      1.339723     -0.647269
  H       4.337625      0.481609      0.053051
  H       3.587377     -0.971279      0.745478
  H       3.271154      0.621581      1.464820
18
Coordinates from ORCA-job DEC_anion_cpcm_200_moread E -422.214328855700
  C      -3.172211      0.334529      0.438521
  C      -2.397811     -0.806999     -0.203875
  O      -1.046286     -0.874626      0.255683
  C      -0.087672     -0.217575     -0.618095
  O      -0.406859      0.869791     -1.191645
  O       1.083124     -0.233651      0.243970
  C       2.245658      0.276679     -0.405535
  C       3.435299      0.080371      0.513932
  H      -2.734332      1.298632      0.165110
  H      -3.159278      0.242723      1.530255
  H      -4.217910      0.318318      0.106887
  H      -2.414382     -0.710705     -1.298736
  H      -2.864960     -1.765922      0.058379
  H       2.400852     -0.254282     -1.360348
  H       2.117627      1.343970     -0.642309
  H       4.343916      0.468961      0.041648
  H       3.588309     -0.981536      0.734083
  H       3.286916      0.611322      1.460359
18
Coordinates from ORCA-job DEC_anion_cpcm_200_moread E -422.214356889169
  C      -3.198135      0.327648      0.420532
  C      -2.391445     -0.807077     -0.192989
  O      -1.045180     -0.840596      0.287550
  C      -0.087910     -0.190036     -0.588889
  O      -0.404821      0.902846     -1.160001
  O       1.089659     -0.214728      0.259887
  C       2.250850      0.283645     -0.402030
  C       3.449180      0.063404      0.500274
  H      -2.775387      1.295787      0.137742
  H      -3.199074      0.253261      1.513643
  H      -4.238453      0.284692      0.074571
  H      -2.392883     -0.728200     -1.289209
  H      -2.842312     -1.771569      0.077494
  H       2.384023     -0.244001     -1.362087
  H       2.134057      1.353753     -0.630065
  H       4.356769      0.443611      0.019089
  H       3.590913     -1.002046      0.710541
  H       3.320149      0.589605      1.452230
18
Coordinates from ORCA-job DEC_anion_cpcm_200_moread E -422.214368778065
  C      -3.213192      0.324793      0.407741
  C      -2.387464     -0.807534     -0.184282
  O      -1.045447     -0.819543      0.309025
  C      -0.088017     -0.176252     -0.571786
  O      -0.402328      0.917953     -1.143999
  O       1.094146     -0.205969      0.269306
  C       2.252893      0.290309     -0.398105
  C       3.457519      0.052209      0.491101
  H      -2.799433      1.294432      0.116744
  H      -3.223446      0.263897      1.501635
  H      -4.249784      0.264445      0.053273
  H      -2.380140     -0.743196     -1.281387
  H      -2.829675     -1.773898      0.094266
  H       2.374007     -0.229217     -1.364263
  H       2.141611      1.363125     -0.615476
  H       4.363631      0.430527      0.005520
  H       3.593781     -1.016175      0.689656
  H       3.341338      0.570093      1.449314
18
Coordinates from ORCA-job DEC_anion_cpcm_200_moread E -422.214382463390
  C      -3.226466      0.324717      0.391364
  C      -2.383669     -0.809656     -0.171860
  O      -1.046651     -0.798932      0.333837
  C      -0.088385     -0.167860     -0.555254
  O      -0.398090      0.926018     -1.131014
  O       1.099234     -0.203789      0.277576
  C       2.252967      0.300734     -0.391371
  C       3.465663      0.039876      0.480281
  H      -2.820212      1.293353      0.086734
  H      -3.246869      0.283597      1.486051
  H      -4.259051      0.246097      0.028850
  H      -2.367727     -0.766946     -1.269981
  H      -2.819497     -1.775064      0.120522
  H       2.363711     -0.199920     -1.368766
  H       2.143935      1.377830     -0.587615
  H       4.368562      0.423590     -0.007183
  H       3.599737     -1.032731      0.656167
  H       3.362809      0.539084      1.449945
18
Coordinates from ORCA-job DEC_anion_cpcm_200_moread E -422.214392102913
  C      -3.233852      0.326001      0.379575
  C      -2.381260     -0.811831     -0.161697
  O      -1.047323     -0.785569      0.350504
  C      -0.088687     -0.165060     -0.546956
  O      -0.393652      0.927788     -1.125315
  O       1.102385     -0.206636      0.281228
  C       2.251953      0.308743     -0.385785
  C       3.470325      0.031723      0.472891
  H      -2.831798      1.292573      0.063305
  H      -3.260656      0.300857      1.474636
  H      -4.263868      0.235389      0.012578
  H      -2.360186     -0.786368     -1.260428
  H      -2.814166     -1.775032      0.142439
  H       2.357484     -0.174154     -1.372645
  H       2.142813      1.389187     -0.563031
  H       4.370326      0.423137     -0.013808
  H       3.604782     -1.043974      0.628489
  H       3.375380      0.513226      1.452304
18
Coordinates from ORCA-job DEC_anion_cpcm_200_moread E -422.214396171167
  C      -3.235630      0.327538      0.374830
  C      -2.380718     -0.813319     -0.156621
  O      -1.047314     -0.781284      0.356481
  C      -0.088896     -0.166121     -0.546071
  O      -0.390529      0.926485     -1.124570
  O       1.103541     -0.211922      0.280493
  C       2.251033      0.311955     -0.383457
  C       3.471583      0.029059      0.470238
  H      -2.834390      1.292323      0.052301
  H      -3.264155      0.310402      1.470019
  H      -4.264898      0.233074      0.006773
  H      -2.358042     -0.795829     -1.255631
  H      -2.813333     -1.774679      0.153562
  H       2.355966     -0.160934     -1.375122
  H       2.140047      1.393976     -0.550070
  H       4.369853      0.426913     -0.014347
  H       3.608066     -1.047951      0.614767
  H       3.377813      0.500313      1.454711
18
Coordinates from ORCA-job DEC_anion_cpcm_200_moread E -422.214396961750
  C      -3.235668      0.327795      0.374357
  C      -2.380797     -0.813727     -0.155783
  O      -1.047177     -0.780959      0.357017
  C      -0.089117     -0.166153     -0.546530
  O      -0.389705      0.927169     -1.123654
  O       1.103737     -0.214122      0.279495
  C       2.250991      0.311811     -0.383622
  C       3.471586      0.029008      0.470051
  H      -2.834189      1.292134      0.050768
  H      -3.264169      0.311964      1.469562
  H      -4.264859      0.233392      0.006127
  H      -2.357662     -0.796978     -1.254854
  H      -2.813354     -1.774779      0.155234
  H       2.356104     -0.159734     -1.375847
  H       2.139136      1.394000     -0.548482
  H       4.369474      0.428580     -0.013763
  H       3.608889     -1.048106      0.613071
  H       3.376781      0.498708      1.455136
