18
Coordinates from ORCA-job DEC_anion_cpcm_20_moread E -422.209264724204
  C          -3.22597340849023      0.33158950149960      0.37774239168507
  C          -2.38196389904077     -0.81529376231300     -0.15926647006984
  O          -1.04813496715576     -0.79571094695183      0.34986429925153
  C          -0.08979538638018     -0.17618928120350     -0.55247853700121
  O          -0.39160591248470      0.91740630421556     -1.12647292029492
  O           1.10294779745952     -0.22437730913295      0.27596627657945
  C           2.24679601813737      0.30998392316114     -0.38349889388768
  C           3.46749521070693      0.03434318836592      0.47287249091472
  H          -2.81424586554295      1.29280467359483      0.05800728620673
  H          -3.25233676730052      0.31075622855382      1.47295700135374
  H          -4.25675497386625      0.24931993178545      0.01054965003869
  H          -2.36196536012947     -0.79314957969065     -1.25845303368835
  H          -2.82229918071171     -1.77408132596312      0.14862429366489
  H           2.35802893075580     -0.15914039464246     -1.37645634530611
  H           2.12818013836194      1.39166491448652     -0.54765427984991
  H           4.36447750110423      0.43982091297180     -0.00797037245001
  H           3.61060191276785     -1.04205932144825      0.61575721769252
  H           3.36654822180889      0.50231235271115      1.45819352516068
