18
Coordinates from ORCA-job DEC_anion_cpcm_5_moread E -422.125183854936
  C      -3.096416      0.395636      0.369268
  C      -2.371148     -0.816987     -0.195162
  O      -1.030604     -0.901608      0.296181
  C      -0.118900     -0.173806     -0.347027
  O      -0.316782      0.511242     -1.311202
  O       1.059255     -0.344734      0.247145
  C       2.159884      0.354984     -0.341958
  C       3.402255      0.047096      0.471625
  H      -2.612420      1.308209      0.029924
  H      -3.081992      0.369649      1.456122
  H      -4.127128      0.395722      0.026351
  H      -2.347708     -0.770232     -1.288604
  H      -2.844110     -1.745990      0.129159
  H       2.271820      0.028994     -1.381919
  H       1.938748      1.428018     -0.344128
  H       4.256105      0.564490      0.044198
  H       3.593931     -1.022245      0.468976
  H       3.265210      0.371561      1.499335
18
Coordinates from ORCA-job DEC_anion_cpcm_5_moread E -422.154058501586
  C      -3.021369      0.425730      0.398982
  C      -2.400053     -0.830481     -0.195054
  O      -1.035763     -0.994718      0.217902
  C      -0.107647     -0.316053     -0.492910
  O      -0.338964      0.502974     -1.368171
  O       1.065143     -0.434736      0.163852
  C       2.150053      0.350036     -0.352023
  C       3.366211      0.086428      0.514018
  H      -2.507152      1.311459      0.022593
  H      -2.948088      0.410743      1.488305
  H      -4.075822      0.483342      0.114586
  H      -2.436307     -0.797247     -1.291829
  H      -2.908761     -1.729574      0.161917
  H       2.327391      0.056832     -1.397962
  H       1.868867      1.410222     -0.337837
  H       4.213946      0.664343      0.140571
  H       3.621613     -0.974731      0.493710
  H       3.166702      0.375432      1.547635
18
Coordinates from ORCA-job DEC_anion_cpcm_5_moread E -422.177985305709
  C      -2.932248      0.452317      0.425938
  C      -2.411609     -0.837929     -0.191255
  O      -1.039340     -1.086094      0.140432
  C      -0.098141     -0.450741     -0.646281
  O      -0.363666      0.494990     -1.419521
  O       1.070037     -0.520612      0.083141
  C       2.125816      0.339818     -0.360340
  C       3.314598      0.124182      0.555291
  H      -2.392257      1.308309      0.014964
  H      -2.800351      0.439535      1.511437
  H      -3.999864      0.568388      0.200795
  H      -2.508498     -0.806931     -1.286581
  H      -2.955396     -1.704661      0.197414
  H       2.369096      0.081849     -1.405661
  H       1.786249      1.382951     -0.338264
  H       4.147028      0.758137      0.234785
  H       3.634033     -0.921240      0.525244
  H       3.054512      0.377731      1.586742
18
Coordinates from ORCA-job DEC_anion_cpcm_5_moread E -422.189653573207
  C      -2.866915      0.467483      0.449140
  C      -2.423530     -0.841329     -0.188748
  O      -1.058088     -1.163575      0.085703
  C      -0.091815     -0.556933     -0.786049
  O      -0.386791      0.504609     -1.454299
  O       1.087052     -0.586516      0.028556
  C       2.112941      0.322420     -0.370065
  C       3.276918      0.157125      0.586888
  H      -2.305682      1.300691      0.018956
  H      -2.694625      0.446328      1.531334
  H      -3.938988      0.633281      0.270137
  H      -2.569376     -0.801195     -1.279067
  H      -3.005921     -1.678507      0.216512
  H       2.416708      0.091619     -1.406247
  H       1.732039      1.352257     -0.357394
  H       4.094316      0.831431      0.304397
  H       3.651724     -0.872099      0.566674
  H       2.970032      0.392909      1.611855
18
Coordinates from ORCA-job DEC_anion_cpcm_5_moread E -422.190785859687
  C      -2.878370      0.458869      0.465052
  C      -2.421730     -0.830924     -0.202725
  O      -1.062976     -1.157676      0.088255
  C      -0.086896     -0.565299     -0.798025
  O      -0.384375      0.514702     -1.421319
  O       1.083659     -0.573978      0.045306
  C       2.120496      0.305446     -0.382867
  C       3.278535      0.167447      0.586325
  H      -2.311087      1.304825      0.070245
  H      -2.725520      0.406066      1.548889
  H      -3.946474      0.627506      0.274813
  H      -2.560342     -0.764232     -1.291971
  H      -3.012946     -1.676589      0.172359
  H       2.435619      0.039685     -1.406410
  H       1.753360      1.340462     -0.413183
  H       4.104004      0.822104      0.284483
  H       3.645717     -0.864006      0.609567
  H       2.969327      0.445592      1.599490
18
Coordinates from ORCA-job DEC_anion_cpcm_5_moread E -422.191667861180
  C      -2.969880      0.426536      0.474726
  C      -2.428646     -0.819150     -0.215195
  O      -1.074791     -1.098093      0.128642
  C      -0.083534     -0.494088     -0.760742
  O      -0.383694      0.586634     -1.370356
  O       1.090628     -0.492301      0.106811
  C       2.167226      0.289049     -0.394549
  C       3.331410      0.157714      0.569564
  H      -2.420823      1.309752      0.139638
  H      -2.866181      0.339089      1.562316
  H      -4.034784      0.558446      0.242490
  H      -2.533922     -0.724439     -1.305698
  H      -3.006391     -1.697362      0.106367
  H       2.462020     -0.061445     -1.399469
  H       1.863918      1.340395     -0.499462
  H       4.188468      0.740762      0.213201
  H       3.644036     -0.887605      0.666478
  H       3.054941      0.526106      1.563522
18
Coordinates from ORCA-job DEC_anion_cpcm_5_moread E -422.192203440141
  C      -3.047715      0.389998      0.473937
  C      -2.421300     -0.812161     -0.222304
  O      -1.072436     -1.026480      0.171310
  C      -0.085216     -0.394923     -0.714065
  O      -0.393747      0.679344     -1.307366
  O       1.085912     -0.391298      0.169492
  C       2.199413      0.276505     -0.401010
  C       3.373936      0.139096      0.550593
  H      -2.525038      1.307120      0.189933
  H      -2.988823      0.276230      1.562174
  H      -4.106035      0.482007      0.197896
  H      -2.492717     -0.696198     -1.312933
  H      -2.972605     -1.723246      0.054028
  H       2.454741     -0.161004     -1.383070
  H       1.966976      1.337224     -0.578120
  H       4.258676      0.638758      0.139751
  H       3.622548     -0.914430      0.717633
  H       3.143429      0.593459      1.520405
18
Coordinates from ORCA-job DEC_anion_cpcm_5_moread E -422.192361692835
  C      -3.096914      0.365813      0.465349
  C      -2.412639     -0.811101     -0.219745
  O      -1.064612     -0.973398      0.200896
  C      -0.087356     -0.318375     -0.679140
  O      -0.401794      0.754438     -1.265003
  O       1.083665     -0.323405      0.206005
  C       2.217146      0.273129     -0.401884
  C       3.400117      0.119880      0.536894
  H      -2.600266      1.302313      0.197835
  H      -3.059490      0.249700      1.554375
  H      -4.151111      0.424021      0.164053
  H      -2.462898     -0.691669     -1.311477
  H      -2.937942     -1.742469      0.039208
  H       2.435244     -0.212663     -1.370481
  H       2.030610      1.336931     -0.615038
  H       4.298074      0.567657      0.095876
  H       3.606399     -0.937116      0.736939
  H       3.203767      0.616314      1.493621
18
Coordinates from ORCA-job DEC_anion_cpcm_5_moread E -422.192426460613
  C      -3.110739      0.359410      0.456419
  C      -2.408067     -0.814183     -0.214812
  O      -1.058998     -0.954690      0.213402
  C      -0.089296     -0.291240     -0.663129
  O      -0.406256      0.785484     -1.243107
  O       1.082071     -0.304140      0.216382
  C       2.220640      0.275730     -0.400698
  C       3.407590      0.109750      0.530511
  H      -2.623669      1.299411      0.183459
  H      -3.078062      0.253323      1.546671
  H      -4.163561      0.403580      0.147616
  H      -2.449682     -0.701796     -1.308004
  H      -2.921831     -1.750721      0.046992
  H       2.421291     -0.218113     -1.368784
  H       2.046962      1.341620     -0.614920
  H       4.307395      0.546531      0.082435
  H       3.601464     -0.949694      0.730222
  H       3.222748      0.609737      1.487630
18
Coordinates from ORCA-job DEC_anion_cpcm_5_moread E -422.192478191824
  C      -3.133961      0.349887      0.441662
  C      -2.400583     -0.816762     -0.207083
  O      -1.052006     -0.923990      0.236049
  C      -0.091338     -0.253335     -0.636975
  O      -0.411695      0.832160     -1.204852
  O       1.082071     -0.275956      0.232224
  C       2.226558      0.279654     -0.399654
  C       3.419474      0.093637      0.519574
  H      -2.662019      1.295280      0.161203
  H      -3.111011      0.258828      1.533524
  H      -4.183675      0.370484      0.120036
  H      -2.428072     -0.716734     -1.302259
  H      -2.895869     -1.761247      0.059815
  H       2.401429     -0.223838     -1.367360
  H       2.071248      1.348222     -0.614455
  H       4.321472      0.514559      0.061092
  H       3.595680     -0.969080      0.718316
  H       3.252297      0.598229      1.477426
18
Coordinates from ORCA-job DEC_anion_cpcm_5_moread E -422.192494823734
  C      -3.145465      0.347057      0.433017
  C      -2.397687     -0.817306     -0.202773
  O      -1.050732     -0.910039      0.249770
  C      -0.091680     -0.240640     -0.623020
  O      -0.412290      0.849773     -1.185337
  O       1.084382     -0.266998      0.239586
  C       2.228989      0.282449     -0.398453
  C       3.425889      0.085936      0.513263
  H      -2.679888      1.294240      0.148060
  H      -3.128425      0.264370      1.525622
  H      -4.193272      0.355704      0.104902
  H      -2.418379     -0.725788     -1.298808
  H      -2.885468     -1.764539      0.068202
  H       2.393378     -0.220189     -1.368262
  H       2.079078      1.352501     -0.609399
  H       4.327641      0.503095      0.050856
  H       3.596891     -0.978400      0.707635
  H       3.267036      0.588774      1.473424
18
Coordinates from ORCA-job DEC_anion_cpcm_5_moread E -422.192505506805
  C      -3.156767      0.345477      0.424697
  C      -2.395239     -0.816890     -0.198259
  O      -1.050876     -0.896526      0.264565
  C      -0.091387     -0.232416     -0.610475
  O      -0.410541      0.861237     -1.169993
  O       1.087894     -0.261547      0.246156
  C       2.230895      0.285482     -0.396635
  C       3.432254      0.078975      0.506970
  H      -2.696978      1.294353      0.136078
  H      -3.146275      0.270323      1.517889
  H      -4.202508      0.342240      0.090196
  H      -2.409934     -0.734397     -1.294973
  H      -2.877184     -1.766164      0.076678
  H       2.387666     -0.212895     -1.369834
  H       2.084142      1.357012     -0.601904
  H       4.333147      0.494728      0.041552
  H       3.600408     -0.986878      0.695120
  H       3.281286      0.577886      1.470455
18
Coordinates from ORCA-job DEC_anion_cpcm_5_moread E -422.192511669613
  C      -3.166853      0.344095      0.417148
  C      -2.392812     -0.816655     -0.193430
  O      -1.051021     -0.883449      0.278427
  C      -0.091268     -0.224746     -0.600136
  O      -0.408326      0.870254     -1.158950
  O       1.090960     -0.257199      0.251740
  C       2.232275      0.288594     -0.394473
  C       3.437829      0.072545      0.501306
  H      -2.712418      1.294527      0.125183
  H      -3.162587      0.275985      1.510827
  H      -4.210548      0.329892      0.076716
  H      -2.402155     -0.742602     -1.290727
  H      -2.869918     -1.767489      0.085166
  H       2.382737     -0.204773     -1.371231
  H       2.088468      1.361633     -0.593814
  H       4.337870      0.487373      0.033363
  H       3.603406     -0.994834      0.682833
  H       3.294362      0.566849      1.468335
18
Coordinates from ORCA-job DEC_anion_cpcm_5_moread E -422.192520752479
  C      -3.185495      0.341678      0.401380
  C      -2.387863     -0.817139     -0.182248
  O      -1.051043     -0.857424      0.305787
  C      -0.091467     -0.209625     -0.580877
  O      -0.403577      0.887111     -1.139425
  O       1.096544     -0.250507      0.261618
  C       2.234279      0.295882     -0.389365
  C       3.448073      0.059446      0.490002
  H      -2.741155      1.294168      0.100650
  H      -3.193350      0.289739      1.495925
  H      -4.224872      0.306099      0.049614
  H      -2.386485     -0.761311     -1.280650
  H      -2.855856     -1.770039      0.105446
  H       2.372311     -0.184801     -1.374298
  H       2.095885      1.372302     -0.573862
  H       4.346021      0.474334      0.018037
  H       3.608746     -1.011319      0.655198
  H       3.319304      0.541408      1.465353
18
Coordinates from ORCA-job DEC_anion_cpcm_5_moread E -422.192526785500
  C      -3.199236      0.340567      0.387128
  C      -2.383936     -0.818654     -0.170985
  O      -1.051089     -0.836386      0.328686
  C      -0.092006     -0.198946     -0.566331
  O      -0.398920      0.898486     -1.125850
  O       1.100974     -0.248524      0.268125
  C       2.235035      0.303466     -0.384047
  C       3.455764      0.048383      0.480342
  H      -2.761956      1.293156      0.076446
  H      -3.217123      0.305021      1.482238
  H      -4.234774      0.288176      0.026303
  H      -2.373515     -0.780315     -1.270211
  H      -2.845238     -1.771760      0.126954
  H       2.363117     -0.162244     -1.377505
  H       2.099668      1.383097     -0.551295
  H       4.351200      0.466739      0.006672
  H       3.613437     -1.025519      0.627120
  H       3.338599      0.515257      1.464493
18
Coordinates from ORCA-job DEC_anion_cpcm_5_moread E -422.192530664035
  C      -3.198296      0.342771      0.384292
  C      -2.384395     -0.820519     -0.167383
  O      -1.051329     -0.836523      0.331729
  C      -0.092376     -0.202873     -0.567090
  O      -0.397113      0.893535     -1.128565
  O       1.101881     -0.255348      0.265879
  C       2.233768      0.306257     -0.382088
  C       3.455973      0.047627      0.479115
  H      -2.759282      1.293129      0.069235
  H      -3.216945      0.312941      1.479588
  H      -4.233619      0.290735      0.022736
  H      -2.373378     -0.787463     -1.266926
  H      -2.846930     -1.771474      0.135186
  H       2.362366     -0.150649     -1.379543
  H       2.094963      1.386864     -0.539799
  H       4.349636      0.472569      0.008015
  H       3.616571     -1.027115      0.616468
  H       3.338504      0.505535      1.467433
18
Coordinates from ORCA-job DEC_anion_cpcm_5_moread E -422.192531766523
  C      -3.197878      0.343232      0.383121
  C      -2.384519     -0.821624     -0.165865
  O      -1.051038     -0.836556      0.332566
  C      -0.092708     -0.203122     -0.567524
  O      -0.396748      0.893570     -1.128277
  O       1.102013     -0.257649      0.264831
  C       2.233457      0.307226     -0.381648
  C       3.455943      0.047149      0.478677
  H      -2.758100      1.292502      0.065888
  H      -3.216682      0.316203      1.478494
  H      -4.233097      0.291791      0.021148
  H      -2.373039     -0.790569     -1.265564
  H      -2.846928     -1.771840      0.138850
  H       2.361499     -0.146913     -1.380382
  H       2.093687      1.388214     -0.535611
  H       4.348972      0.474418      0.008531
  H       3.617149     -1.027935      0.612679
  H       3.338017      0.501902      1.468371
