11
Coordinates from ORCA-job SN_m1_cation_opt E -271.589318762589
  N      -0.503306      0.646315     -2.169917
  C      -0.672523      0.175885     -1.139743
  C      -0.657633     -0.390725      0.174480
  C       0.742427     -0.115608      0.817457
  C       1.624050      0.366424     -0.201809
  N       2.179562      0.771289     -1.117615
  H      -1.451476      0.047022      0.785144
  H      -0.841862     -1.466070      0.094575
  H       0.665472      0.643100      1.601521
  H       1.143993     -1.028409      1.264438
  Li      1.300722      1.269594     -2.892530
11
Coordinates from ORCA-job SN_m1_cation_opt E -271.591352701573
  N      -0.528223      0.650908     -2.191768
  C      -0.707223      0.176299     -1.156758
  C      -0.667896     -0.392561      0.169622
  C       0.753003     -0.113786      0.821926
  C       1.661200      0.368493     -0.191429
  N       2.212432      0.776120     -1.117881
  H      -1.461088      0.038275      0.788316
  H      -0.850454     -1.469650      0.093653
  H       0.672040      0.644287      1.608057
  H       1.147444     -1.026940      1.278156
  Li      1.298192      1.267373     -2.885892
11
Coordinates from ORCA-job SN_m1_cation_opt E -271.591619787217
  N      -0.543379      0.657618     -2.197956
  C      -0.723417      0.179529     -1.162944
  C      -0.667331     -0.393280      0.166586
  C       0.754175     -0.111220      0.820614
  C       1.678335      0.366078     -0.187732
  N       2.229388      0.771552     -1.117234
  H      -1.457660      0.031050      0.793167
  H      -0.843198     -1.471342      0.091692
  H       0.667029      0.648648      1.604110
  H       1.140081     -1.024266      1.284045
  Li      1.295404      1.264450     -2.878349
11
Coordinates from ORCA-job SN_m1_cation_opt E -271.591692962735
  N      -0.553798      0.667215     -2.196938
  C      -0.731331      0.184560     -1.163486
  C      -0.664435     -0.394717      0.164209
  C       0.752927     -0.107963      0.818778
  C       1.686218      0.360849     -0.187025
  N       2.239314      0.761483     -1.117562
  H      -1.454171      0.021569      0.796807
  H      -0.832657     -1.473555      0.085323
  H       0.661679      0.657066      1.596559
  H       1.132829     -1.019164      1.290569
  Li      1.292852      1.261475     -2.871234
11
Coordinates from ORCA-job SN_m1_cation_opt E -271.591765564351
  N      -0.567230      0.686423     -2.190610
  C      -0.738855      0.194677     -1.160554
  C      -0.659709     -0.398239      0.160888
  C       0.750274     -0.102167      0.816810
  C       1.693147      0.349875     -0.188245
  N       2.250979      0.740444     -1.120132
  H      -1.451542      0.002006      0.801234
  H      -0.814928     -1.478030      0.070340
  H       0.654825      0.674568      1.582282
  H       1.123294     -1.007715      1.304755
  Li      1.289172      1.256975     -2.860765
11
Coordinates from ORCA-job SN_m1_cation_opt E -271.591890569636
  N      -0.591761      0.732215     -2.171888
  C      -0.750131      0.218765     -1.150464
  C      -0.650575     -0.407259      0.154280
  C       0.744695     -0.089290      0.814359
  C       1.702579      0.323457     -0.193276
  N       2.270902      0.689869     -1.128507
  H      -1.450106     -0.046332      0.808525
  H      -0.776682     -1.487850      0.032963
  H       0.642737      0.715797      1.549139
  H       1.105924     -0.978250      1.340480
  Li      1.281846      1.247696     -2.839610
11
Coordinates from ORCA-job SN_m1_cation_opt E -271.592023911668
  N      -0.617470      0.793652     -2.142604
  C      -0.759943      0.250904     -1.134077
  C      -0.640312     -0.419813      0.146377
  C       0.738012     -0.072773      0.813036
  C       1.709273      0.287716     -0.201376
  N       2.289701      0.621197     -1.141521
  H      -1.451382     -0.113936      0.814704
  H      -0.728079     -1.498649     -0.018601
  H       0.629946      0.769783      1.503975
  H       1.086720     -0.935240      1.389748
  Li      1.272961      1.235978     -2.813659
11
Coordinates from ORCA-job SN_m1_cation_opt E -271.592091453868
  N      -0.628283      0.832168     -2.121951
  C      -0.762170      0.271021     -1.122153
  C      -0.636177     -0.427900      0.142560
  C       0.734695     -0.063403      0.814476
  C       1.709237      0.265430     -0.207588
  N       2.296067      0.578057     -1.151193
  H      -1.455688     -0.158871      0.816571
  H      -0.699533     -1.503801     -0.052204
  H       0.624521      0.803078      1.475290
  H       1.078323     -0.906353      1.422480
  Li      1.268435      1.229392     -2.800285
11
Coordinates from ORCA-job SN_m1_cation_opt E -271.592123214912
  N      -0.621890      0.827229     -2.123935
  C      -0.757375      0.268657     -1.122693
  C      -0.639905     -0.426996      0.144844
  C       0.736287     -0.066230      0.817435
  C       1.704918      0.268900     -0.208696
  N       2.290971      0.584501     -1.152026
  H      -1.460941     -0.155393      0.815707
  H      -0.705578     -1.503032     -0.049320
  H       0.627907      0.799368      1.479915
  H       1.084245     -0.909948      1.421661
  Li      1.270788      1.231762     -2.806891
11
Coordinates from ORCA-job SN_m1_cation_opt E -271.592126709144
  N      -0.619938      0.826481     -2.124200
  C      -0.756262      0.268544     -1.122655
  C      -0.640983     -0.426656      0.145657
  C       0.736658     -0.067176      0.818368
  C       1.703902      0.269388     -0.209146
  N       2.289483      0.585759     -1.152564
  H      -1.462271     -0.155024      0.815922
  H      -0.706092     -1.502784     -0.048430
  H       0.627885      0.798566      1.480627
  H       1.085393     -0.910878      1.421837
  Li      1.271652      1.232597     -2.809413
11
Coordinates from ORCA-job SN_m1_cation_opt E -271.592128256438
  N      -0.619348      0.827217     -2.123652
  C      -0.756306      0.269176     -1.122260
  C      -0.641274     -0.426652      0.145920
  C       0.736685     -0.067364      0.818743
  C       1.703830      0.268785     -0.209336
  N       2.289015      0.585068     -1.153009
  H      -1.462599     -0.156049      0.816410
  H      -0.704982     -1.502764     -0.048770
  H       0.627195      0.799112      1.479915
  H       1.085167     -0.910694      1.422702
  Li      1.272047      1.232981     -2.810662
