11
Coordinates from ORCA-job SN_m1_reduced_opt E -271.753709590497
  N          -0.96064338806605      0.94584847163632     -2.16700709861047
  C          -0.57195953703410      0.39054632416073     -1.20302390498031
  C          -0.47810989690181     -0.36098439146560      0.04627815943331
  C           0.79970954993281     -0.05314806788357      0.88271730177951
  C           1.99848915003843      0.16693010824129     -0.00961071387552
  N           1.99316055483091      0.38962130068017     -1.19740964011473
  H          -1.37733005616284     -0.15812626501417      0.63799263837294
  H          -0.48680791285034     -1.42242769262271     -0.22785459598269
  H           0.65690505861199      0.85978580474644      1.47351793856237
  H           0.96804427324340     -0.86653322254543      1.59458008304994
  Li          0.98797220435759      1.02730363006651     -2.61417916763435
