11
Coordinates from ORCA-job SN_m1_dication_opt E -271.042144809125
  N          -0.95353933817305      0.16007463779167     -1.91375536303023
  C          -0.91801306072239     -0.16966898113818     -0.78628593271387
  C          -0.80588398948608     -0.53167479626653      0.58943363763472
  C           0.59514279370982     -0.33612139079198      1.19643751982002
  C           1.52945287119658      0.31437991660225      0.33516423093796
  N           2.24924181480227      0.83345658430167     -0.43496252354963
  H          -1.55855754922949      0.06356460031664      1.15458930323907
  H          -1.17967590295122     -1.56448183918516      0.73486048333504
  H           0.55293131751564      0.20000701155292      2.16558331452361
  H           1.02927952594034     -1.31609765669794      1.49513266206020
  Li          2.98905151739758      3.26537791351464     -7.32019633225689
