11
Coordinates from ORCA-job SN_m1_cation_opt E -271.592128256438
  N          -0.61934840830933      0.82721713774099     -2.12365168701757
  C          -0.75630641465820      0.26917620948448     -1.12225954438207
  C          -0.64127432032723     -0.42665178852798      0.14591991088272
  C           0.73668456691785     -0.06736359518502      0.81874265272527
  C           1.70383019165101      0.26878486151751     -0.20933557647814
  N           2.28901501921347      0.58506822755691     -1.15300949049525
  H          -1.46259897074483     -0.15604871121965      0.81640988626436
  H          -0.70498231584988     -1.50276395251143     -0.04876985588121
  H           0.62719470105810      0.79911194377752      1.47991536894766
  H           1.08516666649676     -0.91069372415335      1.42270213780015
  Li          1.27204650515228      1.23298064792001     -2.81066236776593
