11
Coordinates from ORCA-job SN_m1_dication_opt E -270.992430162924
  N      -0.619348      0.827217     -2.123652
  C      -0.756306      0.269176     -1.122260
  C      -0.641274     -0.426652      0.145920
  C       0.736685     -0.067364      0.818743
  C       1.703830      0.268785     -0.209336
  N       2.289015      0.585068     -1.153009
  H      -1.462599     -0.156049      0.816410
  H      -0.704982     -1.502764     -0.048770
  H       0.627195      0.799112      1.479915
  H       1.085167     -0.910694      1.422702
  Li      1.272047      1.232981     -2.810662
11
Coordinates from ORCA-job SN_m1_dication_opt E -270.999290584754
  N      -0.608577      0.789836     -2.155932
  C      -0.753665      0.249891     -1.123836
  C      -0.648340     -0.401821      0.154152
  C       0.743467     -0.091146      0.810730
  C       1.697390      0.283648     -0.198470
  N       2.288828      0.634420     -1.149757
  H      -1.483802     -0.123980      0.823762
  H      -0.736120     -1.502996     -0.017437
  H       0.635130      0.771370      1.513539
  H       1.106161     -0.943914      1.414738
  Li      1.288956      1.253508     -2.855489
11
Coordinates from ORCA-job SN_m1_dication_opt E -271.002930650351
  N      -0.593227      0.732346     -2.182774
  C      -0.747937      0.224692     -1.127900
  C      -0.653584     -0.371758      0.162110
  C       0.750380     -0.118144      0.797697
  C       1.688744      0.305231     -0.186945
  N       2.277384      0.695581     -1.133125
  H      -1.498140     -0.085579      0.825111
  H      -0.778409     -1.486907      0.029072
  H       0.647234      0.718997      1.549312
  H       1.126415     -0.975496      1.396314
  Li      1.310570      1.279854     -2.912871
11
Coordinates from ORCA-job SN_m1_dication_opt E -271.005369410570
  N      -0.572729      0.676932     -2.200488
  C      -0.740160      0.201503     -1.133373
  C      -0.656243     -0.348156      0.169876
  C       0.753937     -0.140186      0.787316
  C       1.679877      0.327674     -0.178428
  N       2.257343      0.751816     -1.116036
  H      -1.505431     -0.052997      0.825654
  H      -0.821949     -1.467662      0.079446
  H       0.658486      0.660757      1.585761
  H       1.140077     -1.000719      1.377810
  Li      1.336222      1.309853     -2.981538
11
Coordinates from ORCA-job SN_m1_dication_opt E -271.007349222058
  N      -0.547165      0.626830     -2.210717
  C      -0.732366      0.179122     -1.140083
  C      -0.657688     -0.334410      0.178026
  C       0.754043     -0.155343      0.783218
  C       1.671724      0.350277     -0.171070
  N       2.230164      0.800516     -1.101745
  H      -1.507402     -0.025439      0.826892
  H      -0.866490     -1.449340      0.130918
  H       0.669985      0.602302      1.623903
  H       1.147638     -1.021710      1.360201
  Li      1.366985      1.346010     -3.063541
11
Coordinates from ORCA-job SN_m1_dication_opt E -271.008795190998
  N      -0.521857      0.589557     -2.213517
  C      -0.727383      0.158542     -1.145506
  C      -0.658387     -0.334245      0.185196
  C       0.750868     -0.160145      0.787705
  C       1.665470      0.369473     -0.162707
  N       2.201982      0.834418     -1.092362
  H      -1.503568     -0.002330      0.828509
  H      -0.905267     -1.437852      0.173460
  H       0.680634      0.556576      1.659005
  H       1.148897     -1.038593      1.342705
  Li      1.398042      1.383416     -3.146484
11
Coordinates from ORCA-job SN_m1_dication_opt E -271.009889880080
  N      -0.500058      0.564822     -2.210596
  C      -0.725636      0.139695     -1.146869
  C      -0.658683     -0.345186      0.191324
  C       0.745336     -0.156597      0.798773
  C       1.660019      0.384783     -0.151426
  N       2.176273      0.856130     -1.086248
  H      -1.494583      0.020237      0.830007
  H      -0.936227     -1.435362      0.204048
  H       0.688964      0.526426      1.690087
  H       1.146324     -1.053729      1.322360
  Li      1.427700      1.417595     -3.225458
11
Coordinates from ORCA-job SN_m1_dication_opt E -271.010593428078
  N      -0.484208      0.546207     -2.206201
  C      -0.726351      0.121062     -1.144804
  C      -0.659493     -0.360825      0.196498
  C       0.739620     -0.149647      0.812053
  C       1.655086      0.396615     -0.137640
  N       2.156364      0.870831     -1.080562
  H      -1.482279      0.047106      0.829682
  H      -0.959747     -1.439746      0.225290
  H       0.694333      0.509062      1.716201
  H       1.143337     -1.068941      1.297521
  Li      1.452768      1.447092     -3.292037
11
Coordinates from ORCA-job SN_m1_dication_opt E -271.010837034983
  N      -0.480230      0.533143     -2.206001
  C      -0.727965      0.108109     -1.143149
  C      -0.661113     -0.369151      0.198984
  C       0.737625     -0.146452      0.818982
  C       1.652619      0.403501     -0.127651
  N       2.149977      0.880411     -1.074325
  H      -1.473474      0.070110      0.827252
  H      -0.970499     -1.443843      0.236376
  H       0.695194      0.501796      1.729332
  H       1.143535     -1.080257      1.277651
  Li      1.463761      1.461449     -3.321448
11
Coordinates from ORCA-job SN_m1_dication_opt E -271.010937787571
  N      -0.480307      0.520236     -2.208872
  C      -0.728041      0.098109     -1.143073
  C      -0.663087     -0.371124      0.200673
  C       0.737767     -0.147272      0.821417
  C       1.650401      0.409501     -0.121279
  N       2.148568      0.890608     -1.067442
  H      -1.468227      0.089584      0.824193
  H      -0.976939     -1.444012      0.246429
  H       0.694351      0.493666      1.736894
  H       1.146121     -1.089562      1.262196
  Li      1.468821      1.469082     -3.335133
11
Coordinates from ORCA-job SN_m1_dication_opt E -271.011030116000
  N      -0.481770      0.502216     -2.214190
  C      -0.726409      0.086116     -1.144142
  C      -0.665775     -0.370440      0.202982
  C       0.738729     -0.150729      0.822616
  C       1.646892      0.417845     -0.115138
  N       2.148290      0.905479     -1.057629
  H      -1.463287      0.112936      0.819745
  H      -0.984921     -1.440905      0.261107
  H       0.693065      0.479795      1.745182
  H       1.150745     -1.100611      1.244343
  Li      1.473871      1.477113     -3.348874
11
Coordinates from ORCA-job SN_m1_dication_opt E -271.011125245625
  N      -0.484722      0.479660     -2.221195
  C      -0.723102      0.072210     -1.146154
  C      -0.668801     -0.368282      0.206100
  C       0.739855     -0.155973      0.823397
  C       1.642002      0.428589     -0.109123
  N       2.148875      0.924347     -1.044804
  H      -1.458441      0.138584      0.814004
  H      -0.995707     -1.434597      0.280425
  H       0.692369      0.459882      1.755156
  H       1.156696     -1.112564      1.224771
  Li      1.480407      1.486960     -3.366577
11
Coordinates from ORCA-job SN_m1_dication_opt E -271.011223037672
  N      -0.489692      0.454294     -2.228721
  C      -0.718811      0.056883     -1.148543
  C      -0.671471     -0.366223      0.209947
  C       0.740305     -0.161526      0.824581
  C       1.636036      0.441155     -0.102853
  N       2.150453      0.945390     -1.029201
  H      -1.453492      0.163922      0.807440
  H      -1.010067     -1.426000      0.303013
  H       0.693478      0.435289      1.767425
  H       1.162826     -1.124127      1.204652
  Li      1.489865      1.499760     -3.391740
11
Coordinates from ORCA-job SN_m1_dication_opt E -271.011353522918
  N      -0.497959      0.424962     -2.236205
  C      -0.714351      0.038560     -1.150477
  C      -0.673534     -0.365853      0.215004
  C       0.739263     -0.166437      0.827328
  C       1.628697      0.456127     -0.094443
  N       2.153297      0.969010     -1.009050
  H      -1.447350      0.189937      0.800004
  H      -1.029829     -1.415650      0.329916
  H       0.697173      0.405166      1.783945
  H       1.168588     -1.135736      1.182173
  Li      1.505436      1.518732     -3.432192
11
Coordinates from ORCA-job SN_m1_dication_opt E -271.011723029800
  N      -0.515632      0.391528     -2.243588
  C      -0.710511      0.017362     -1.151167
  C      -0.674784     -0.367899      0.221868
  C       0.736060     -0.170485      0.832388
  C       1.620080      0.472748     -0.083265
  N       2.162026      0.993817     -0.980976
  H      -1.440701      0.214338      0.792351
  H      -1.054567     -1.403746      0.361022
  H       0.703363      0.369910      1.804618
  H       1.173496     -1.146451      1.159171
  Li      1.530600      1.547694     -3.496422
11
Coordinates from ORCA-job SN_m1_dication_opt E -271.012015860998
  N      -0.528168      0.372075     -2.246519
  C      -0.709076      0.005089     -1.149984
  C      -0.675656     -0.370066      0.226736
  C       0.733592     -0.172721      0.836489
  C       1.614846      0.481005     -0.075661
  N       2.168114      1.006608     -0.962870
  H      -1.436954      0.227191      0.788701
  H      -1.068475     -1.397668      0.379051
  H       0.706434      0.350285      1.816848
  H       1.175645     -1.152309      1.147119
  Li      1.549127      1.569327     -3.543908
11
Coordinates from ORCA-job SN_m1_dication_opt E -271.012261565576
  N      -0.549262      0.386311     -2.242754
  C      -0.718030      0.010935     -1.146055
  C      -0.672985     -0.375028      0.226805
  C       0.730361     -0.167447      0.839484
  C       1.621172      0.472710     -0.072778
  N       2.186230      0.989054     -0.959212
  H      -1.442269      0.205427      0.796962
  H      -1.061000     -1.407761      0.367670
  H       0.704724      0.367140      1.814896
  H       1.169343     -1.144453      1.164666
  Li      1.561146      1.581928     -3.573684
11
Coordinates from ORCA-job SN_m1_dication_opt E -271.012432613886
  N      -0.569782      0.398518     -2.236728
  C      -0.727443      0.015149     -1.139646
  C      -0.671041     -0.379289      0.228558
  C       0.726912     -0.163720      0.842917
  C       1.626248      0.463857     -0.067605
  N       2.202272      0.971547     -0.953683
  H      -1.447448      0.185536      0.805870
  H      -1.052504     -1.417633      0.359242
  H       0.700178      0.382195      1.813469
  H       1.163396     -1.138229      1.180880
  Li      1.578643      1.600885     -3.617274
11
Coordinates from ORCA-job SN_m1_dication_opt E -271.012598662479
  N      -0.585864      0.396080     -2.231470
  C      -0.734144      0.010919     -1.132699
  C      -0.672330     -0.382438      0.234286
  C       0.724070     -0.164748      0.848482
  C       1.626490      0.461316     -0.058380
  N       2.211089      0.966443     -0.941395
  H      -1.449693      0.181353      0.811585
  H      -1.052122     -1.421909      0.365117
  H       0.695290      0.381326      1.819137
  H       1.161489     -1.139641      1.184790
  Li      1.605155      1.630115     -3.683451
11
Coordinates from ORCA-job SN_m1_dication_opt E -271.012906920394
  N      -0.605155      0.402259     -2.220075
  C      -0.744422      0.010519     -1.121462
  C      -0.674842     -0.387316      0.242666
  C       0.720245     -0.166235      0.857104
  C       1.627675      0.453244     -0.047857
  N       2.220570      0.951607     -0.930228
  H      -1.456102      0.166700      0.823469
  H      -1.044958     -1.431619      0.367164
  H       0.685654      0.387967      1.823144
  H       1.157633     -1.138844      1.199167
  Li      1.643132      1.670535     -3.777091
11
Coordinates from ORCA-job SN_m1_dication_opt E -271.013163154481
  N      -0.616146      0.405110     -2.212514
  C      -0.750215      0.009760     -1.113989
  C      -0.676894     -0.390225      0.248667
  C       0.717824     -0.168003      0.862933
  C       1.627495      0.448187     -0.041237
  N       2.225099      0.942781     -0.923144
  H      -1.460241      0.158360      0.831038
  H      -1.040996     -1.437402      0.369667
  H       0.679546      0.391094      1.826165
  H       1.155405     -1.138969      1.208303
  Li      1.668552      1.698123     -3.839886
11
Coordinates from ORCA-job SN_m1_dication_opt E -271.013598762286
  N      -0.632828      0.407623     -2.201844
  C      -0.757952      0.007642     -1.103120
  C      -0.679472     -0.394858      0.257474
  C       0.713859     -0.170249      0.871566
  C       1.626468      0.441637     -0.031314
  N       2.232027      0.931044     -0.911581
  H      -1.465674      0.147283      0.841402
  H      -1.037166     -1.445183      0.374397
  H       0.671832      0.394152      1.831731
  H       1.152178     -1.139413      1.220237
  Li      1.706159      1.739138     -3.932947
11
Coordinates from ORCA-job SN_m1_dication_opt E -271.014361725363
  N      -0.654009      0.410172     -2.186953
  C      -0.766504      0.004053     -1.087776
  C      -0.682621     -0.401560      0.270046
  C       0.707842     -0.173544      0.884835
  C       1.623836      0.432974     -0.016045
  N       2.240223      0.915255     -0.893846
  H      -1.472775      0.133447      0.854733
  H      -1.033681     -1.455321      0.381978
  H       0.661484      0.396221      1.841852
  H       1.147730     -1.140943      1.235929
  Li      1.757902      1.798062     -4.068752
11
Coordinates from ORCA-job SN_m1_dication_opt E -271.015197248516
  N      -0.664059      0.417685     -2.166506
  C      -0.768205      0.001308     -1.068791
  C      -0.685352     -0.409419      0.284748
  C       0.699908     -0.176602      0.900282
  C       1.614047      0.423373     -0.003069
  N       2.237682      0.895284     -0.882876
  H      -1.481561      0.118024      0.867737
  H      -1.030389     -1.466770      0.389798
  H       0.650460      0.398910      1.853973
  H       1.144807     -1.141803      1.251057
  Li      1.812092      1.858827     -4.210353
11
Coordinates from ORCA-job SN_m1_dication_opt E -271.016264770936
  N      -0.690779      0.418225     -2.154749
  C      -0.781211     -0.003094     -1.056937
  C      -0.690515     -0.415918      0.295829
  C       0.696192     -0.179979      0.913456
  C       1.616934      0.416029      0.013337
  N       2.252183      0.881287     -0.862649
  H      -1.489345      0.105057      0.880426
  H      -1.028209     -1.476436      0.396014
  H       0.642177      0.401389      1.863369
  H       1.140880     -1.143595      1.268153
  Li      1.861124      1.915850     -4.340249
11
Coordinates from ORCA-job SN_m1_dication_opt E -271.017072567454
  N      -0.708150      0.417620     -2.145904
  C      -0.789674     -0.006312     -1.048487
  C      -0.693797     -0.420257      0.303980
  C       0.693078     -0.182852      0.921451
  C       1.617660      0.410875      0.022830
  N       2.260356      0.872172     -0.850112
  H      -1.493613      0.096114      0.890445
  H      -1.026191     -1.482542      0.401760
  H       0.636284      0.402572      1.868538
  H       1.136802     -1.144775      1.280648
  Li      1.896675      1.956200     -4.429147
11
Coordinates from ORCA-job SN_m1_dication_opt E -271.017655068523
  N      -0.719657      0.416675     -2.140387
  C      -0.795176     -0.008425     -1.043298
  C      -0.696139     -0.423042      0.309421
  C       0.691145     -0.185237      0.926598
  C       1.618108      0.407371      0.028760
  N       2.265598      0.866380     -0.841612
  H      -1.496135      0.090415      0.897348
  H      -1.024866     -1.486293      0.405826
  H       0.632653      0.403126      1.871558
  H       1.133666     -1.145627      1.289963
  Li      1.920234      1.983472     -4.488175
11
Coordinates from ORCA-job SN_m1_dication_opt E -271.018487947293
  N      -0.732416      0.415855     -2.130346
  C      -0.800687     -0.011583     -1.033603
  C      -0.698960     -0.427540      0.318288
  C       0.687305     -0.188408      0.934842
  C       1.615599      0.401940      0.037189
  N       2.268930      0.857493     -0.830759
  H      -1.500114      0.082334      0.907078
  H      -1.023843     -1.492098      0.412700
  H       0.627155      0.403287      1.877544
  H       1.129955     -1.147059      1.301553
  Li      1.956505      2.024593     -4.578485
11
Coordinates from ORCA-job SN_m1_dication_opt E -271.019670682367
  N      -0.746900      0.415893     -2.115271
  C      -0.806316     -0.015727     -1.018978
  C      -0.702603     -0.434188      0.331122
  C       0.681391     -0.192687      0.948059
  C       1.610736      0.394100      0.050569
  N       2.271160      0.844252     -0.815288
  H      -1.506316      0.071165      0.919835
  H      -1.023211     -1.500575      0.422019
  H       0.618991      0.402812      1.888261
  H       1.125404     -1.149628      1.316961
  Li      2.007096      2.083399     -4.711288
11
Coordinates from ORCA-job SN_m1_dication_opt E -271.020766200708
  N      -0.752411      0.421090     -2.095404
  C      -0.806556     -0.018903     -1.001151
  C      -0.705901     -0.441975      0.345661
  C       0.673900     -0.196440      0.963303
  C       1.600069      0.385538      0.062272
  N       2.264632      0.827205     -0.805707
  H      -1.514360      0.057721      0.932427
  H      -1.022095     -1.510728      0.430691
  H       0.609922      0.403636      1.900636
  H       1.122497     -1.151356      1.331817
  Li      2.059734      2.143030     -4.848545
11
Coordinates from ORCA-job SN_m1_dication_opt E -271.022040004470
  N      -0.769423      0.425293     -2.080069
  C      -0.814281     -0.021381     -0.988010
  C      -0.711208     -0.449392      0.357850
  C       0.669279     -0.200469      0.977603
  C       1.598285      0.376681      0.075123
  N       2.270075      0.810022     -0.791696
  H      -1.522963      0.042210      0.945964
  H      -1.019601     -1.520948      0.435659
  H       0.602308      0.407754      1.909356
  H       1.117951     -1.152055      1.353267
  Li      2.109009      2.201101     -4.979044
11
Coordinates from ORCA-job SN_m1_dication_opt E -271.023223503255
  N      -0.819630      0.413021     -2.088778
  C      -0.841976     -0.025170     -0.997415
  C      -0.720270     -0.450685      0.358840
  C       0.675120     -0.208517      0.981024
  C       1.625144      0.373376      0.088374
  N       2.313639      0.807402     -0.760573
  H      -1.523061      0.036602      0.957892
  H      -1.016158     -1.522123      0.436340
  H       0.601185      0.409914      1.903632
  H       1.104586     -1.153702      1.385590
  Li      2.130850      2.238698     -5.048925
11
Coordinates from ORCA-job SN_m1_dication_opt E -271.024531462918
  N      -0.829486      0.410971     -2.073027
  C      -0.844642     -0.028989     -0.982229
  C      -0.723020     -0.456597      0.372112
  C       0.668392     -0.214164      0.992873
  C       1.617647      0.364924      0.099769
  N       2.311657      0.795521     -0.746252
  H      -1.527490      0.026811      0.971097
  H      -1.015399     -1.529078      0.447513
  H       0.592775      0.407857      1.912940
  H       1.098265     -1.156668      1.401681
  Li      2.180730      2.298229     -5.180477
11
Coordinates from ORCA-job SN_m1_dication_opt E -271.025838720197
  N      -0.830789      0.404810     -2.056202
  C      -0.839225     -0.031713     -0.965587
  C      -0.724885     -0.461743      0.387163
  C       0.659903     -0.223324      1.003310
  C       1.602768      0.353594      0.105494
  N       2.301644      0.784121     -0.734449
  H      -1.529418      0.019363      0.985630
  H      -1.015132     -1.533819      0.461251
  H       0.585586      0.405364      1.918823
  H       1.088569     -1.159789      1.422845
  Li      2.230409      2.361952     -5.312277
11
Coordinates from ORCA-job SN_m1_dication_opt E -271.027085000217
  N      -0.847468      0.391972     -2.046944
  C      -0.846187     -0.039313     -0.953958
  C      -0.729910     -0.466568      0.399459
  C       0.655972     -0.230285      1.014391
  C       1.599926      0.348627      0.119402
  N       2.306668      0.781930     -0.712707
  H      -1.532357      0.019432      0.996221
  H      -1.021203     -1.537963      0.476302
  H       0.581100      0.397570      1.930436
  H       1.084508     -1.167028      1.432531
  Li      2.278381      2.420441     -5.439132
11
Coordinates from ORCA-job SN_m1_dication_opt E -271.028336744920
  N      -0.865766      0.370285     -2.041705
  C      -0.850211     -0.046234     -0.943618
  C      -0.736167     -0.470773      0.412121
  C       0.652675     -0.239476      1.025255
  C       1.595645      0.341755      0.129484
  N       2.314470      0.783858     -0.686914
  H      -1.534806      0.022779      1.007285
  H      -1.032692     -1.539792      0.490061
  H       0.583075      0.391452      1.939551
  H       1.079435     -1.175497      1.445378
  Li      2.323774      2.480457     -5.560897
11
Coordinates from ORCA-job SN_m1_dication_opt E -271.029544343986
  N      -0.884084      0.351768     -2.035101
  C      -0.856503     -0.053484     -0.932700
  C      -0.742171     -0.475610      0.424666
  C       0.648985     -0.245447      1.038181
  C       1.592979      0.336675      0.142156
  N       2.322300      0.785016     -0.662131
  H      -1.539000      0.022612      1.019050
  H      -1.044787     -1.542917      0.501428
  H       0.585089      0.385828      1.952391
  H       1.075967     -1.184065      1.453054
  Li      2.370656      2.538441     -5.684993
11
Coordinates from ORCA-job SN_m1_dication_opt E -271.030701688340
  N      -0.900136      0.338568     -2.026226
  C      -0.864453     -0.060445     -0.921505
  C      -0.746755     -0.480068      0.436666
  C       0.644524     -0.250047      1.050563
  C       1.591415      0.332250      0.156544
  N       2.327507      0.783343     -0.640409
  H      -1.542594      0.018905      1.032016
  H      -1.052398     -1.546639      0.513114
  H       0.583018      0.379219      1.965834
  H       1.071003     -1.191436      1.460174
  Li      2.418300      2.595168     -5.810770
11
Coordinates from ORCA-job SN_m1_dication_opt E -271.031500545839
  N      -0.908237      0.330606     -2.018977
  C      -0.869484     -0.065410     -0.913367
  C      -0.749920     -0.482953      0.445340
  C       0.641154     -0.253470      1.059271
  C       1.589586      0.329230      0.166661
  N       2.328065      0.781409     -0.627353
  H      -1.544944      0.015942      1.041614
  H      -1.056506     -1.549163      0.522376
  H       0.580245      0.373516      1.975692
  H       1.067007     -1.196543      1.465650
  Li      2.452464      2.635651     -5.900907
11
Coordinates from ORCA-job SN_m1_dication_opt E -271.032608367604
  N      -0.916111      0.319368     -2.008221
  C      -0.875164     -0.072606     -0.901429
  C      -0.754808     -0.486973      0.458145
  C       0.636397     -0.259035      1.071857
  C       1.585512      0.325047      0.180629
  N       2.325548      0.779162     -0.610585
  H      -1.548474      0.013031      1.054840
  H      -1.062619     -1.552566      0.536862
  H       0.576053      0.364063      1.990404
  H       1.061866     -1.204312      1.473365
  Li      2.501230      2.693637     -6.029865
11
Coordinates from ORCA-job SN_m1_dication_opt E -271.033686916516
  N      -0.916871      0.307844     -1.996467
  C      -0.877712     -0.080293     -0.888434
  C      -0.760351     -0.491101      0.472292
  C       0.631300     -0.265361      1.085605
  C       1.578103      0.321691      0.193932
  N       2.316393      0.778662     -0.596983
  H      -1.552450      0.012172      1.067855
  H      -1.070552     -1.555587      0.553355
  H       0.572380      0.351842      2.007539
  H       1.057962     -1.213494      1.479017
  Li      2.551227      2.752441     -6.161710
11
Coordinates from ORCA-job SN_m1_dication_opt E -271.034738166741
  N      -0.917657      0.293573     -1.986186
  C      -0.881604     -0.089906     -0.876277
  C      -0.766321     -0.494777      0.486393
  C       0.626877     -0.272227      1.099093
  C       1.571642      0.321065      0.209274
  N       2.306781      0.783047     -0.581732
  H      -1.555464      0.015679      1.079596
  H      -1.080744     -1.557375      0.572747
  H       0.569135      0.334687      2.027201
  H       1.055363     -1.224995      1.479573
  Li      2.601421      2.810045     -6.293681
11
Coordinates from ORCA-job SN_m1_dication_opt E -271.035758668126
  N      -0.918225      0.278344     -1.976248
  C      -0.885220     -0.099542     -0.864367
  C      -0.772258     -0.498719      0.500541
  C       0.622569     -0.280087      1.112204
  C       1.564910      0.320830      0.224569
  N       2.296566      0.789481     -0.565768
  H      -1.557875      0.020546      1.090695
  H      -1.092234     -1.558744      0.592616
  H       0.567037      0.316465      2.046572
  H       1.052796     -1.237032      1.480374
  Li      2.651362      2.867273     -6.425185
11
Coordinates from ORCA-job SN_m1_dication_opt E -271.036754569099
  N      -0.920722      0.262206     -1.966867
  C      -0.890002     -0.109808     -0.852873
  C      -0.777818     -0.503124      0.514188
  C       0.618549     -0.288524      1.124529
  C       1.559041      0.321463      0.240948
  N       2.287282      0.798147     -0.547928
  H      -1.559068      0.027404      1.100388
  H      -1.104807     -1.559837      0.613465
  H       0.565424      0.296876      2.065715
  H       1.050591     -1.249587      1.480065
  Li      2.700961      2.923599     -6.555630
11
Coordinates from ORCA-job SN_m1_dication_opt E -271.037721065420
  N      -0.923527      0.245910     -1.957390
  C      -0.894139     -0.119769     -0.841297
  C      -0.783037     -0.508302      0.527664
  C       0.614469     -0.297651      1.136576
  C       1.552631      0.321637      0.256842
  N       2.277755      0.807190     -0.529594
  H      -1.559489      0.034787      1.109290
  H      -1.118333     -1.561017      0.634219
  H       0.564701      0.278096      2.083709
  H       1.048241     -1.261998      1.481197
  Li      2.750157      2.979933     -6.685215
11
Coordinates from ORCA-job SN_m1_dication_opt E -271.038659594209
  N      -0.928574      0.230022     -1.948100
  C      -0.899421     -0.129847     -0.830008
  C      -0.787784     -0.514014      0.540404
  C       0.610589     -0.306579      1.148266
  C       1.547406      0.321770      0.273411
  N       2.269872      0.815939     -0.510338
  H      -1.559095      0.042121      1.117417
  H      -1.131735     -1.562428      0.655032
  H       0.563485      0.259971      2.101010
  H       1.045757     -1.274026      1.482699
  Li      2.798930      3.035887     -6.813793
11
Coordinates from ORCA-job SN_m1_dication_opt E -271.039566690909
  N      -0.933025      0.213209     -1.938938
  C      -0.903167     -0.139612     -0.818647
  C      -0.792422     -0.519587      0.553176
  C       0.606592     -0.315568      1.160138
  C       1.541218      0.320849      0.288700
  N       2.261745      0.823529     -0.491422
  H      -1.558429      0.049161      1.125911
  H      -1.145523     -1.563416      0.675662
  H       0.562591      0.243311      2.117428
  H       1.042596     -1.285717      1.485595
  Li      2.847254      3.092657     -6.941603
11
Coordinates from ORCA-job SN_m1_dication_opt E -271.040449699943
  N      -0.940141      0.196719     -1.930240
  C      -0.908926     -0.149690     -0.807817
  C      -0.796753     -0.524670      0.565119
  C       0.602907     -0.323262      1.171878
  C       1.537303      0.319798      0.305083
  N       2.256527      0.829320     -0.472006
  H      -1.557751      0.054940      1.134553
  H      -1.157686     -1.564351      0.696108
  H       0.559868      0.227339      2.133784
  H       1.038966     -1.296578      1.488068
  Li      2.895115      3.149250     -7.068527
11
Coordinates from ORCA-job SN_m1_dication_opt E -271.041306427815
  N      -0.944669      0.178417     -1.921530
  C      -0.911510     -0.159240     -0.796595
  C      -0.801450     -0.528670      0.577800
  C       0.598820     -0.330772      1.184354
  C       1.531340      0.316958      0.318951
  N       2.250390      0.832513     -0.454068
  H      -1.557927      0.059887      1.144543
  H      -1.169971     -1.564398      0.715608
  H       0.557695      0.213572      2.149486
  H       1.034320     -1.306965      1.492401
  Li      2.942393      3.207514     -7.194950
11
Coordinates from ORCA-job SN_m1_dication_opt E -271.042144809125
  N      -0.953539      0.160075     -1.913755
  C      -0.918013     -0.169669     -0.786286
  C      -0.805884     -0.531675      0.589434
  C       0.595143     -0.336121      1.196438
  C       1.529453      0.314380      0.335164
  N       2.249242      0.833457     -0.434963
  H      -1.558558      0.063565      1.154589
  H      -1.179676     -1.564482      0.734860
  H       0.552931      0.200007      2.165583
  H       1.029280     -1.316098      1.495133
  Li      2.989052      3.265378     -7.320196
