11
Coordinates from ORCA-job SN_m1_reduced_opt E -271.717404404285
  N      -0.619348      0.827217     -2.123652
  C      -0.756306      0.269176     -1.122260
  C      -0.641274     -0.426652      0.145920
  C       0.736685     -0.067364      0.818743
  C       1.703830      0.268785     -0.209336
  N       2.289015      0.585068     -1.153009
  H      -1.462599     -0.156049      0.816410
  H      -0.704982     -1.502764     -0.048770
  H       0.627195      0.799112      1.479915
  H       1.085167     -0.910694      1.422702
  Li      1.272047      1.232981     -2.810662
11
Coordinates from ORCA-job SN_m1_reduced_opt E -271.720018209850
  N      -0.636026      0.861822     -2.120725
  C      -0.777472      0.286122     -1.114733
  C      -0.634400     -0.429825      0.148314
  C       0.729708     -0.065881      0.817408
  C       1.721255      0.246896     -0.205762
  N       2.309702      0.555725     -1.165840
  H      -1.463808     -0.193124      0.825613
  H      -0.676241     -1.503109     -0.062363
  H       0.611087      0.814564      1.456751
  H       1.071267     -0.890370      1.454854
  Li      1.274358      1.235995     -2.817516
11
Coordinates from ORCA-job SN_m1_reduced_opt E -271.722092248803
  N      -0.667054      0.920429     -2.099426
  C      -0.817406      0.317583     -1.099345
  C      -0.620836     -0.436168      0.145850
  C       0.719987     -0.058240      0.811076
  C       1.753647      0.204388     -0.198194
  N       2.338209      0.493768     -1.178413
  H      -1.460962     -0.263194      0.832215
  H      -0.625655     -1.503306     -0.100341
  H       0.590680      0.851021      1.407905
  H       1.046565     -0.842656      1.507586
  Li      1.272254      1.235191     -2.812912
11
Coordinates from ORCA-job SN_m1_reduced_opt E -271.723464148551
  N      -0.691664      0.974684     -2.066821
  C      -0.853198      0.347709     -1.080666
  C      -0.608388     -0.444967      0.138546
  C       0.713000     -0.045669      0.804877
  C       1.780555      0.161272     -0.190004
  N       2.354143      0.428331     -1.185948
  H      -1.453581     -0.333822      0.831402
  H      -0.578165     -1.503290     -0.146787
  H       0.577835      0.892762      1.356485
  H       1.022383     -0.788346      1.553089
  Li      1.266509      1.230153     -2.798172
11
Coordinates from ORCA-job SN_m1_reduced_opt E -271.725187895352
  N      -0.715917      1.050714     -2.007131
  C      -0.897779      0.391690     -1.046628
  C      -0.590881     -0.460587      0.123820
  C       0.704356     -0.022103      0.796926
  C       1.809706      0.096350     -0.177901
  N       2.360314      0.330104     -1.194558
  H      -1.435981     -0.439321      0.823804
  H      -0.507365     -1.500303     -0.221498
  H       0.562695      0.957104      1.276481
  H       0.985275     -0.702380      1.611407
  Li      1.255005      1.217549     -2.768722
11
Coordinates from ORCA-job SN_m1_reduced_opt E -271.726912730356
  N      -0.730915      1.150707     -1.909094
  C      -0.946326      0.453523     -0.985057
  C      -0.566276     -0.485081      0.100089
  C       0.692363      0.016411      0.787157
  C       1.831220     -0.001434     -0.161247
  N       2.343239      0.190448     -1.205170
  H      -1.400426     -0.591306      0.803074
  H      -0.401334     -1.485683     -0.330731
  H       0.542378      1.046470      1.151605
  H       0.930213     -0.570989      1.681748
  Li      1.235294      1.195750     -2.716373
11
Coordinates from ORCA-job SN_m1_reduced_opt E -271.727874900622
  N      -0.723578      1.193730     -1.857208
  C      -0.959857      0.483957     -0.948553
  C      -0.557908     -0.499124      0.087226
  C       0.688283      0.039183      0.786798
  C       1.828454     -0.052706     -0.155095
  N       2.317444      0.124736     -1.212081
  H      -1.381780     -0.668268      0.788309
  H      -0.344299     -1.472213     -0.387246
  H       0.533734      1.091749      1.083568
  H       0.905882     -0.504466      1.712284
  Li      1.223055      1.182237     -2.682001
11
Coordinates from ORCA-job SN_m1_reduced_opt E -271.729533644744
  N      -0.691896      1.218575     -1.818361
  C      -0.955483      0.510280     -0.915050
  C      -0.558886     -0.512537      0.076666
  C       0.688548      0.061637      0.795425
  C       1.808957     -0.096711     -0.156844
  N       2.271421      0.083189     -1.226051
  H      -1.370220     -0.731662      0.775833
  H      -0.289392     -1.454624     -0.434204
  H       0.526089      1.131212      1.022756
  H       0.891570     -0.456493      1.736441
  Li      1.208722      1.165950     -2.640611
11
Coordinates from ORCA-job SN_m1_reduced_opt E -271.731384608964
  N      -0.638175      1.217999     -1.805971
  C      -0.936697      0.531538     -0.891649
  C      -0.566745     -0.519646      0.072561
  C       0.691854      0.074370      0.808087
  C       1.782155     -0.126959     -0.168703
  N       2.216143      0.083375     -1.248699
  H      -1.368135     -0.765650      0.771367
  H      -0.246424     -1.437591     -0.456002
  H       0.515187      1.151873      0.982129
  H       0.886711     -0.438669      1.751093
  Li      1.193556      1.148174     -2.598212
11
Coordinates from ORCA-job SN_m1_reduced_opt E -271.732508494035
  N      -0.602044      1.180960     -1.842655
  C      -0.918506      0.527006     -0.907389
  C      -0.578963     -0.511644      0.080278
  C       0.698153      0.061791      0.815907
  C       1.777099     -0.106574     -0.182701
  N       2.199120      0.145384     -1.261932
  H      -1.384355     -0.727991      0.783887
  H      -0.263373     -1.443133     -0.426831
  H       0.511908      1.132768      1.012799
  H       0.900382     -0.481202      1.739913
  Li      1.190009      1.141452     -2.595275
11
Coordinates from ORCA-job SN_m1_reduced_opt E -271.733759670764
  N      -0.586041      1.165648     -1.853554
  C      -0.924988      0.542233     -0.900655
  C      -0.573996     -0.505042      0.083774
  C       0.695678      0.052607      0.807627
  C       1.787692     -0.121512     -0.187037
  N       2.191774      0.173394     -1.267036
  H      -1.382056     -0.723341      0.784474
  H      -0.264149     -1.441322     -0.419530
  H       0.506311      1.122250      1.012152
  H       0.894963     -0.479560      1.738986
  Li      1.184241      1.133460     -2.583198
11
Coordinates from ORCA-job SN_m1_reduced_opt E -271.734807380199
  N      -0.592044      1.103623     -1.914564
  C      -0.938179      0.521459     -0.938338
  C      -0.573298     -0.485950      0.097583
  C       0.696871      0.022089      0.794117
  C       1.820974     -0.084374     -0.187400
  N       2.218304      0.263187     -1.254660
  H      -1.395613     -0.644289      0.800844
  H      -0.336143     -1.461511     -0.365525
  H       0.523640      1.074502      1.083025
  H       0.910589     -0.536592      1.709140
  Li      1.194330      1.146672     -2.608222
11
Coordinates from ORCA-job SN_m1_reduced_opt E -271.735119894448
  N      -0.587484      1.093547     -1.913130
  C      -0.944745      0.525943     -0.934196
  C      -0.573243     -0.488521      0.095460
  C       0.697800      0.025402      0.793570
  C       1.824018     -0.096624     -0.185263
  N       2.209266      0.268447     -1.249671
  H      -1.394728     -0.651121      0.797986
  H      -0.341304     -1.460584     -0.377711
  H       0.536087      1.082013      1.076676
  H       0.910731     -0.527661      1.711760
  Li      1.193033      1.147977     -2.599480
11
Coordinates from ORCA-job SN_m1_reduced_opt E -271.735374656498
  N      -0.582991      1.073307     -1.918710
  C      -0.948347      0.522671     -0.935717
  C      -0.575453     -0.490667      0.097064
  C       0.698372      0.026568      0.795951
  C       1.824561     -0.102228     -0.182929
  N       2.200417      0.283384     -1.241539
  H      -1.395368     -0.648653      0.802087
  H      -0.355678     -1.459108     -0.386013
  H       0.554589      1.085691      1.075986
  H       0.911927     -0.530072      1.711731
  Li      1.197402      1.157922     -2.601912
11
Coordinates from ORCA-job SN_m1_reduced_opt E -271.735517109072
  N      -0.577226      1.054485     -1.926096
  C      -0.947621      0.518243     -0.937904
  C      -0.577837     -0.490659      0.101857
  C       0.697852      0.024030      0.798704
  C       1.823277     -0.104664     -0.183256
  N       2.193357      0.300162     -1.236716
  H      -1.396481     -0.641803      0.809765
  H      -0.366658     -1.457252     -0.386391
  H       0.565252      1.084050      1.076653
  H       0.911389     -0.538009      1.711148
  Li      1.204125      1.170233     -2.611764
11
Coordinates from ORCA-job SN_m1_reduced_opt E -271.735618582622
  N      -0.570116      1.036748     -1.933793
  C      -0.944038      0.513264     -0.940139
  C      -0.581152     -0.489332      0.108194
  C       0.697567      0.019283      0.801653
  C       1.821287     -0.106316     -0.185706
  N       2.186767      0.317949     -1.234267
  H      -1.398868     -0.632122      0.818749
  H      -0.375022     -1.456373     -0.380763
  H       0.569911      1.079653      1.078243
  H       0.910527     -0.548761      1.710266
  Li      1.212568      1.184824     -2.626434
11
Coordinates from ORCA-job SN_m1_reduced_opt E -271.735658913523
  N      -0.566838      1.030046     -1.936863
  C      -0.941191      0.510522     -0.941172
  C      -0.583339     -0.488029      0.111316
  C       0.698107      0.016167      0.802371
  C       1.820786     -0.107890     -0.188052
  N       2.184379      0.325878     -1.234466
  H      -1.400997     -0.626098      0.822763
  H      -0.377234     -1.457519     -0.373632
  H       0.568012      1.076301      1.079340
  H       0.910241     -0.554127      1.709535
  Li      1.217504      1.193565     -2.635141
11
Coordinates from ORCA-job SN_m1_reduced_opt E -271.735679212188
  N      -0.565823      1.028911     -1.937242
  C      -0.939109      0.508551     -0.941798
  C      -0.584672     -0.487410      0.112175
  C       0.699036      0.014908      0.801698
  C       1.821043     -0.110146     -0.189891
  N       2.183584      0.328268     -1.235434
  H      -1.402627     -0.622790      0.823778
  H      -0.377296     -1.459821     -0.367192
  H       0.564792      1.074588      1.079640
  H       0.910312     -0.555442      1.708904
  Li      1.220189      1.199200     -2.638636
11
Coordinates from ORCA-job SN_m1_reduced_opt E -271.735695693297
  N      -0.565325      1.028554     -1.936978
  C      -0.936902      0.505209     -0.943089
  C      -0.585782     -0.487494      0.112525
  C       0.700087      0.014644      0.800189
  C       1.821384     -0.114410     -0.191961
  N       2.182294      0.329341     -1.236505
  H      -1.404186     -0.619902      0.824237
  H      -0.377949     -1.463176     -0.360411
  H       0.562658      1.074034      1.078704
  H       0.910334     -0.554595      1.708294
  Li      1.222816      1.206611     -2.639003
11
Coordinates from ORCA-job SN_m1_reduced_opt E -271.735730260581
  N      -0.565218      1.028017     -1.936224
  C      -0.932094      0.496127     -0.946927
  C      -0.587711     -0.488479      0.113315
  C       0.702035      0.014909      0.796596
  C       1.822254     -0.124821     -0.196179
  N       2.179227      0.330852     -1.238509
  H      -1.407144     -0.614198      0.825295
  H      -0.380690     -1.470354     -0.347392
  H       0.560743      1.074249      1.074723
  H       0.909972     -0.551109      1.707298
  Li      1.228056      1.223621     -2.635995
11
Coordinates from ORCA-job SN_m1_reduced_opt E -271.735881795509
  N      -0.566451      1.022735     -1.933166
  C      -0.907243      0.451672     -0.965426
  C      -0.595704     -0.493650      0.117860
  C       0.710295      0.016594      0.779623
  C       1.824488     -0.174768     -0.217102
  N       2.164133      0.338667     -1.246054
  H      -1.420755     -0.588007      0.829350
  H      -0.395357     -1.500338     -0.290216
  H       0.556214      1.076855      1.052301
  H       0.908820     -0.533305      1.702531
  Li      1.250991      1.302361     -2.613699
11
Coordinates from ORCA-job SN_m1_reduced_opt E -271.736045026590
  N      -0.573217      1.014957     -1.930869
  C      -0.875217      0.404299     -0.985032
  C      -0.602820     -0.498649      0.121779
  C       0.719291      0.018727      0.761478
  C       1.825724     -0.224097     -0.240107
  N       2.149757      0.348146     -1.251786
  H      -1.435956     -0.558877      0.828861
  H      -0.412883     -1.527559     -0.232166
  H       0.553623      1.079371      1.030568
  H       0.910084     -0.515613      1.695654
  Li      1.271044      1.378110     -2.582379
11
Coordinates from ORCA-job SN_m1_reduced_opt E -271.736653749234
  N      -0.593011      1.013677     -1.932078
  C      -0.849036      0.373053     -1.001372
  C      -0.604414     -0.500987      0.121743
  C       0.726107      0.020465      0.752310
  C       1.835218     -0.244175     -0.248260
  N       2.146909      0.356233     -1.254295
  H      -1.446076     -0.536235      0.821471
  H      -0.429162     -1.541010     -0.202299
  H       0.557810      1.079829      1.026387
  H       0.910539     -0.510313      1.690837
  Li      1.274546      1.408279     -2.558444
11
Coordinates from ORCA-job SN_m1_reduced_opt E -271.739335992917
  N      -0.669636      1.024516     -1.938904
  C      -0.800860      0.343319     -1.028999
  C      -0.594050     -0.503039      0.116573
  C       0.735279      0.025725      0.756635
  C       1.881639     -0.237951     -0.229226
  N       2.154003      0.377294     -1.250698
  H      -1.457291     -0.508622      0.792317
  H      -0.462240     -1.538341     -0.219586
  H       0.595999      1.083985      1.042453
  H       0.902487     -0.518177      1.694472
  Li      1.244100      1.370107     -2.519036
11
Coordinates from ORCA-job SN_m1_reduced_opt E -271.741300524292
  N      -0.726208      1.028543     -1.970430
  C      -0.803656      0.344290     -1.051038
  C      -0.576461     -0.496652      0.115093
  C       0.734124      0.020588      0.773145
  C       1.916513     -0.210036     -0.197263
  N       2.161611      0.393053     -1.232318
  H      -1.446005     -0.492502      0.781748
  H      -0.472570     -1.516340     -0.268889
  H       0.644938      1.081487      1.052511
  H       0.892315     -0.540392      1.702766
  Li      1.204828      1.306778     -2.489324
11
Coordinates from ORCA-job SN_m1_reduced_opt E -271.715885183207
  N      -1.105012      0.752504     -2.262186
  C      -0.770662      0.231573     -1.226160
  C      -0.482445     -0.380987      0.082258
  C       0.821638     -0.060488      0.750284
  C       2.176243     -0.297863     -0.145240
  N       2.108357      0.586849     -1.014817
  H      -1.364389     -0.093424      0.678083
  H      -0.568372     -1.441882     -0.230745
  H       0.862660      0.986519      1.025745
  H       0.828283     -0.691436      1.640169
  Li      1.023130      1.327453     -2.081391
11
Coordinates from ORCA-job SN_m1_reduced_opt E -271.739168798157
  N      -1.054543      0.852432     -2.186143
  C      -0.722445      0.266493     -1.196245
  C      -0.508407     -0.404702      0.083823
  C       0.795478     -0.054762      0.800320
  C       2.066707     -0.240703     -0.158728
  N       2.165539      0.525665     -1.116922
  H      -1.393372     -0.171470      0.693329
  H      -0.506414     -1.484049     -0.184036
  H       0.761411      0.996283      1.094809
  H       0.840676     -0.706541      1.675593
  Li      1.084799      1.340171     -2.289799
11
Coordinates from ORCA-job SN_m1_reduced_opt E -271.745737544341
  N      -1.010921      0.902106     -2.144362
  C      -0.695243      0.288493     -1.197561
  C      -0.513073     -0.416609      0.065596
  C       0.787864     -0.051367      0.820138
  C       2.003526     -0.174199     -0.156449
  N       2.163299      0.497991     -1.156925
  H      -1.394514     -0.199667      0.678329
  H      -0.496839     -1.492380     -0.160874
  H       0.724600      0.989374      1.161305
  H       0.870528     -0.720932      1.680464
  Li      1.090204      1.296005     -2.373660
11
Coordinates from ORCA-job SN_m1_reduced_opt E -271.747035637759
  N      -1.013886      0.937813     -2.126233
  C      -0.686116      0.312340     -1.197545
  C      -0.504227     -0.415355      0.054348
  C       0.784967     -0.051104      0.827637
  C       2.001982     -0.124238     -0.123185
  N       2.160522      0.486903     -1.158211
  H      -1.390172     -0.213598      0.667377
  H      -0.489004     -1.486739     -0.181397
  H       0.719420      0.979406      1.200522
  H       0.876735     -0.732757      1.676248
  Li      1.069210      1.226142     -2.423559
11
Coordinates from ORCA-job SN_m1_reduced_opt E -271.749142777036
  N      -1.004126      0.998740     -2.107460
  C      -0.661189      0.357867     -1.195652
  C      -0.490123     -0.406848      0.035090
  C       0.786417     -0.051428      0.838548
  C       2.003292     -0.027753     -0.062282
  N       2.134037      0.474880     -1.153797
  H      -1.383021     -0.231590      0.648452
  H      -0.476099     -1.471157     -0.223022
  H       0.711870      0.954795      1.272369
  H       0.893620     -0.760624      1.661391
  Li      1.014752      1.081932     -2.497634
11
Coordinates from ORCA-job SN_m1_reduced_opt E -271.750495386687
  N      -0.975545      1.035340     -2.114631
  C      -0.634045      0.395668     -1.194618
  C      -0.482117     -0.389170      0.022032
  C       0.794971     -0.054349      0.848828
  C       2.000148      0.079182     -0.010475
  N       2.091519      0.475112     -1.145424
  H      -1.375489     -0.229722      0.639298
  H      -0.474007     -1.447896     -0.255142
  H       0.702746      0.914910      1.356678
  H       0.921008     -0.805198      1.632131
  Li      0.960242      0.944940     -2.562674
11
Coordinates from ORCA-job SN_m1_reduced_opt E -271.751443889218
  N      -0.955981      0.992836     -2.143082
  C      -0.623917      0.381651     -1.195906
  C      -0.490443     -0.378873      0.032893
  C       0.802054     -0.062664      0.851743
  C       2.003268      0.092351     -0.014955
  N       2.068455      0.497838     -1.150062
  H      -1.376066     -0.195526      0.653590
  H      -0.497343     -1.443292     -0.226575
  H       0.695605      0.890210      1.387878
  H       0.928742     -0.834011      1.616365
  Li      0.975055      0.978295     -2.595890
11
Coordinates from ORCA-job SN_m1_reduced_opt E -271.752391339175
  N      -0.961217      0.954113     -2.178923
  C      -0.622108      0.389139     -1.197774
  C      -0.489310     -0.359614      0.040417
  C       0.808654     -0.067378      0.866017
  C       2.015871      0.120410     -0.012048
  N       2.053509      0.497725     -1.158934
  H      -1.369907     -0.166307      0.662494
  H      -0.497993     -1.424979     -0.227587
  H       0.684244      0.865679      1.430528
  H       0.931426     -0.869004      1.601281
  Li      0.976262      0.979031     -2.609470
11
Coordinates from ORCA-job SN_m1_reduced_opt E -271.752850245444
  N      -0.946870      0.925077     -2.194673
  C      -0.603014      0.392084     -1.198570
  C      -0.488396     -0.347681      0.046846
  C       0.809509     -0.067280      0.877790
  C       2.013129      0.138700     -0.011229
  N       2.022024      0.488238     -1.169079
  H      -1.369614     -0.151632      0.665859
  H      -0.497368     -1.411171     -0.227754
  H       0.680348      0.851422      1.463415
  H       0.936447     -0.888541      1.589666
  Li      0.973236      0.989601     -2.626270
11
Coordinates from ORCA-job SN_m1_reduced_opt E -271.753213562360
  N      -0.953246      0.907730     -2.202290
  C      -0.594998      0.406420     -1.196451
  C      -0.482852     -0.341561      0.048536
  C       0.807230     -0.063506      0.884609
  C       2.011582      0.148424     -0.008887
  N       2.010795      0.461049     -1.176133
  H      -1.369959     -0.151386      0.661421
  H      -0.491054     -1.401201     -0.237075
  H       0.675431      0.846487      1.482331
  H       0.944131     -0.891084      1.586437
  Li      0.972369      0.997444     -2.626498
11
Coordinates from ORCA-job SN_m1_reduced_opt E -271.753411453687
  N      -0.953892      0.906744     -2.194032
  C      -0.586338      0.399836     -1.200068
  C      -0.479016     -0.345087      0.050792
  C       0.801767     -0.053431      0.887289
  C       2.010304      0.145960     -0.010472
  N       1.995138      0.425594     -1.186600
  H      -1.376556     -0.159494      0.650408
  H      -0.488183     -1.400022     -0.245586
  H       0.679068      0.856039      1.486689
  H       0.951995     -0.878250      1.590247
  Li      0.975144      1.020928     -2.612667
11
Coordinates from ORCA-job SN_m1_reduced_opt E -271.753519743412
  N      -0.957231      0.923289     -2.183178
  C      -0.580835      0.413400     -1.191936
  C      -0.476559     -0.351219      0.048253
  C       0.798615     -0.050947      0.885898
  C       1.999474      0.149487     -0.010564
  N       1.995799      0.401401     -1.190971
  H      -1.378448     -0.172612      0.644478
  H      -0.479382     -1.406249     -0.250522
  H       0.670224      0.862359      1.478930
  H       0.960564     -0.866694      1.596313
  Li      0.977209      1.016600     -2.610699
11
Coordinates from ORCA-job SN_m1_reduced_opt E -271.753598819362
  N      -0.959141      0.936545     -2.175855
  C      -0.586166      0.406717     -1.192983
  C      -0.477815     -0.356512      0.047297
  C       0.798812     -0.050192      0.882527
  C       2.000738      0.148614     -0.010234
  N       2.000351      0.396379     -1.192111
  H      -1.379205     -0.175916      0.643518
  H      -0.479877     -1.412608     -0.247754
  H       0.668058      0.866864      1.469465
  H       0.961394     -0.860316      1.599671
  Li      0.982283      1.019240     -2.607540
11
Coordinates from ORCA-job SN_m1_reduced_opt E -271.753665767247
  N      -0.957613      0.954774     -2.163713
  C      -0.587389      0.400069     -1.192970
  C      -0.478923     -0.362856      0.046651
  C       0.798210     -0.049121      0.880408
  C       1.999583      0.152732     -0.010376
  N       1.998385      0.384141     -1.196957
  H      -1.379699     -0.180735      0.642980
  H      -0.476302     -1.420193     -0.244579
  H       0.661747      0.872210      1.459682
  H       0.962126     -0.854113      1.603202
  Li      0.989305      1.021909     -2.608326
11
Coordinates from ORCA-job SN_m1_reduced_opt E -271.753683729892
  N      -0.957655      0.962326     -2.158814
  C      -0.587228      0.398445     -1.193638
  C      -0.478543     -0.364628      0.045867
  C       0.798070     -0.048486      0.880257
  C       1.999898      0.157607     -0.010250
  N       1.995781      0.376433     -1.199619
  H      -1.378796     -0.182117      0.642771
  H      -0.473433     -1.422399     -0.242935
  H       0.657202      0.872903      1.458529
  H       0.962004     -0.852889      1.603577
  Li      0.992130      1.021620     -2.609745
11
Coordinates from ORCA-job SN_m1_reduced_opt E -271.753690236333
  N      -0.957668      0.963619     -2.157270
  C      -0.585532      0.397918     -1.194233
  C      -0.478190     -0.364767      0.045477
  C       0.797760     -0.048506      0.880704
  C       1.999892      0.159354     -0.010986
  N       1.994861      0.374279     -1.201125
  H      -1.377983     -0.181482      0.642893
  H      -0.472100     -1.423146     -0.240811
  H       0.655039      0.872557      1.459023
  H       0.960739     -0.853534      1.603293
  Li      0.992613      1.022524     -2.610963
11
Coordinates from ORCA-job SN_m1_reduced_opt E -271.753693919014
  N      -0.957914      0.963381     -2.157746
  C      -0.583886      0.397967     -1.195354
  C      -0.477758     -0.364067      0.044883
  C       0.797776     -0.048456      0.881318
  C       1.999785      0.162558     -0.010633
  N       1.994119      0.373375     -1.201153
  H      -1.377324     -0.179841      0.642443
  H      -0.472219     -1.422837     -0.239528
  H       0.654224      0.870740      1.462284
  H       0.961040     -0.855273      1.601760
  Li      0.991587      1.021270     -2.612271
11
Coordinates from ORCA-job SN_m1_reduced_opt E -271.753697417506
  N      -0.958377      0.960877     -2.159000
  C      -0.581822      0.396975     -1.196619
  C      -0.477703     -0.363491      0.044711
  C       0.797708     -0.048763      0.881734
  C       1.999726      0.162945     -0.011065
  N       1.994715      0.374693     -1.201161
  H      -1.377124     -0.177010      0.641854
  H      -0.473608     -1.422992     -0.237015
  H       0.654283      0.869371      1.464283
  H       0.961120     -0.856848      1.600634
  Li      0.990512      1.023060     -2.612353
11
Coordinates from ORCA-job SN_m1_reduced_opt E -271.753701864716
  N      -0.958949      0.956607     -2.161659
  C      -0.578806      0.394932     -1.198934
  C      -0.477802     -0.362509      0.044599
  C       0.797956     -0.049451      0.882205
  C       1.999480      0.164397     -0.010804
  N       1.995337      0.377843     -1.200243
  H      -1.377108     -0.171657      0.640532
  H      -0.477118     -1.422938     -0.233566
  H       0.655108      0.866575      1.468053
  H       0.962789     -0.859776      1.598293
  Li      0.988542      1.024793     -2.612474
11
Coordinates from ORCA-job SN_m1_reduced_opt E -271.753705257346
  N      -0.959555      0.952154     -2.164099
  C      -0.576131      0.392487     -1.201000
  C      -0.478079     -0.361901      0.044925
  C       0.798388     -0.050487      0.882362
  C       1.999237      0.164884     -0.010521
  N       1.995751      0.381757     -1.199252
  H      -1.377338     -0.166117      0.639238
  H      -0.481100     -1.423094     -0.230344
  H       0.656016      0.864176      1.470403
  H       0.964843     -0.862274      1.596478
  Li      0.987399      1.027231     -2.612190
11
Coordinates from ORCA-job SN_m1_reduced_opt E -271.753707529731
  N      -0.960029      0.948745     -2.165857
  C      -0.574152      0.390833     -1.202356
  C      -0.478269     -0.361496      0.045458
  C       0.798957     -0.051616      0.882416
  C       1.998953      0.165575     -0.010047
  N       1.995308      0.385335     -1.198305
  H      -1.377496     -0.161715      0.638361
  H      -0.484343     -1.423030     -0.228449
  H       0.656620      0.862133      1.471921
  H       0.966761     -0.864308      1.595233
  Li      0.987120      1.028361     -2.612374
11
Coordinates from ORCA-job SN_m1_reduced_opt E -271.753708895117
  N      -0.960383      0.946659     -2.166768
  C      -0.572802      0.390286     -1.202933
  C      -0.478271     -0.361211      0.045982
  C       0.799446     -0.052577      0.882520
  C       1.998691      0.166304     -0.009720
  N       1.994273      0.388038     -1.197694
  H      -1.377475     -0.159079      0.638016
  H      -0.486222     -1.422765     -0.227779
  H       0.656850      0.860659      1.472841
  H       0.967841     -0.865731      1.594666
  Li      0.987482      1.028232     -2.613129
11
Coordinates from ORCA-job SN_m1_reduced_opt E -271.753709590497
  N      -0.960643      0.945848     -2.167007
  C      -0.571960      0.390546     -1.203024
  C      -0.478110     -0.360984      0.046278
  C       0.799710     -0.053148      0.882717
  C       1.998489      0.166930     -0.009611
  N       1.993161      0.389621     -1.197410
  H      -1.377330     -0.158126      0.637993
  H      -0.486808     -1.422428     -0.227855
  H       0.656905      0.859786      1.473518
  H       0.968044     -0.866533      1.594580
  Li      0.987972      1.027304     -2.614179
