10
 energy: -20.117270218034 gnorm: 0.000628559908 xtb: 6.7.1pre (5071a88)
C           -0.20901593206453       -0.94326006394335       -0.10440762288856
C           -0.87259845960564        0.42295040823586       -0.06332407256290
O            0.16008220154401        1.30527291548425        0.12930106993280
C            1.37228773876332        0.66011225618079        0.21191110436915
O            2.41272318831726        1.16058869937528        0.37642569568311
O            1.12751952226608       -0.68575797754020        0.06727847825329
H           -0.36526808539284       -1.50969973253692       -1.04885925231849
H           -0.56001167588876       -1.65419119621847        0.67590162778674
H           -1.43407660594717        0.69558224605436       -0.98420860045314
H           -1.63164189199173        0.54840244490839        0.73998158219803
