10
Coordinates from ORCA-job EC_cation_cpcm_7_default E -342.057031301955
  C          -0.22013527952170     -0.93177370185424     -0.10649749387941
  C          -0.87071821497438      0.40708015957087     -0.06370205550702
  O           0.16045640597242      1.31866511892419      0.13610242967420
  C           1.38618215926471      0.66657024677156      0.21541176027628
  O           2.43403282312927      1.17090367483888      0.37824645313479
  O           1.13961772782953     -0.69338958277751      0.06453689889220
  H          -0.38091185487660     -1.50986917225765     -1.04764823564250
  H          -0.57049214009906     -1.64929776771695      0.67471384684370
  H          -1.43767882179058      0.68391764195524     -0.98547176965188
  H          -1.64035280493362      0.53719338254561      0.73430817585966
