13
Coordinates from ORCA-job PC_anion_cpcm_5_moread E -381.636279749496
  C       1.583626     -0.338288      0.054397
  C       0.119798     -0.420765      0.465192
  C      -0.580686      0.955929      0.520491
  O      -1.536891      0.900638     -0.517985
  C      -1.543081     -0.317687     -1.088214
  O      -2.261602     -0.637900     -1.974707
  O      -0.631599     -1.120046     -0.518743
  H       2.151951      0.180080      0.821850
  H       1.681034      0.194200     -0.889025
  H       1.984583     -1.340186     -0.070884
  H       0.020096     -0.969659      1.408167
  H       0.108962      1.780275      0.321121
  H      -1.096192      1.133408      1.468342
13
Coordinates from ORCA-job PC_anion_cpcm_5_moread E -381.659669609289
  C       1.578503     -0.330776      0.053669
  C       0.118066     -0.421931      0.478809
  C      -0.568946      0.951547      0.529259
  O      -1.539513      0.908349     -0.525506
  C      -1.605202     -0.344712     -1.051257
  O      -2.239331     -0.626234     -2.041957
  O      -0.639256     -1.136330     -0.517119
  H       2.153642      0.195663      0.821032
  H       1.672269      0.204462     -0.893854
  H       1.992765     -1.333469     -0.074060
  H       0.022093     -0.972720      1.424882
  H       0.139528      1.762263      0.316422
  H      -1.084618      1.143886      1.479679
13
Coordinates from ORCA-job PC_anion_cpcm_5_moread E -381.681852252474
  C       1.575016     -0.327524      0.053711
  C       0.117525     -0.425714      0.484344
  C      -0.565705      0.950774      0.532208
  O      -1.541692      0.918884     -0.523114
  C      -1.669183     -0.372077     -1.011613
  O      -2.202071     -0.609029     -2.100943
  O      -0.640042     -1.150658     -0.509005
  H       2.155474      0.204288      0.817496
  H       1.659921      0.208803     -0.895625
  H       1.998929     -1.327650     -0.075583
  H       0.031175     -0.977245      1.431825
  H       0.154917      1.747670      0.311734
  H      -1.074263      1.159476      1.484564
13
Coordinates from ORCA-job PC_anion_cpcm_5_moread E -381.696384506704
  C       1.571109     -0.326120      0.055590
  C       0.116377     -0.433054      0.486476
  C      -0.567618      0.951345      0.532842
  O      -1.544797      0.939471     -0.515522
  C      -1.738604     -0.401140     -0.979884
  O      -2.167876     -0.592520     -2.163157
  O      -0.631432     -1.170440     -0.498321
  H       2.154797      0.212855      0.813996
  H       1.643895      0.211289     -0.895955
  H       2.008592     -1.321777     -0.073431
  H       0.043277     -0.979375      1.437554
  H       0.167564      1.733251      0.307990
  H      -1.055285      1.176215      1.491822
13
Coordinates from ORCA-job PC_anion_cpcm_5_moread E -381.700170069892
  C       1.573504     -0.331884      0.050866
  C       0.114973     -0.426759      0.472329
  C      -0.573572      0.953196      0.523359
  O      -1.533603      0.936796     -0.526146
  C      -1.799013     -0.428452     -0.933569
  O      -2.111167     -0.572149     -2.154386
  O      -0.625424     -1.161753     -0.504930
  H       2.157139      0.201684      0.810277
  H       1.652757      0.207691     -0.898934
  H       2.006324     -1.329250     -0.077063
  H       0.042610     -0.956026      1.433664
  H       0.156949      1.747399      0.318376
  H      -1.061478      1.159505      1.486156
13
Coordinates from ORCA-job PC_anion_cpcm_5_moread E -381.701518947843
  C       1.583193     -0.334160      0.056316
  C       0.120285     -0.424587      0.462267
  C      -0.573406      0.957424      0.515502
  O      -1.514265      0.955593     -0.549761
  C      -1.802229     -0.424362     -0.935249
  O      -2.176853     -0.596716     -2.137979
  O      -0.609779     -1.160679     -0.520461
  H       2.163252      0.191562      0.825419
  H       1.674067      0.213534     -0.888640
  H       2.014389     -1.332420     -0.075253
  H       0.040823     -0.946938      1.429074
  H       0.155603      1.760144      0.340741
  H      -1.075081      1.141604      1.478024
13
Coordinates from ORCA-job PC_anion_cpcm_5_moread E -381.703243951131
  C       1.603009     -0.338592      0.065489
  C       0.131109     -0.418792      0.436055
  C      -0.572942      0.963863      0.492659
  O      -1.453085      0.987229     -0.615764
  C      -1.808706     -0.413352     -0.920635
  O      -2.301875     -0.639373     -2.060300
  O      -0.575901     -1.147122     -0.562341
  H       2.171284      0.168610      0.856034
  H       1.723415      0.224597     -0.867688
  H       2.027025     -1.339068     -0.072372
  H       0.030472     -0.926879      1.411482
  H       0.145441      1.788377      0.394246
  H      -1.119245      1.090503      1.443136
13
Coordinates from ORCA-job PC_anion_cpcm_5_moread E -381.703611702075
  C       1.614163     -0.339246      0.070502
  C       0.137880     -0.417740      0.420663
  C      -0.572021      0.965521      0.475599
  O      -1.398216      1.003207     -0.668817
  C      -1.810350     -0.401617     -0.900744
  O      -2.376123     -0.658825     -1.987788
  O      -0.555588     -1.135342     -0.591298
  H       2.172981      0.157735      0.873578
  H       1.751927      0.232099     -0.855117
  H       2.035011     -1.340350     -0.071043
  H       0.022207     -0.922236      1.396529
  H       0.138059      1.801115      0.432371
  H      -1.159929      1.055679      1.405564
13
Coordinates from ORCA-job PC_anion_cpcm_5_moread E -381.703686115298
  C       1.609750     -0.337644      0.067855
  C       0.136019     -0.419578      0.428422
  C      -0.571123      0.964236      0.480507
  O      -1.404434      1.000229     -0.660985
  C      -1.807907     -0.401604     -0.903931
  O      -2.354165     -0.653799     -2.002392
  O      -0.562761     -1.138516     -0.580896
  H       2.172061      0.163715      0.865427
  H       1.739886      0.229871     -0.860884
  H       2.031989     -1.338284     -0.072837
  H       0.024571     -0.927253      1.402019
  H       0.143271      1.795536      0.428039
  H      -1.157158      1.063090      1.409655
13
Coordinates from ORCA-job PC_anion_cpcm_5_moread E -381.703716454822
  C       1.606967     -0.336148      0.065454
  C       0.135344     -0.421229      0.434061
  C      -0.570133      0.963194      0.482806
  O      -1.395845      1.000710     -0.665647
  C      -1.805900     -0.398517     -0.902958
  O      -2.345600     -0.652606     -2.004091
  O      -0.567248     -1.141114     -0.573677
  H       2.172165      0.167802      0.859239
  H       1.730944      0.229365     -0.865090
  H       2.030461     -1.336256     -0.075938
  H       0.026800     -0.930481      1.406267
  H       0.147381      1.791697      0.434215
  H      -1.165337      1.063582      1.405359
13
Coordinates from ORCA-job PC_anion_cpcm_5_moread E -381.703735801546
  C       1.604366     -0.335249      0.062210
  C       0.135014     -0.422112      0.439833
  C      -0.569611      0.962309      0.485275
  O      -1.382235      1.002343     -0.673662
  C      -1.802966     -0.394016     -0.902747
  O      -2.338717     -0.652574     -2.005175
  O      -0.572452     -1.145110     -0.564045
  H       2.173716      0.170683      0.851819
  H       1.721369      0.228758     -0.870040
  H       2.028573     -1.334913     -0.080752
  H       0.030674     -0.930534      1.412433
  H       0.149928      1.789140      0.445505
  H      -1.177659      1.061276      1.399347
13
Coordinates from ORCA-job PC_anion_cpcm_5_moread E -381.703763613138
  C       1.599570     -0.334744      0.055257
  C       0.134612     -0.422471      0.450275
  C      -0.569677      0.960911      0.490268
  O      -1.357407      1.005191     -0.687144
  C      -1.796818     -0.385796     -0.904404
  O      -2.323474     -0.652123     -2.010401
  O      -0.582993     -1.153348     -0.543122
  H       2.177818      0.174364      0.836464
  H       1.703619      0.226415     -0.880212
  H       2.023793     -1.334034     -0.090551
  H       0.039845     -0.926171      1.425882
  H       0.151204      1.786707      0.468282
  H      -1.200092      1.055098      1.389406
13
Coordinates from ORCA-job PC_anion_cpcm_5_moread E -381.703814552058
  C       1.589548     -0.335078      0.040448
  C       0.133891     -0.421664      0.470322
  C      -0.571008      0.958424      0.500639
  O      -1.310996      1.009424     -0.709031
  C      -1.783640     -0.370714     -0.910077
  O      -2.287538     -0.650181     -2.025255
  O      -0.605003     -1.168734     -0.498486
  H       2.186248      0.179938      0.803978
  H       1.668644      0.219771     -0.901274
  H       2.011824     -1.334459     -0.110087
  H       0.060194     -0.912880      1.453692
  H       0.148754      1.784664      0.513370
  H      -1.240919      1.041489      1.371762
13
Coordinates from ORCA-job PC_anion_cpcm_5_moread E -381.703860121339
  C       1.572884     -0.336977      0.017300
  C       0.132460     -0.418557      0.499038
  C      -0.573967      0.955343      0.517119
  O      -1.247244      1.013437     -0.732519
  C      -1.761770     -0.350822     -0.921296
  O      -2.223488     -0.647303     -2.052568
  O      -0.639429     -1.187415     -0.429176
  H       2.197324      0.186291      0.752889
  H       1.616000      0.207362     -0.933017
  H       1.989709     -1.337641     -0.138735
  H       0.092318     -0.889253      1.494107
  H       0.139280      1.784377      0.578033
  H      -1.294079      1.021156      1.348825
13
Coordinates from ORCA-job PC_anion_cpcm_5_moread E -381.703932876843
  C       1.573171     -0.338166      0.017281
  C       0.131920     -0.417594      0.497296
  C      -0.574692      0.955781      0.517181
  O      -1.259984      1.013310     -0.724830
  C      -1.763841     -0.354141     -0.925291
  O      -2.216847     -0.645182     -2.061168
  O      -0.639748     -1.187271     -0.428166
  H       2.197223      0.185897      0.752605
  H       1.618764      0.204432     -0.933999
  H       1.988731     -1.339714     -0.135621
  H       0.092949     -0.885546      1.494249
  H       0.136983      1.787036      0.572449
  H      -1.284627      1.021159      1.358015
13
Coordinates from ORCA-job PC_anion_cpcm_5_moread E -381.704009100686
  C       1.563278     -0.341837      0.002633
  C       0.130247     -0.414110      0.510466
  C      -0.578305      0.954849      0.526626
  O      -1.244340      1.015285     -0.723503
  C      -1.754044     -0.348570     -0.938785
  O      -2.162902     -0.638233     -2.090197
  O      -0.660989     -1.195125     -0.384455
  H       2.201948      0.190128      0.719385
  H       1.593326      0.188599     -0.956187
  H       1.972854     -1.346486     -0.144554
  H       0.114149     -0.864760      1.516425
  H       0.123763      1.792962      0.602157
  H      -1.298986      1.007298      1.359989
13
Coordinates from ORCA-job PC_anion_cpcm_5_moread E -381.704022228714
  C       1.563264     -0.341580      0.002357
  C       0.130173     -0.415229      0.510468
  C      -0.578437      0.954488      0.526340
  O      -1.247259      1.015093     -0.721100
  C      -1.755846     -0.349256     -0.939846
  O      -2.160453     -0.634501     -2.092260
  O      -0.661420     -1.195754     -0.383506
  H       2.200459      0.193803      0.717731
  H       1.594058      0.185187     -0.958286
  H       1.973912     -1.346520     -0.140598
  H       0.114768     -0.866061      1.516004
  H       0.123539      1.792725      0.600863
  H      -1.296758      1.007605      1.361833
13
Coordinates from ORCA-job PC_anion_cpcm_5_moread E -381.704029275502
  C       1.559512     -0.341198     -0.001862
  C       0.129501     -0.416048      0.515645
  C      -0.578697      0.953708      0.529505
  O      -1.238601      1.015198     -0.722218
  C      -1.753214     -0.346858     -0.942736
  O      -2.145786     -0.631209     -2.098593
  O      -0.668034     -1.199087     -0.370947
  H       2.199524      0.199297      0.707135
  H       1.584016      0.180089     -0.965508
  H       1.971153     -1.346284     -0.141772
  H       0.120568     -0.865082      1.521634
  H       0.123496      1.791101      0.610136
  H      -1.303436      1.006372      1.359580
13
Coordinates from ORCA-job PC_anion_cpcm_5_moread E -381.704030730046
  C       1.559479     -0.340706     -0.001480
  C       0.129401     -0.416587      0.515697
  C      -0.578396      0.953529      0.529483
  O      -1.237973      1.014888     -0.722565
  C      -1.753534     -0.346843     -0.942675
  O      -2.147572     -0.630697     -2.097974
  O      -0.667743     -1.199813     -0.371567
  H       2.198692      0.200490      0.707719
  H       1.583693      0.180388     -0.965215
  H       1.972215     -1.345384     -0.141166
  H       0.120046     -0.866668      1.521165
  H       0.125110      1.789880      0.609427
  H      -1.303418      1.007524      1.359152
13
Coordinates from ORCA-job PC_anion_cpcm_5_moread E -381.704031261878
  C       1.559193     -0.340548     -0.001543
  C       0.129271     -0.416704      0.516052
  C      -0.578314      0.953401      0.529755
  O      -1.236916      1.014663     -0.723006
  C      -1.753353     -0.346612     -0.942925
  O      -2.147545     -0.630469     -2.098161
  O      -0.667980     -1.200569     -0.370817
  H       2.198410      0.200841      0.707532
  H       1.582603      0.180712     -0.965233
  H       1.972475     -1.344929     -0.141609
  H       0.120183     -0.866923      1.521511
  H       0.125893      1.789167      0.609641
  H      -1.303923      1.007970      1.358802
