13
Coordinates from ORCA-job PC_anion_cpcm_200_moread E -381.662062329416
  C       1.583626     -0.338288      0.054397
  C       0.119798     -0.420765      0.465192
  C      -0.580686      0.955929      0.520491
  O      -1.536891      0.900638     -0.517985
  C      -1.543081     -0.317687     -1.088214
  O      -2.261602     -0.637900     -1.974707
  O      -0.631599     -1.120046     -0.518743
  H       2.151951      0.180080      0.821850
  H       1.681034      0.194200     -0.889025
  H       1.984583     -1.340186     -0.070884
  H       0.020096     -0.969659      1.408167
  H       0.108962      1.780275      0.321121
  H      -1.096192      1.133408      1.468342
13
Coordinates from ORCA-job PC_anion_cpcm_200_moread E -381.683650375665
  C       1.576501     -0.331669      0.053829
  C       0.118535     -0.423859      0.478219
  C      -0.569956      0.952581      0.529013
  O      -1.538121      0.904610     -0.525187
  C      -1.603707     -0.345403     -1.049824
  O      -2.234420     -0.624920     -2.041570
  O      -0.640436     -1.135080     -0.517332
  H       2.149501      0.194469      0.821725
  H       1.667743      0.206416     -0.893083
  H       1.991976     -1.333820     -0.074691
  H       0.025207     -0.973259      1.423380
  H       0.137538      1.761864      0.316258
  H      -1.080361      1.148070      1.479263
13
Coordinates from ORCA-job PC_anion_cpcm_200_moread E -381.706333484588
  C       1.573376     -0.328311      0.053595
  C       0.118111     -0.427746      0.484319
  C      -0.566549      0.951636      0.532431
  O      -1.541094      0.915117     -0.522706
  C      -1.667852     -0.372705     -1.010238
  O      -2.198176     -0.607736     -2.102294
  O      -0.641932     -1.149887     -0.509306
  H       2.150767      0.203498      0.817926
  H       1.656265      0.210722     -0.894939
  H       1.998807     -1.327734     -0.075880
  H       0.034410     -0.977955      1.430966
  H       0.153690      1.747020      0.311437
  H      -1.069824      1.164081      1.484688
13
Coordinates from ORCA-job PC_anion_cpcm_200_moread E -381.717349565108
  C       1.572136     -0.326893      0.055361
  C       0.118348     -0.432502      0.487456
  C      -0.566668      0.951874      0.534016
  O      -1.545375      0.932800     -0.517312
  C      -1.714197     -0.391011     -0.991082
  O      -2.185045     -0.599407     -2.151624
  O      -0.635996     -1.166160     -0.501716
  H       2.151508      0.210748      0.815853
  H       1.647731      0.212023     -0.894965
  H       2.007678     -1.323098     -0.072816
  H       0.042443     -0.979811      1.436553
  H       0.164163      1.736775      0.309199
  H      -1.056726      1.174662      1.491078
13
Coordinates from ORCA-job PC_anion_cpcm_200_moread E -381.723570001151
  C       1.570059     -0.330510      0.050066
  C       0.115739     -0.428932      0.480908
  C      -0.571363      0.951842      0.529999
  O      -1.544381      0.931187     -0.516988
  C      -1.773623     -0.418678     -0.948144
  O      -2.114848     -0.573033     -2.164603
  O      -0.634276     -1.165418     -0.499489
  H       2.152280      0.207039      0.807081
  H       1.645398      0.207838     -0.900880
  H       2.005620     -1.326886     -0.075567
  H       0.044769     -0.964030      1.437170
  H       0.158367      1.740251      0.308982
  H      -1.053739      1.169329      1.491465
13
Coordinates from ORCA-job PC_anion_cpcm_200_moread E -381.724780065202
  C       1.580157     -0.334500      0.053589
  C       0.120835     -0.424152      0.468323
  C      -0.572516      0.956499      0.521381
  O      -1.527083      0.947603     -0.539782
  C      -1.793886     -0.422830     -0.937631
  O      -2.158890     -0.589796     -2.150681
  O      -0.619661     -1.162740     -0.515003
  H       2.159833      0.194629      0.819512
  H       1.668846      0.211547     -0.892604
  H       2.012904     -1.332468     -0.073917
  H       0.043119     -0.949225      1.431705
  H       0.153725      1.756655      0.331238
  H      -1.067383      1.148778      1.483870
13
Coordinates from ORCA-job PC_anion_cpcm_200_moread E -381.726245095949
  C       1.599200     -0.340188      0.060550
  C       0.131516     -0.415415      0.442908
  C      -0.572418      0.963564      0.501302
  O      -1.474748      0.974234     -0.598463
  C      -1.810955     -0.418498     -0.915417
  O      -2.260697     -0.626581     -2.087251
  O      -0.590627     -1.148342     -0.552650
  H       2.169991      0.170328      0.845876
  H       1.717100      0.220375     -0.874520
  H       2.023187     -1.341254     -0.071680
  H       0.034323     -0.926219      1.414746
  H       0.141805      1.787488      0.380640
  H      -1.107677      1.100506      1.453958
13
Coordinates from ORCA-job PC_anion_cpcm_200_moread E -381.726824245457
  C       1.613654     -0.341968      0.066883
  C       0.140676     -0.412030      0.424174
  C      -0.571105      0.966714      0.482294
  O      -1.415484      0.993897     -0.658111
  C      -1.811279     -0.405046     -0.895694
  O      -2.354320     -0.654067     -2.007849
  O      -0.566577     -1.133872     -0.587095
  H       2.174313      0.154830      0.867886
  H       1.754250      0.228948     -0.858731
  H       2.032095     -1.344579     -0.069683
  H       0.024896     -0.918128      1.397282
  H       0.131464      1.806261      0.424697
  H      -1.152582      1.059040      1.413949
13
Coordinates from ORCA-job PC_anion_cpcm_200_moread E -381.726942691940
  C       1.609960     -0.339743      0.065382
  C       0.139215     -0.414979      0.431162
  C      -0.569918      0.965148      0.485300
  O      -1.416287      0.993228     -0.655318
  C      -1.804014     -0.401949     -0.901461
  O      -2.344547     -0.652053     -2.012629
  O      -0.571166     -1.136633     -0.579557
  H       2.172720      0.160594      0.862404
  H       1.743981      0.228333     -0.862594
  H       2.030036     -1.341640     -0.071441
  H       0.026118     -0.924897      1.401546
  H       0.137111      1.800318      0.422966
  H      -1.153209      1.064274      1.414241
13
Coordinates from ORCA-job PC_anion_cpcm_200_moread E -381.726979585563
  C       1.607091     -0.337565      0.063736
  C       0.138214     -0.417546      0.436286
  C      -0.568780      0.963646      0.486683
  O      -1.404896      0.994213     -0.662238
  C      -1.799030     -0.397522     -0.901476
  O      -2.341621     -0.652184     -2.008852
  O      -0.574268     -1.138730     -0.574385
  H       2.171671      0.164908      0.857955
  H       1.735387      0.229153     -0.865572
  H       2.028810     -1.338628     -0.074587
  H       0.027326     -0.929887      1.404724
  H       0.142332      1.795322      0.429234
  H      -1.162236      1.064820      1.408493
13
Coordinates from ORCA-job PC_anion_cpcm_200_moread E -381.726993742330
  C       1.604709     -0.336538      0.061651
  C       0.137361     -0.418776      0.440630
  C      -0.568465      0.962793      0.488789
  O      -1.396164      0.995032     -0.666868
  C      -1.796423     -0.394644     -0.901869
  O      -2.335956     -0.651939     -2.010797
  O      -0.578105     -1.141931     -0.567574
  H       2.171992      0.167724      0.852836
  H       1.727366      0.229106     -0.869002
  H       2.027625     -1.336999     -0.077976
  H       0.029945     -0.931143      1.409095
  H       0.145563      1.792087      0.435638
  H      -1.169448      1.065228      1.405447
13
Coordinates from ORCA-job PC_anion_cpcm_200_moread E -381.727014247801
  C       1.600552     -0.335757      0.056504
  C       0.136361     -0.419721      0.448859
  C      -0.568681      0.961570      0.492988
  O      -1.377468      0.996989     -0.676928
  C      -1.791751     -0.388770     -0.902928
  O      -2.323275     -0.651378     -2.015992
  O      -0.586527     -1.148748     -0.551587
  H       2.174385      0.171405      0.841152
  H       1.712315      0.227750     -0.876814
  H       2.024446     -1.335527     -0.085611
  H       0.036932     -0.929142      1.419406
  H       0.148475      1.788586      0.452069
  H      -1.185764      1.062743      1.398882
13
Coordinates from ORCA-job PC_anion_cpcm_200_moread E -381.727046078590
  C       1.593207     -0.335676      0.046265
  C       0.135205     -0.419806      0.463119
  C      -0.569819      0.959796      0.500604
  O      -1.346049      0.999878     -0.692286
  C      -1.783211     -0.378902     -0.906339
  O      -2.296586     -0.649603     -2.028080
  O      -0.602393     -1.160320     -0.520422
  H       2.179660      0.176263      0.818482
  H       1.686553      0.223350     -0.891837
  H       2.016823     -1.335070     -0.099322
  H       0.051073     -0.921124      1.439007
  H       0.149194      1.785622      0.482672
  H      -1.213657      1.055592      1.388137
13
Coordinates from ORCA-job PC_anion_cpcm_200_moread E -381.727077052213
  C       1.570434     -0.337360      0.015610
  C       0.132441     -0.417017      0.502063
  C      -0.573961      0.955797      0.522970
  O      -1.259414      1.005232     -0.726692
  C      -1.755148     -0.352823     -0.918220
  O      -2.210072     -0.646195     -2.063954
  O      -0.648903     -1.186367     -0.429239
  H       2.193174      0.186247      0.750989
  H       1.613838      0.208215     -0.934203
  H       1.989088     -1.337427     -0.138731
  H       0.093023     -0.893478      1.492481
  H       0.142336      1.781957      0.569145
  H      -1.286836      1.033219      1.357781
13
Coordinates from ORCA-job PC_anion_cpcm_200_moread E -381.727135311705
  C       1.577967     -0.337632      0.024942
  C       0.133266     -0.417128      0.489426
  C      -0.572879      0.957287      0.516163
  O      -1.295856      1.003676     -0.711108
  C      -1.766232     -0.363042     -0.917192
  O      -2.231980     -0.645004     -2.059680
  O      -0.634873     -1.179083     -0.456281
  H       2.189663      0.183178      0.771403
  H       1.638591      0.210612     -0.922343
  H       1.997188     -1.338182     -0.124207
  H       0.080325     -0.899387      1.476861
  H       0.143063      1.785266      0.538540
  H      -1.258241      1.039440      1.373476
13
Coordinates from ORCA-job PC_anion_cpcm_200_moread E -381.727201216003
  C       1.573430     -0.339433      0.017549
  C       0.133080     -0.414965      0.496423
  C      -0.574251      0.956859      0.520731
  O      -1.287461      1.004897     -0.711695
  C      -1.761846     -0.359915     -0.923593
  O      -2.206635     -0.641593     -2.073592
  O      -0.645316     -1.183500     -0.434487
  H       2.192974      0.184936      0.755014
  H       1.626892      0.202988     -0.933533
  H       1.989155     -1.341696     -0.128946
  H       0.090386     -0.888715      1.488601
  H       0.136334      1.789095      0.554160
  H      -1.266742      1.031041      1.373368
13
Coordinates from ORCA-job PC_anion_cpcm_200_moread E -381.727259905805
  C       1.559326     -0.343255     -0.003417
  C       0.132415     -0.410351      0.516991
  C      -0.577828      0.955342      0.533741
  O      -1.248747      1.008900     -0.720628
  C      -1.745147     -0.347816     -0.938073
  O      -2.140706     -0.635372     -2.101794
  O      -0.674784     -1.194112     -0.373952
  H       2.200317      0.190709      0.708478
  H       1.589793      0.183896     -0.963987
  H       1.967200     -1.349336     -0.144940
  H       0.118985     -0.863422      1.519387
  H       0.119399      1.796182      0.604465
  H      -1.300223      1.008635      1.363730
13
Coordinates from ORCA-job PC_anion_cpcm_200_moread E -381.727266468253
  C       1.563349     -0.342219      0.001757
  C       0.132866     -0.412151      0.511481
  C      -0.577003      0.955300      0.529875
  O      -1.259177      1.008310     -0.717671
  C      -1.750424     -0.350750     -0.935862
  O      -2.158718     -0.634108     -2.095335
  O      -0.667415     -1.192541     -0.388303
  H       2.197944      0.191739      0.719338
  H       1.600756      0.186131     -0.957814
  H       1.973821     -1.347635     -0.137697
  H       0.112534     -0.869790      1.511639
  H       0.122613      1.794891      0.591879
  H      -1.291148      1.012822      1.366712
13
Coordinates from ORCA-job PC_anion_cpcm_200_moread E -381.727268918495
  C       1.562396     -0.341791      0.001254
  C       0.132387     -0.412790      0.512500
  C      -0.576993      0.955007      0.530628
  O      -1.257842      1.008076     -0.717536
  C      -1.750146     -0.350500     -0.936374
  O      -2.156030     -0.633331     -2.096788
  O      -0.668612     -1.193648     -0.386397
  H       2.197022      0.193570      0.717763
  H       1.598125      0.185546     -0.958917
  H       1.973964     -1.346867     -0.137719
  H       0.113402     -0.870912      1.512383
  H       0.124212      1.793316      0.592539
  H      -1.291885      1.014323      1.366665
13
Coordinates from ORCA-job PC_anion_cpcm_200_moread E -381.727270264474
  C       1.560932     -0.341460     -0.000060
  C       0.131864     -0.413338      0.514272
  C      -0.577136      0.954581      0.531803
  O      -1.254172      1.007963     -0.718224
  C      -1.749311     -0.349604     -0.937571
  O      -2.151541     -0.632079     -2.098953
  O      -0.670897     -1.195431     -0.381960
  H       2.196215      0.195875      0.714388
  H       1.594029      0.184177     -0.961249
  H       1.973562     -1.346232     -0.138250
  H       0.115480     -0.871021      1.514347
  H       0.125235      1.791799      0.595597
  H      -1.294260      1.014769      1.365860
13
Coordinates from ORCA-job PC_anion_cpcm_200_moread E -381.727270334473
  C       1.560575     -0.341518     -0.000456
  C       0.131768     -0.413280      0.514751
  C      -0.577202      0.954532      0.532121
  O      -1.253435      1.007934     -0.718406
  C      -1.748997     -0.349357     -0.937898
  O      -2.150008     -0.631947     -2.099638
  O      -0.671489     -1.195770     -0.380647
  H       2.196280      0.195965      0.713509
  H       1.592975      0.183981     -0.961753
  H       1.973186     -1.346264     -0.138793
  H       0.116020     -0.870557      1.515038
  H       0.125163      1.791708      0.596441
  H      -1.294837      1.014574      1.365733
