13
Coordinates from ORCA-job PC_anion_cpcm_80_moread E -381.660981305823
  C       1.583626     -0.338288      0.054397
  C       0.119798     -0.420765      0.465192
  C      -0.580686      0.955929      0.520491
  O      -1.536891      0.900638     -0.517985
  C      -1.543081     -0.317687     -1.088214
  O      -2.261602     -0.637900     -1.974707
  O      -0.631599     -1.120046     -0.518743
  H       2.151951      0.180080      0.821850
  H       1.681034      0.194200     -0.889025
  H       1.984583     -1.340186     -0.070884
  H       0.020096     -0.969659      1.408167
  H       0.108962      1.780275      0.321121
  H      -1.096192      1.133408      1.468342
13
Coordinates from ORCA-job PC_anion_cpcm_80_moread E -381.682703563343
  C       1.576565     -0.331603      0.053847
  C       0.118487     -0.423833      0.478207
  C      -0.569911      0.952520      0.528982
  O      -1.538109      0.904815     -0.525202
  C      -1.603780     -0.345377     -1.049851
  O      -2.234711     -0.624986     -2.041510
  O      -0.640333     -1.135152     -0.517342
  H       2.149600      0.194545      0.821748
  H       1.667921      0.206393     -0.893072
  H       1.992031     -1.333749     -0.074660
  H       0.025042     -0.973296      1.423391
  H       0.137689      1.761803      0.316232
  H      -1.080490      1.147922      1.479231
13
Coordinates from ORCA-job PC_anion_cpcm_80_moread E -381.705379729185
  C       1.573437     -0.328249      0.053633
  C       0.118062     -0.427724      0.484279
  C      -0.566515      0.951588      0.532378
  O      -1.541055      0.915331     -0.522726
  C      -1.667936     -0.372684     -1.010273
  O      -2.198483     -0.607820     -2.102197
  O      -0.641797     -1.149940     -0.509320
  H       2.150895      0.203559      0.817977
  H       1.656418      0.210706     -0.894915
  H       1.998855     -1.327674     -0.075857
  H       0.034251     -0.977991      1.430952
  H       0.153819      1.746966      0.311420
  H      -1.069949      1.163933      1.484649
13
Coordinates from ORCA-job PC_anion_cpcm_80_moread E -381.716395094463
  C       1.572159     -0.326849      0.055402
  C       0.118282     -0.432503      0.487378
  C      -0.566677      0.951847      0.533935
  O      -1.545270      0.932965     -0.517326
  C      -1.714271     -0.391013     -0.991109
  O      -2.185196     -0.599460     -2.151391
  O      -0.635809     -1.166154     -0.501732
  H       2.151607      0.210774      0.815905
  H       1.647787      0.212013     -0.894938
  H       2.007681     -1.323059     -0.072824
  H       0.042300     -0.979856      1.436498
  H       0.164236      1.736740      0.309182
  H      -1.056830      1.174555      1.491021
13
Coordinates from ORCA-job PC_anion_cpcm_80_moread E -381.722635801882
  C       1.570076     -0.330457      0.050152
  C       0.115656     -0.429007      0.480815
  C      -0.571401      0.951824      0.529891
  O      -1.544228      0.931418     -0.516996
  C      -1.773761     -0.418713     -0.948254
  O      -2.115151     -0.573128     -2.164447
  O      -0.633995     -1.165446     -0.499528
  H       2.152339      0.207084      0.807184
  H       1.645378      0.207866     -0.900802
  H       2.005666     -1.326814     -0.075570
  H       0.044664     -0.964104      1.437138
  H       0.158499      1.740173      0.308980
  H      -1.053741      1.169304      1.491437
13
Coordinates from ORCA-job PC_anion_cpcm_80_moread E -381.723852385656
  C       1.580179     -0.334453      0.053693
  C       0.120734     -0.424251      0.468178
  C      -0.572580      0.956491      0.521223
  O      -1.526897      0.947842     -0.539810
  C      -1.794179     -0.422937     -0.937698
  O      -2.159132     -0.589862     -2.150501
  O      -0.619334     -1.162757     -0.515077
  H       2.159889      0.194663      0.819647
  H       1.668805      0.211580     -0.892509
  H       2.012960     -1.332400     -0.073934
  H       0.043038     -0.949248      1.431677
  H       0.153866      1.756578      0.331274
  H      -1.067350      1.148754      1.483837
13
Coordinates from ORCA-job PC_anion_cpcm_80_moread E -381.725321181180
  C       1.599207     -0.340129      0.060672
  C       0.131376     -0.415562      0.442742
  C      -0.572495      0.963549      0.501110
  O      -1.474633      0.974421     -0.598411
  C      -1.811322     -0.418656     -0.915490
  O      -2.260776     -0.626563     -2.087091
  O      -0.590299     -1.148356     -0.552736
  H       2.169999      0.170406      0.846024
  H       1.716990      0.220396     -0.874431
  H       2.023247     -1.341162     -0.071699
  H       0.034259     -0.926250      1.414730
  H       0.141993      1.787344      0.380623
  H      -1.107547      1.100561      1.453954
13
Coordinates from ORCA-job PC_anion_cpcm_80_moread E -381.725903934493
  C       1.613710     -0.341915      0.067040
  C       0.140556     -0.412180      0.423934
  C      -0.571174      0.966716      0.482034
  O      -1.415286      0.994146     -0.658170
  C      -1.811670     -0.405186     -0.895735
  O      -2.354669     -0.654123     -2.007495
  O      -0.566154     -1.133855     -0.587301
  H       2.174306      0.154874      0.868126
  H       1.754256      0.228991     -0.858587
  H       2.032199     -1.344492     -0.069683
  H       0.024799     -0.918142      1.397208
  H       0.131642      1.806152      0.424762
  H      -1.152515      1.059014      1.413868
13
Coordinates from ORCA-job PC_anion_cpcm_80_moread E -381.726023068994
  C       1.610021     -0.339694      0.065528
  C       0.139111     -0.415115      0.430941
  C      -0.569978      0.965149      0.485059
  O      -1.416070      0.993503     -0.655394
  C      -1.804362     -0.402058     -0.901519
  O      -2.344953     -0.652125     -2.012270
  O      -0.570744     -1.136631     -0.579747
  H       2.172723      0.160642      0.862626
  H       1.744007      0.228365     -0.862462
  H       2.030143     -1.341560     -0.071429
  H       0.026012     -0.924913      1.401474
  H       0.137272      1.800227      0.423049
  H      -1.153183      1.064210      1.414144
13
Coordinates from ORCA-job PC_anion_cpcm_80_moread E -381.726060293691
  C       1.607150     -0.337516      0.063868
  C       0.138122     -0.417673      0.436084
  C      -0.568830      0.963643      0.486456
  O      -1.404630      0.994499     -0.662347
  C      -1.799334     -0.397596     -0.901533
  O      -2.342056     -0.652265     -2.008462
  O      -0.573855     -1.138737     -0.574556
  H       2.171680      0.164961      0.858156
  H       1.735415      0.229183     -0.865452
  H       2.028914     -1.338550     -0.074575
  H       0.027215     -0.929910      1.404654
  H       0.142479      1.795239      0.429342
  H      -1.162269      1.064721      1.408365
13
Coordinates from ORCA-job PC_anion_cpcm_80_moread E -381.726074621688
  C       1.604762     -0.336486      0.061770
  C       0.137274     -0.418904      0.440450
  C      -0.568510      0.962784      0.488573
  O      -1.395831      0.995321     -0.667020
  C      -1.796702     -0.394689     -0.901916
  O      -2.336391     -0.652023     -2.010390
  O      -0.577710     -1.141949     -0.567715
  H       2.172010      0.167780      0.853014
  H       1.727369      0.229142     -0.868895
  H       2.027722     -1.336918     -0.077981
  H       0.029842     -0.931169      1.409043
  H       0.145708      1.792002      0.435786
  H      -1.169543      1.065107      1.405283
13
Coordinates from ORCA-job PC_anion_cpcm_80_moread E -381.726095246326
  C       1.600611     -0.335712      0.056617
  C       0.136285     -0.419838      0.448682
  C      -0.568723      0.961561      0.492770
  O      -1.377110      0.997268     -0.677102
  C      -1.792021     -0.388798     -0.902956
  O      -2.323723     -0.651460     -2.015566
  O      -0.586136     -1.148760     -0.551725
  H       2.174423      0.171437      0.841328
  H       1.712332      0.227795     -0.876701
  H       2.024537     -1.335456     -0.085627
  H       0.036832     -0.929150      1.419359
  H       0.148586      1.788526      0.452227
  H      -1.185892      1.062588      1.398694
13
Coordinates from ORCA-job PC_anion_cpcm_80_moread E -381.726127080066
  C       1.593306     -0.335645      0.046407
  C       0.135148     -0.419906      0.462892
  C      -0.569858      0.959795      0.500354
  O      -1.345783      1.000131     -0.692425
  C      -1.783511     -0.378945     -0.906339
  O      -2.297146     -0.649682     -2.027603
  O      -0.601948     -1.160289     -0.520660
  H       2.179716      0.176243      0.818735
  H       1.686689      0.223415     -0.891666
  H       2.016933     -1.335022     -0.099302
  H       0.050934     -0.921117      1.438907
  H       0.149241      1.785615      0.482739
  H      -1.213721      1.055406      1.387961
13
Coordinates from ORCA-job PC_anion_cpcm_80_moread E -381.726159331144
  C       1.570815     -0.337344      0.016044
  C       0.132448     -0.417120      0.501459
  C      -0.573961      0.955831      0.522475
  O      -1.260020      1.005419     -0.726542
  C      -1.755774     -0.353078     -0.918098
  O      -2.211569     -0.646228     -2.063172
  O      -0.647993     -1.186134     -0.430336
  H       2.193207      0.186077      0.751900
  H       1.614782      0.208412     -0.933633
  H       1.989482     -1.337406     -0.138309
  H       0.092514     -0.893609      1.491935
  H       0.142312      1.782090      0.568394
  H      -1.286243      1.033090      1.357884
13
Coordinates from ORCA-job PC_anion_cpcm_80_moread E -381.726217074020
  C       1.577912     -0.337636      0.024841
  C       0.133203     -0.417188      0.489492
  C      -0.572953      0.957258      0.516070
  O      -1.294976      1.003950     -0.711475
  C      -1.766339     -0.362880     -0.917300
  O      -2.231857     -0.645020     -2.059525
  O      -0.634783     -1.179245     -0.455794
  H       2.189868      0.183201      0.771121
  H       1.638213      0.210534     -0.922503
  H       1.997063     -1.338192     -0.124475
  H       0.080541     -0.899078      1.477201
  H       0.142950      1.785300      0.539272
  H      -1.258844      1.038996      1.373076
13
Coordinates from ORCA-job PC_anion_cpcm_80_moread E -381.726285169823
  C       1.573212     -0.339513      0.017189
  C       0.132998     -0.414941      0.496714
  C      -0.574378      0.956823      0.520800
  O      -1.286507      1.005216     -0.711925
  C      -1.761840     -0.359704     -0.924006
  O      -2.205468     -0.641452     -2.074070
  O      -0.645600     -1.183801     -0.433211
  H       2.193280      0.185036      0.754135
  H       1.626123      0.202576     -0.934110
  H       1.988726     -1.341859     -0.129320
  H       0.090971     -0.887984      1.489347
  H       0.135954      1.789290      0.555352
  H      -1.267471      1.030313      1.373104
13
Coordinates from ORCA-job PC_anion_cpcm_80_moread E -381.726342029780
  C       1.559667     -0.343166     -0.002969
  C       0.132358     -0.410555      0.516497
  C      -0.577816      0.955344      0.533283
  O      -1.249224      1.009103     -0.720513
  C      -1.745801     -0.348041     -0.938006
  O      -2.142172     -0.635382     -2.101164
  O      -0.673926     -1.194051     -0.374959
  H       2.200306      0.190727      0.709338
  H       1.590453      0.184110     -0.963454
  H       1.967669     -1.349189     -0.144581
  H       0.118515     -0.863697      1.518945
  H       0.119653      1.796067      0.603787
  H      -1.299684      1.008731      1.363797
13
Coordinates from ORCA-job PC_anion_cpcm_80_moread E -381.726348108792
  C       1.563289     -0.342190      0.001691
  C       0.132767     -0.412262      0.511537
  C      -0.577067      0.955263      0.529776
  O      -1.258454      1.008595     -0.717887
  C      -1.750574     -0.350639     -0.936059
  O      -2.158566     -0.634086     -2.095258
  O      -0.667291     -1.192716     -0.387849
  H       2.198068      0.191891      0.719063
  H       1.600338      0.185992     -0.957981
  H       1.973745     -1.347603     -0.137862
  H       0.112740     -0.869571      1.511929
  H       0.122586      1.794826      0.592499
  H      -1.291580      1.012501      1.366401
13
Coordinates from ORCA-job PC_anion_cpcm_80_moread E -381.726350680790
  C       1.562345     -0.341721      0.001230
  C       0.132275     -0.412971      0.512535
  C      -0.577043      0.954945      0.530508
  O      -1.257160      1.008348     -0.717715
  C      -1.750349     -0.350403     -0.936580
  O      -2.156023     -0.633222     -2.096674
  O      -0.668449     -1.193868     -0.386029
  H       2.197054      0.193866      0.717540
  H       1.597734      0.185380     -0.959073
  H       1.973997     -1.346771     -0.137749
  H       0.113567     -0.870850      1.512601
  H       0.124293      1.793157      0.593031
  H      -1.292242      1.014109      1.366376
13
Coordinates from ORCA-job PC_anion_cpcm_80_moread E -381.726351938044
  C       1.560893     -0.341413     -0.000079
  C       0.131761     -0.413478      0.514295
  C      -0.577185      0.954537      0.531684
  O      -1.253565      1.008234     -0.718389
  C      -1.749501     -0.349523     -0.937760
  O      -2.151508     -0.632033     -2.098844
  O      -0.670713     -1.195605     -0.381630
  H       2.196297      0.196068      0.714198
  H       1.593670      0.184058     -0.961361
  H       1.973551     -1.346169     -0.138342
  H       0.115611     -0.870897      1.514567
  H       0.125267      1.791700      0.596055
  H      -1.294578      1.014522      1.365605
13
Coordinates from ORCA-job PC_anion_cpcm_80_moread E -381.726352015612
  C       1.560539     -0.341471     -0.000471
  C       0.131666     -0.413418      0.514771
  C      -0.577250      0.954489      0.532001
  O      -1.252818      1.008200     -0.718582
  C      -1.749189     -0.349275     -0.938077
  O      -2.149992     -0.631911     -2.099519
  O      -0.671301     -1.195943     -0.380325
  H       2.196366      0.196143      0.713332
  H       1.592615      0.183880     -0.961853
  H       1.973178     -1.346198     -0.138900
  H       0.116147     -0.870433      1.515257
  H       0.125202      1.791605      0.596899
  H      -1.295163      1.014333      1.365467
