13
Coordinates from ORCA-job PC_anion_cpcm_28_moread E -381.723522921488
  C           1.56075398073729     -0.34131144901086     -0.00013215187392
  C           0.13140421917827     -0.41386377371042      0.51442312093987
  C          -0.57735122295494      0.95438611387076      0.53133456863331
  O          -1.25163323033559      1.00892243538095     -0.71905755005703
  C          -1.75015675894017     -0.34919515571614     -0.93839158745194
  O          -2.15128773657491     -0.63189412291364     -2.09860034787472
  O          -0.67011283647246     -1.19631194433670     -0.38037470070677
  H           2.19661508386587      0.19636785732811      0.71373167993493
  H           1.59232807402287      0.18401037518574     -0.96153143791672
  H           1.97350131045845     -1.34593555194543     -0.13905837490114
  H           0.11606465016356     -0.87025366579858      1.51544490707314
  H           0.12546573855324      1.79127842133708      0.59744338976121
  H          -1.29559126170146      1.01380047032915      1.36476847443978
