13
Coordinates from ORCA-job PC_anion_cpcm_1000_moread E -381.662642172542
  C       1.583626     -0.338288      0.054397
  C       0.119798     -0.420765      0.465192
  C      -0.580686      0.955929      0.520491
  O      -1.536891      0.900638     -0.517985
  C      -1.543081     -0.317687     -1.088214
  O      -2.261602     -0.637900     -1.974707
  O      -0.631599     -1.120046     -0.518743
  H       2.151951      0.180080      0.821850
  H       1.681034      0.194200     -0.889025
  H       1.984583     -1.340186     -0.070884
  H       0.020096     -0.969659      1.408167
  H       0.108962      1.780275      0.321121
  H      -1.096192      1.133408      1.468342
13
Coordinates from ORCA-job PC_anion_cpcm_1000_moread E -381.684156455963
  C       1.576468     -0.331705      0.053818
  C       0.118562     -0.423871      0.478226
  C      -0.569980      0.952614      0.529032
  O      -1.538130      0.904499     -0.525178
  C      -1.603668     -0.345416     -1.049811
  O      -2.234262     -0.624884     -2.041606
  O      -0.640493     -1.135041     -0.517325
  H       2.149450      0.194427      0.821711
  H       1.667648      0.206427     -0.893091
  H       1.991945     -1.333860     -0.074708
  H       0.025297     -0.973237      1.423376
  H       0.137456      1.761899      0.316274
  H      -1.080293      1.148148      1.479281
13
Coordinates from ORCA-job PC_anion_cpcm_1000_moread E -381.706842611587
  C       1.573344     -0.328345      0.053574
  C       0.118139     -0.427756      0.484342
  C      -0.566567      0.951662      0.532461
  O      -1.541117      0.915001     -0.522694
  C      -1.667805     -0.372715     -1.010221
  O      -2.198006     -0.607690     -2.102347
  O      -0.642006     -1.149858     -0.509297
  H       2.150700      0.203465      0.817896
  H       1.656184      0.210728     -0.894955
  H       1.998780     -1.327768     -0.075892
  H       0.034496     -0.977934      1.430976
  H       0.153618      1.747051      0.311447
  H      -1.069759      1.164158      1.484711
13
Coordinates from ORCA-job PC_anion_cpcm_1000_moread E -381.717859242117
  C       1.572123     -0.326918      0.055339
  C       0.118385     -0.432500      0.487499
  C      -0.566662      0.951889      0.534061
  O      -1.545433      0.932711     -0.517304
  C      -1.714156     -0.391009     -0.991069
  O      -2.184962     -0.599377     -2.151752
  O      -0.636098     -1.166164     -0.501706
  H       2.151457      0.210734      0.815823
  H       1.647700      0.212026     -0.894981
  H       2.007675     -1.323121     -0.072811
  H       0.042521     -0.979786      1.436584
  H       0.164123      1.736795      0.309208
  H      -1.056671      1.174719      1.491110
13
Coordinates from ORCA-job PC_anion_cpcm_1000_moread E -381.724069013113
  C       1.570049     -0.330539      0.050019
  C       0.115783     -0.428891      0.480960
  C      -0.571343      0.951851      0.530059
  O      -1.544465      0.931063     -0.516983
  C      -1.773548     -0.418659     -0.948087
  O      -2.114682     -0.572980     -2.164691
  O      -0.634428     -1.165405     -0.499466
  H       2.152249      0.207015      0.807025
  H       1.645407      0.207822     -0.900922
  H       2.005594     -1.326924     -0.075566
  H       0.044826     -0.963990      1.437189
  H       0.158295      1.740293      0.308982
  H      -1.053738      1.169342      1.491482
13
Coordinates from ORCA-job PC_anion_cpcm_1000_moread E -381.725275632867
  C       1.580144     -0.334525      0.053533
  C       0.120888     -0.424098      0.468402
  C      -0.572481      0.956503      0.521466
  O      -1.527184      0.947474     -0.539766
  C      -1.793729     -0.422773     -0.937596
  O      -2.158755     -0.589760     -2.150780
  O      -0.619838     -1.162732     -0.514961
  H       2.159804      0.194612      0.819438
  H       1.668865      0.211529     -0.892656
  H       2.012873     -1.332505     -0.073909
  H       0.043163     -0.949212      1.431721
  H       0.153650      1.756696      0.331217
  H      -1.067400      1.148792      1.483889
13
Coordinates from ORCA-job PC_anion_cpcm_1000_moread E -381.726738681611
  C       1.599195     -0.340219      0.060483
  C       0.131590     -0.415336      0.442999
  C      -0.572377      0.963572      0.501406
  O      -1.474810      0.974134     -0.598490
  C      -1.810759     -0.418414     -0.915379
  O      -2.260648     -0.626589     -2.087340
  O      -0.590805     -1.148336     -0.552601
  H       2.169987      0.170287      0.845795
  H       1.717157      0.220364     -0.874569
  H       2.023154     -1.341303     -0.071670
  H       0.034358     -0.926201      1.414756
  H       0.141705      1.787564      0.380649
  H      -1.107746      1.100478      1.453962
13
Coordinates from ORCA-job PC_anion_cpcm_1000_moread E -381.727315927566
  C       1.613623     -0.341996      0.066797
  C       0.140740     -0.411950      0.424304
  C      -0.571069      0.966713      0.482434
  O      -1.415591      0.993762     -0.658078
  C      -1.811070     -0.404972     -0.895674
  O      -2.354127     -0.654036     -2.008044
  O      -0.566806     -1.133883     -0.586981
  H       2.174317      0.154808      0.867754
  H       1.754243      0.228925     -0.858810
  H       2.032038     -1.344625     -0.069684
  H       0.024950     -0.918120      1.397324
  H       0.131369      1.806318      0.424663
  H      -1.152617      1.059056      1.413994
13
Coordinates from ORCA-job PC_anion_cpcm_1000_moread E -381.727434011697
  C       1.609927     -0.339770      0.065303
  C       0.139271     -0.414907      0.431281
  C      -0.569886      0.965147      0.485430
  O      -1.416401      0.993081     -0.655278
  C      -1.803827     -0.401890     -0.901431
  O      -2.344328     -0.652013     -2.012824
  O      -0.571393     -1.136635     -0.579453
  H       2.172718      0.160569      0.862284
  H       1.743965      0.228315     -0.862666
  H       2.029979     -1.341682     -0.071448
  H       0.026175     -0.924887      1.401587
  H       0.137025      1.800366      0.422924
  H      -1.153224      1.064307      1.414293
13
Coordinates from ORCA-job PC_anion_cpcm_1000_moread E -381.727470734526
  C       1.607058     -0.337592      0.063664
  C       0.138263     -0.417477      0.436395
  C      -0.568753      0.963648      0.486805
  O      -1.405035      0.994060     -0.662181
  C      -1.798867     -0.397482     -0.901447
  O      -2.341385     -0.652140     -2.009063
  O      -0.574492     -1.138729     -0.574290
  H       2.171667      0.164881      0.857845
  H       1.735370      0.229136     -0.865637
  H       2.028754     -1.338669     -0.074595
  H       0.027388     -0.929873      1.404763
  H       0.142253      1.795365      0.429179
  H      -1.162221      1.064872      1.408561
13
Coordinates from ORCA-job PC_anion_cpcm_1000_moread E -381.727484802927
  C       1.604680     -0.336566      0.061586
  C       0.137408     -0.418708      0.440728
  C      -0.568441      0.962797      0.488906
  O      -1.396339      0.994878     -0.666788
  C      -1.796273     -0.394619     -0.901845
  O      -2.335720     -0.651893     -2.011018
  O      -0.578319     -1.141924     -0.567494
  H       2.171982      0.167695      0.852738
  H       1.727362      0.229086     -0.869062
  H       2.027573     -1.337042     -0.077974
  H       0.030001     -0.931127      1.409125
  H       0.145485      1.792132      0.435563
  H      -1.169400      1.065292      1.405533
13
Coordinates from ORCA-job PC_anion_cpcm_1000_moread E -381.727505247874
  C       1.600519     -0.335781      0.056442
  C       0.136402     -0.419659      0.448957
  C      -0.568658      0.961574      0.493106
  O      -1.377655      0.996841     -0.676837
  C      -1.791605     -0.388754     -0.902914
  O      -2.323030     -0.651333     -2.016224
  O      -0.586740     -1.148744     -0.551508
  H       2.174365      0.171389      0.841053
  H       1.712301      0.227725     -0.876877
  H       2.024395     -1.335565     -0.085604
  H       0.036988     -0.929136      1.419435
  H       0.148416      1.788618      0.451989
  H      -1.185699      1.062825      1.398981
13
Coordinates from ORCA-job PC_anion_cpcm_1000_moread E -381.727537083457
  C       1.593150     -0.335692      0.046184
  C       0.135235     -0.419752      0.463246
  C      -0.569799      0.959795      0.500741
  O      -1.346180      0.999743     -0.692216
  C      -1.783048     -0.378875     -0.906342
  O      -2.296273     -0.649560     -2.028342
  O      -0.602639     -1.160342     -0.520281
  H       2.179632      0.176277      0.818337
  H       1.686470      0.223313     -0.891935
  H       2.016761     -1.335096     -0.099338
  H       0.051154     -0.921124      1.439069
  H       0.149169      1.785625      0.482648
  H      -1.213633      1.055689      1.388229
13
Coordinates from ORCA-job PC_anion_cpcm_1000_moread E -381.727567344311
  C       1.570225     -0.337369      0.015373
  C       0.132436     -0.416962      0.502393
  C      -0.573962      0.955778      0.523239
  O      -1.259078      1.005133     -0.726774
  C      -1.754809     -0.352685     -0.918289
  O      -2.209252     -0.646177     -2.064381
  O      -0.649398     -1.186495     -0.428637
  H       2.193157      0.186341      0.750490
  H       1.613318      0.208107     -0.934516
  H       1.988871     -1.337438     -0.138963
  H       0.093303     -0.893405      1.492782
  H       0.142350      1.781883      0.569559
  H      -1.287161      1.033288      1.357724
13
Coordinates from ORCA-job PC_anion_cpcm_1000_moread E -381.727625910117
  C       1.577994     -0.337630      0.024993
  C       0.133299     -0.417096      0.489394
  C      -0.572840      0.957302      0.516214
  O      -1.296322      1.003530     -0.710913
  C      -1.766173     -0.363126     -0.917136
  O      -2.232037     -0.644994     -2.059768
  O      -0.634926     -1.179000     -0.456532
  H       2.189555      0.183167      0.771547
  H       1.638787      0.210652     -0.922261
  H       1.997251     -1.338177     -0.124066
  H       0.080215     -0.899550      1.476685
  H       0.143122      1.785247      0.538155
  H      -1.257923      1.039676      1.373689
13
Coordinates from ORCA-job PC_anion_cpcm_1000_moread E -381.727690691508
  C       1.573535     -0.339393      0.017726
  C       0.133122     -0.414975      0.496284
  C      -0.574186      0.956877      0.520704
  O      -1.287946      1.004730     -0.711577
  C      -1.761838     -0.360020     -0.923385
  O      -2.207207     -0.641663     -2.073363
  O      -0.645188     -1.183350     -0.435123
  H       2.192816      0.184888      0.755449
  H       1.627273      0.203195     -0.933247
  H       1.989369     -1.341614     -0.128759
  H       0.090096     -0.889086      1.488227
  H       0.136528      1.788994      0.553558
  H      -1.266375      1.031416      1.373505
13
Coordinates from ORCA-job PC_anion_cpcm_1000_moread E -381.727750387848
  C       1.559209     -0.343290     -0.003578
  C       0.132457     -0.410259      0.517170
  C      -0.577823      0.955344      0.533927
  O      -1.248616      1.008782     -0.720675
  C      -1.744874     -0.347734     -0.938057
  O      -2.140219     -0.635371     -2.102005
  O      -0.675123     -1.194109     -0.373641
  H       2.200302      0.190685      0.708194
  H       1.589611      0.183837     -0.964168
  H       1.967041     -1.349394     -0.145050
  H       0.119135     -0.863354      1.519505
  H       0.119303      1.796232      0.604664
  H      -1.300403      1.008631      1.363714
13
Coordinates from ORCA-job PC_anion_cpcm_1000_moread E -381.727757138446
  C       1.563378     -0.342234      0.001791
  C       0.132918     -0.412091      0.511454
  C      -0.576968      0.955319      0.529931
  O      -1.259558      1.008156     -0.717558
  C      -1.750344     -0.350809     -0.935754
  O      -2.158792     -0.634122     -2.095377
  O      -0.667482     -1.192449     -0.388543
  H       2.197876      0.191659      0.719484
  H       1.600971      0.186210     -0.957725
  H       1.973861     -1.347649     -0.137614
  H       0.112427     -0.869910      1.511485
  H       0.122635      1.794919      0.591552
  H      -1.290923      1.013000      1.366874
13
Coordinates from ORCA-job PC_anion_cpcm_1000_moread E -381.727759535448
  C       1.562410     -0.341824      0.001255
  C       0.132442     -0.412702      0.512498
  C      -0.576967      0.955034      0.530703
  O      -1.258179      1.007931     -0.717442
  C      -1.750030     -0.350543     -0.936278
  O      -2.155992     -0.633373     -2.096872
  O      -0.668721     -1.193548     -0.386552
  H       2.196994      0.193440      0.717849
  H       1.598298      0.185618     -0.958858
  H       1.973944     -1.346911     -0.137701
  H       0.113335     -0.870952      1.512283
  H       0.124179      1.793386      0.592300
  H      -1.291712      1.014444      1.366814
13
Coordinates from ORCA-job PC_anion_cpcm_1000_moread E -381.727760905977
  C       1.560950     -0.341486     -0.000055
  C       0.131919     -0.413262      0.514265
  C      -0.577111      0.954604      0.531870
  O      -1.254496      1.007820     -0.718133
  C      -1.749205     -0.349646     -0.937476
  O      -2.151539     -0.632101     -2.099022
  O      -0.671004     -1.195341     -0.382122
  H       2.196173      0.195775      0.714477
  H       1.594213      0.184234     -0.961196
  H       1.973563     -1.346267     -0.138203
  H       0.115417     -0.871081      1.514236
  H       0.125213      1.791855      0.595360
  H      -1.294093      1.014896      1.366000
13
Coordinates from ORCA-job PC_anion_cpcm_1000_moread E -381.727760973251
  C       1.560597     -0.341543     -0.000445
  C       0.131824     -0.413207      0.514736
  C      -0.577176      0.954555      0.532182
  O      -1.253773      1.007791     -0.718309
  C      -1.748897     -0.349403     -0.937801
  O      -2.150026     -0.631966     -2.099699
  O      -0.671586     -1.195676     -0.380827
  H       2.196234      0.195869      0.713610
  H       1.593174      0.184037     -0.961697
  H       1.973194     -1.346298     -0.138733
  H       0.115948     -0.870626      1.514917
  H       0.125143      1.791764      0.596189
  H      -1.294657      1.014703      1.365877
