13
Coordinates from ORCA-job PC_anion_cpcm_14_moread E -381.652758952582
  C       1.583626     -0.338288      0.054397
  C       0.119798     -0.420765      0.465192
  C      -0.580686      0.955929      0.520491
  O      -1.536891      0.900638     -0.517985
  C      -1.543081     -0.317687     -1.088214
  O      -2.261602     -0.637900     -1.974707
  O      -0.631599     -1.120046     -0.518743
  H       2.151951      0.180080      0.821850
  H       1.681034      0.194200     -0.889025
  H       1.984583     -1.340186     -0.070884
  H       0.020096     -0.969659      1.408167
  H       0.108962      1.780275      0.321121
  H      -1.096192      1.133408      1.468342
13
Coordinates from ORCA-job PC_anion_cpcm_14_moread E -381.675347975696
  C       1.577110     -0.331177      0.053911
  C       0.118203     -0.423480      0.478228
  C      -0.569569      0.952103      0.528863
  O      -1.538239      0.906265     -0.525285
  C      -1.604308     -0.345172     -1.050161
  O      -2.236696     -0.625458     -2.041337
  O      -0.639703     -1.135677     -0.517340
  H       2.150576      0.195067      0.821754
  H       1.669318      0.206032     -0.893122
  H       1.992398     -1.333363     -0.074429
  H       0.023875     -0.973400      1.423648
  H       0.138653      1.761556      0.316120
  H      -1.081618      1.146704      1.479149
13
Coordinates from ORCA-job PC_anion_cpcm_14_moread E -381.697923281847
  C       1.573918     -0.327859      0.053823
  C       0.117753     -0.427380      0.484091
  C      -0.566255      0.951256      0.532097
  O      -1.540952      0.916809     -0.522847
  C      -1.668496     -0.372511     -1.010603
  O      -2.200392     -0.608361     -2.101607
  O      -0.640932     -1.150305     -0.509326
  H       2.152063      0.203955      0.818153
  H       1.657576      0.210390     -0.894889
  H       1.999099     -1.327374     -0.075710
  H       0.033103     -0.978074      1.430997
  H       0.154584      1.746782      0.311366
  H      -1.071068      1.162674      1.484454
13
Coordinates from ORCA-job PC_anion_cpcm_14_moread E -381.708947355583
  C       1.572337     -0.326553      0.055644
  C       0.117838     -0.432404      0.486917
  C      -0.566719      0.951652      0.533423
  O      -1.544618      0.934170     -0.517358
  C      -1.714722     -0.390992     -0.991438
  O      -2.186092     -0.599819     -2.149850
  O      -0.634508     -1.166149     -0.501703
  H       2.152509      0.210969      0.816129
  H       1.648163      0.211801     -0.894858
  H       2.007611     -1.322848     -0.072890
  H       0.041263     -0.980092      1.436218
  H       0.164666      1.736611      0.309103
  H      -1.057726      1.173653      1.490664
13
Coordinates from ORCA-job PC_anion_cpcm_14_moread E -381.715359009383
  C       1.570155     -0.330055      0.050758
  C       0.115032     -0.429567      0.480220
  C      -0.571678      0.951687      0.529150
  O      -1.543180      0.933148     -0.516930
  C      -1.774731     -0.418957     -0.949237
  O      -2.117174     -0.573792     -2.163540
  O      -0.631983     -1.165761     -0.499605
  H       2.152855      0.207482      0.807825
  H       1.645065      0.208016     -0.900304
  H       2.005951     -1.326283     -0.075612
  H       0.043936     -0.964664      1.437017
  H       0.159497      1.739573      0.308954
  H      -1.053745      1.169172      1.491303
13
Coordinates from ORCA-job PC_anion_cpcm_14_moread E -381.716629894936
  C       1.580270     -0.334095      0.054425
  C       0.119944     -0.425019      0.467180
  C      -0.573075      0.956417      0.520086
  O      -1.525564      0.949603     -0.539885
  C      -1.796381     -0.423760     -0.938299
  O      -2.160499     -0.590225     -2.149383
  O      -0.616973     -1.162981     -0.515400
  H       2.160333      0.194978      0.820514
  H       1.668282      0.211781     -0.891892
  H       2.013307     -1.331880     -0.074114
  H       0.042487     -0.949417      1.431594
  H       0.154937      1.755955      0.331518
  H      -1.067068      1.148642      1.483657
13
Coordinates from ORCA-job PC_anion_cpcm_14_moread E -381.718129695143
  C       1.599166     -0.339676      0.061530
  C       0.130263     -0.416719      0.441596
  C      -0.573102      0.963415      0.499727
  O      -1.473820      0.975800     -0.597883
  C      -1.814111     -0.419881     -0.916145
  O      -2.260852     -0.626282     -2.086193
  O      -0.587946     -1.148593     -0.553101
  H       2.170051      0.171077      0.846967
  H       1.715889      0.220516     -0.873875
  H       2.023633     -1.340446     -0.071918
  H       0.033872     -0.926470      1.414791
  H       0.143467      1.786176      0.380476
  H      -1.106510      1.101081      1.454028
13
Coordinates from ORCA-job PC_anion_cpcm_14_moread E -381.718743748777
  C       1.613993     -0.341503      0.068122
  C       0.139559     -0.413371      0.422312
  C      -0.571731      0.966701      0.480205
  O      -1.413940      0.995990     -0.658358
  C      -1.814672     -0.406300     -0.896234
  O      -2.356544     -0.654338     -2.005445
  O      -0.563161     -1.133941     -0.588437
  H       2.174242      0.155371      0.869655
  H       1.753896      0.229222     -0.857713
  H       2.032905     -1.343812     -0.069752
  H       0.024231     -0.918198      1.396938
  H       0.133099      1.805182      0.425220
  H      -1.151876      1.058998      1.413488
13
Coordinates from ORCA-job PC_anion_cpcm_14_moread E -381.718868263118
  C       1.610440     -0.339317      0.066566
  C       0.138308     -0.416176      0.429346
  C      -0.570454      0.965147      0.483252
  O      -1.414182      0.995660     -0.656109
  C      -1.807038     -0.402837     -0.902014
  O      -2.347887     -0.652634     -2.009658
  O      -0.567621     -1.136754     -0.580967
  H       2.172783      0.161075      0.864154
  H       1.744030      0.228573     -0.861577
  H       2.030935     -1.340953     -0.071391
  H       0.025338     -0.924951      1.401106
  H       0.138521      1.799513      0.423936
  H      -1.153172      1.063653      1.413357
13
Coordinates from ORCA-job PC_anion_cpcm_14_moread E -381.718908445890
  C       1.607544     -0.337131      0.064783
  C       0.137415     -0.418676      0.434674
  C      -0.569224      0.963594      0.484773
  O      -1.402259      0.996755     -0.663384
  C      -1.801626     -0.398057     -0.902028
  O      -2.345223     -0.652843     -2.005591
  O      -0.570824     -1.138945     -0.575572
  H       2.171789      0.165458      0.859481
  H       1.735396      0.229365     -0.864693
  H       2.029666     -1.337946     -0.074559
  H       0.026519     -0.930016      1.404335
  H       0.143640      1.794578      0.430512
  H      -1.162814      1.063863      1.407269
13
Coordinates from ORCA-job PC_anion_cpcm_14_moread E -381.718924197213
  C       1.605088     -0.336090      0.062563
  C       0.136600     -0.419893      0.439234
  C      -0.568866      0.962697      0.486991
  O      -1.392986      0.997588     -0.668342
  C      -1.798784     -0.394932     -0.902365
  O      -2.339446     -0.652605     -2.007480
  O      -0.574854     -1.142264     -0.568433
  H       2.172203      0.168304      0.854116
  H       1.727119      0.229347     -0.868259
  H       2.028401     -1.336299     -0.078118
  H       0.029239     -0.931271      1.408891
  H       0.146838      1.791330      0.437253
  H      -1.170552      1.064087      1.403950
13
Coordinates from ORCA-job PC_anion_cpcm_14_moread E -381.718946137828
  C       1.600926     -0.335368      0.057283
  C       0.135681     -0.420746      0.447600
  C      -0.569069      0.961461      0.491247
  O      -1.373851      0.999464     -0.678680
  C      -1.793961     -0.388841     -0.903292
  O      -2.326636     -0.652006     -2.012623
  O      -0.583437     -1.149121     -0.552167
  H       2.174801      0.171826      0.842236
  H       1.711986      0.228027     -0.876144
  H       2.025106     -1.334916     -0.085953
  H       0.036353     -0.929059      1.419398
  H       0.149452      1.788012      0.453990
  H      -1.187350      1.061267      1.397107
13
Coordinates from ORCA-job PC_anion_cpcm_14_moread E -381.718978663329
  C       1.593785     -0.335406      0.047123
  C       0.134661     -0.420686      0.461671
  C      -0.570198      0.959729      0.498724
  O      -1.342805      1.002151     -0.693875
  C      -1.785524     -0.378981     -0.906542
  O      -2.300339     -0.650161     -2.024552
  O      -0.599108     -1.160473     -0.521343
  H       2.180290      0.176308      0.819838
  H       1.686786      0.223712     -0.890914
  H       2.017481     -1.334653     -0.099576
  H       0.050397     -0.920777      1.438858
  H       0.149619      1.785454      0.484246
  H      -1.215044      1.053784      1.386342
13
Coordinates from ORCA-job PC_anion_cpcm_14_moread E -381.719018502347
  C       1.573181     -0.337226      0.018763
  C       0.132373     -0.417889      0.497611
  C      -0.574042      0.956025      0.519183
  O      -1.263306      1.006919     -0.725707
  C      -1.760012     -0.354669     -0.917527
  O      -2.220858     -0.646430     -2.058157
  O      -0.641970     -1.184788     -0.436929
  H       2.193562      0.185073      0.757497
  H       1.620406      0.209571     -0.930106
  H       1.991877     -1.337267     -0.135817
  H       0.089426     -0.894200      1.488749
  H       0.142126      1.782932      0.564108
  H      -1.282763      1.031948      1.358332
13
Coordinates from ORCA-job PC_anion_cpcm_14_moread E -381.719074413620
  C       1.577354     -0.337687      0.023892
  C       0.132692     -0.417636      0.490212
  C      -0.573547      0.957017      0.515495
  O      -1.288026      1.006063     -0.714255
  C      -1.767069     -0.361571     -0.918310
  O      -2.230198     -0.645039     -2.058792
  O      -0.634363     -1.180642     -0.451498
  H       2.191498      0.183472      0.768542
  H       1.634895      0.209779     -0.924006
  H       1.995928     -1.338319     -0.126673
  H       0.082473     -0.896509      1.480137
  H       0.142008      1.785564      0.545242
  H      -1.263644      1.035509      1.370016
13
Coordinates from ORCA-job PC_anion_cpcm_14_moread E -381.719161687915
  C       1.570449     -0.340365      0.012937
  C       0.132224     -0.414495      0.500550
  C      -0.575584      0.956436      0.522339
  O      -1.276390      1.007951     -0.714329
  C      -1.760657     -0.357216     -0.928261
  O      -2.191470     -0.640022     -2.080089
  O      -0.649991     -1.187022     -0.418952
  H       2.196155      0.186260      0.744009
  H       1.617109      0.198176     -0.940691
  H       1.983861     -1.343544     -0.133568
  H       0.097584     -0.880604      1.497446
  H       0.132154      1.791032      0.568175
  H      -1.275444      1.023412      1.370432
13
Coordinates from ORCA-job PC_anion_cpcm_14_moread E -381.719199978228
  C       1.562493     -0.342445      0.000633
  C       0.132031     -0.412226      0.512469
  C      -0.577694      0.955311      0.529515
  O      -1.252275      1.010751     -0.720077
  C      -1.750944     -0.349620     -0.937262
  O      -2.154836     -0.635396     -2.095461
  O      -0.667018     -1.193542     -0.383211
  H       2.200147      0.190956      0.716321
  H       1.596029      0.185814     -0.959168
  H       1.971621     -1.348000     -0.141525
  H       0.114763     -0.866024      1.515246
  H       0.121538      1.795175      0.598732
  H      -1.295856      1.009247      1.363787
13
Coordinates from ORCA-job PC_anion_cpcm_14_moread E -381.719204737095
  C       1.562082     -0.341976      0.000418
  C       0.131834     -0.413118      0.512937
  C      -0.577638      0.954884      0.529676
  O      -1.251363      1.010820     -0.719791
  C      -1.751035     -0.349342     -0.938035
  O      -2.154472     -0.633771     -2.095933
  O      -0.667564     -1.194575     -0.382103
  H       2.199033      0.193507      0.715175
  H       1.595067      0.184432     -0.960329
  H       1.972422     -1.347373     -0.139922
  H       0.115352     -0.867459      1.515317
  H       0.122404      1.794057      0.598913
  H      -1.296123      1.009913      1.363677
13
Coordinates from ORCA-job PC_anion_cpcm_14_moread E -381.719207946205
  C       1.559554     -0.341214     -0.001531
  C       0.130875     -0.414363      0.515888
  C      -0.577718      0.954115      0.531724
  O      -1.246559      1.010607     -0.719993
  C      -1.749635     -0.348148     -0.939942
  O      -2.146689     -0.631566     -2.099782
  O      -0.671231     -1.197378     -0.375523
  H       2.197243      0.198041      0.709737
  H       1.588206      0.181996     -0.964093
  H       1.972008     -1.346077     -0.140093
  H       0.118297     -0.868861      1.518048
  H       0.124761      1.791167      0.602527
  H      -1.299110      1.011681      1.363033
13
Coordinates from ORCA-job PC_anion_cpcm_14_moread E -381.719208306172
  C       1.560546     -0.341081     -0.000294
  C       0.130959     -0.414551      0.514544
  C      -0.577560      0.954189      0.530840
  O      -1.248817      1.010336     -0.719662
  C      -1.750946     -0.348846     -0.939315
  O      -2.151007     -0.631610     -2.098222
  O      -0.669408     -1.197027     -0.378868
  H       2.196918      0.197630      0.712553
  H       1.590716      0.183031     -0.962343
  H       1.973453     -1.345712     -0.139038
  H       0.116709     -0.869847      1.516395
  H       0.125509      1.790929      0.599740
  H      -1.297072      1.012561      1.363668
13
Coordinates from ORCA-job PC_anion_cpcm_14_moread E -381.719208445943
  C       1.560620     -0.341132     -0.000206
  C       0.130953     -0.414477      0.514480
  C      -0.577569      0.954206      0.530790
  O      -1.248843      1.010203     -0.719844
  C      -1.751066     -0.348830     -0.939247
  O      -2.151258     -0.631702     -2.098113
  O      -0.669248     -1.197085     -0.378942
  H       2.197020      0.197247      0.712868
  H       1.590732      0.183414     -0.962043
  H       1.973503     -1.345686     -0.139403
  H       0.116631     -0.869627      1.516441
  H       0.125567      1.790887      0.599612
  H      -1.297040      1.012582      1.363606
