13
Coordinates from ORCA-job PC_anion_cpcm_200_moread E -381.727270334473
  C           1.56057506859273     -0.34151813893627     -0.00045561536829
  C           0.13176843516598     -0.41328004022449      0.51475050794981
  C          -0.57720193039635      0.95453175720078      0.53212064374373
  O          -1.25343523444985      1.00793387353510     -0.71840570723176
  C          -1.74899674401242     -0.34935746616906     -0.93789810304638
  O          -2.15000809560325     -0.63194708831871     -2.09963812250058
  O          -0.67148947128082     -1.19576963999457     -0.38064724613087
  H           2.19628040632770      0.19596520213166      0.71350896077851
  H           1.59297502684287      0.18398124209955     -0.96175343059809
  H           1.97318621503574     -1.34626390027216     -0.13879345589785
  H           0.11601968100704     -0.87055749665370      1.51503768940695
  H           0.12516336249901      1.79170794357540      0.59644108369407
  H          -1.29483670972835      1.01457376202649      1.36573278520076
