13
Coordinates from ORCA-job PC_anion_cpcm_20_moread E -381.721791623079
  C           1.56034807220987     -0.34125128714331     -0.00056875763703
  C           0.13116088560562     -0.41409418363018      0.51489488317634
  C          -0.57748752892673      0.95427734151074      0.53143308189853
  O          -1.24973772815755      1.00951932948193     -0.71946170774490
  C          -1.75013112493532     -0.34884798238189     -0.93898743862206
  O          -2.14984400158637     -0.63172057990108     -2.09899279742696
  O          -0.67040880232568     -1.19681691870977     -0.37867336352608
  H           2.19679484116904      0.19703207581831      0.71240638553240
  H           1.59078801162762      0.18335489937117     -0.96237557514830
  H           1.97312034962468     -1.34588998156559     -0.13943293178251
  H           0.11680855719310     -0.86978077449119      1.51637793037557
  H           0.12538211945337      1.79110341529856      0.59922416515506
  H          -1.29679364095161      1.01311465634231      1.36415611574995
