13
Coordinates from ORCA-job PC_anion_cpcm_40_moread E -381.659197337944
  C       1.583626     -0.338288      0.054397
  C       0.119798     -0.420765      0.465192
  C      -0.580686      0.955929      0.520491
  O      -1.536891      0.900638     -0.517985
  C      -1.543081     -0.317687     -1.088214
  O      -2.261602     -0.637900     -1.974707
  O      -0.631599     -1.120046     -0.518743
  H       2.151951      0.180080      0.821850
  H       1.681034      0.194200     -0.889025
  H       1.984583     -1.340186     -0.070884
  H       0.020096     -0.969659      1.408167
  H       0.108962      1.780275      0.321121
  H      -1.096192      1.133408      1.468342
13
Coordinates from ORCA-job PC_anion_cpcm_40_moread E -381.681131334614
  C       1.576673     -0.331499      0.053873
  C       0.118414     -0.423780      0.478194
  C      -0.569836      0.952423      0.528937
  O      -1.538104      0.905147     -0.525224
  C      -1.603898     -0.345335     -1.049902
  O      -2.235176     -0.625093     -2.041431
  O      -0.640173     -1.135271     -0.517354
  H       2.149777      0.194667      0.821773
  H       1.668217      0.206342     -0.893062
  H       1.992119     -1.333642     -0.074609
  H       0.024775     -0.973346      1.423421
  H       0.137926      1.761715      0.316193
  H      -1.080713      1.147671      1.479190
13
Coordinates from ORCA-job PC_anion_cpcm_40_moread E -381.703792762112
  C       1.573538     -0.328152      0.053690
  C       0.117985     -0.427677      0.484220
  C      -0.566460      0.951511      0.532297
  O      -1.541004      0.915674     -0.522756
  C      -1.668071     -0.372648     -1.010334
  O      -2.198964     -0.607951     -2.102048
  O      -0.641585     -1.150027     -0.509336
  H       2.151119      0.203655      0.818046
  H       1.656670      0.210666     -0.894883
  H       1.998927     -1.327584     -0.075821
  H       0.033993     -0.978039      1.430940
  H       0.154018      1.746891      0.311395
  H      -1.070166      1.163680      1.484590
13
Coordinates from ORCA-job PC_anion_cpcm_40_moread E -381.714807749365
  C       1.572198     -0.326778      0.055465
  C       0.118177     -0.432499      0.487258
  C      -0.566691      0.951802      0.533807
  O      -1.545106      0.933234     -0.517342
  C      -1.714386     -0.391015     -0.991161
  O      -2.185427     -0.599544     -2.151022
  O      -0.635508     -1.166147     -0.501748
  H       2.151780      0.210818      0.815979
  H       1.647876      0.211987     -0.894902
  H       2.007680     -1.323000     -0.072837
  H       0.042067     -0.979923      1.436416
  H       0.164349      1.736691      0.309157
  H      -1.057008      1.174372      1.490931
13
Coordinates from ORCA-job PC_anion_cpcm_40_moread E -381.721082986743
  C       1.570100     -0.330370      0.050290
  C       0.115519     -0.429131      0.480668
  C      -0.571463      0.951795      0.529718
  O      -1.543983      0.931797     -0.517000
  C      -1.773985     -0.418770     -0.948445
  O      -2.115633     -0.573283     -2.164207
  O      -0.633539     -1.165498     -0.499578
  H       2.152440      0.207163      0.807345
  H       1.645335      0.207908     -0.900681
  H       2.005738     -1.326697     -0.075575
  H       0.044496     -0.964225      1.437093
  H       0.158718      1.740044      0.308978
  H      -1.053742      1.169267      1.491396
13
Coordinates from ORCA-job PC_anion_cpcm_40_moread E -381.722310602179
  C       1.580211     -0.334376      0.053861
  C       0.120567     -0.424416      0.467946
  C      -0.572686      0.956477      0.520966
  O      -1.526595      0.948233     -0.539847
  C      -1.794661     -0.423114     -0.937816
  O      -2.159502     -0.589961     -2.150221
  O      -0.618802     -1.162791     -0.515183
  H       2.159983      0.194722      0.819860
  H       1.668724      0.211631     -0.892359
  H       2.013048     -1.332287     -0.073966
  H       0.042908     -0.949286      1.431640
  H       0.154098      1.756449      0.331333
  H      -1.067294      1.148718      1.483786
13
Coordinates from ORCA-job PC_anion_cpcm_40_moread E -381.723785788576
  C       1.599214     -0.340031      0.060870
  C       0.131143     -0.415808      0.442474
  C      -0.572623      0.963523      0.500798
  O      -1.474446      0.974728     -0.598318
  C      -1.811927     -0.418918     -0.915615
  O      -2.260876     -0.626524     -2.086844
  O      -0.589765     -1.148386     -0.552859
  H       2.170012      0.170539      0.846257
  H       1.716792      0.220427     -0.874291
  H       2.023342     -1.341009     -0.071735
  H       0.034160     -0.926300      1.414716
  H       0.142305      1.787104      0.380596
  H      -1.107332      1.100656      1.453952
13
Coordinates from ORCA-job PC_anion_cpcm_40_moread E -381.724375257138
  C       1.613755     -0.341822      0.067269
  C       0.140331     -0.412436      0.423608
  C      -0.571292      0.966707      0.481663
  O      -1.415076      0.994518     -0.658132
  C      -1.812301     -0.405439     -0.895866
  O      -2.354967     -0.654140     -2.007127
  O      -0.565529     -1.133873     -0.587520
  H       2.174288      0.155007      0.868428
  H       1.754139      0.229019     -0.858422
  H       2.032335     -1.344342     -0.069690
  H       0.024673     -0.918173      1.397158
  H       0.131965      1.805922      0.424800
  H      -1.152321      1.059054      1.413832
13
Coordinates from ORCA-job PC_anion_cpcm_40_moread E -381.724495103414
  C       1.610118     -0.339609      0.065760
  C       0.138941     -0.415343      0.430588
  C      -0.570077      0.965147      0.484660
  O      -1.415638      0.993971     -0.655572
  C      -1.804928     -0.402216     -0.901611
  O      -2.345638     -0.652247     -2.011647
  O      -0.570053     -1.136639     -0.580041
  H       2.172736      0.160734      0.862970
  H       1.744030      0.228412     -0.862262
  H       2.030318     -1.341427     -0.071414
  H       0.025850     -0.924935      1.401373
  H       0.137539      1.800075      0.423245
  H      -1.153198      1.064077      1.413951
13
Coordinates from ORCA-job PC_anion_cpcm_40_moread E -381.724532857093
  C       1.607239     -0.337429      0.064073
  C       0.137970     -0.417892      0.435773
  C      -0.568912      0.963631      0.486086
  O      -1.404097      0.994987     -0.662591
  C      -1.799823     -0.397690     -0.901625
  O      -2.342779     -0.652402     -2.007798
  O      -0.573189     -1.138769     -0.574799
  H       2.171701      0.165065      0.858457
  H       1.735421      0.229231     -0.865277
  H       2.029081     -1.338414     -0.074572
  H       0.027052     -0.929948      1.404568
  H       0.142735      1.795094      0.429595
  H      -1.162398      1.064534      1.408111
13
Coordinates from ORCA-job PC_anion_cpcm_40_moread E -381.724547444377
  C       1.604834     -0.336398      0.061947
  C       0.137127     -0.419118      0.440183
  C      -0.568586      0.962766      0.488229
  O      -1.395223      0.995807     -0.667304
  C      -1.797149     -0.394743     -0.902006
  O      -2.337064     -0.652155     -2.009744
  O      -0.577087     -1.142007     -0.567886
  H       2.172049      0.167888      0.853264
  H       1.727322      0.229194     -0.868747
  H       2.027871     -1.336780     -0.078014
  H       0.029701     -0.931202      1.408997
  H       0.145958      1.791853      0.436087
  H      -1.169753      1.064897      1.404994
13
Coordinates from ORCA-job PC_anion_cpcm_40_moread E -381.724568330712
  C       1.600680     -0.335637      0.056764
  C       0.136153     -0.420033      0.448446
  C      -0.568797      0.961541      0.492441
  O      -1.376419      0.997739     -0.677436
  C      -1.792438     -0.388811     -0.903024
  O      -2.324353     -0.651584     -2.014924
  O      -0.585552     -1.148831     -0.551828
  H       2.174503      0.171512      0.841533
  H       1.712263      0.227852     -0.876572
  H       2.024660     -1.335338     -0.085704
  H       0.036721     -0.929136      1.419359
  H       0.148776      1.788412      0.452591
  H      -1.186197      1.062312      1.398354
13
Coordinates from ORCA-job PC_anion_cpcm_40_moread E -381.724600346080
  C       1.593396     -0.335594      0.046545
  C       0.135039     -0.420071      0.462652
  C      -0.569934      0.959780      0.500018
  O      -1.345117      1.000565     -0.692744
  C      -1.783928     -0.378943     -0.906388
  O      -2.297768     -0.649787     -2.026975
  O      -0.601366     -1.160341     -0.520755
  H       2.179848      0.176253      0.818940
  H       1.686670      0.223478     -0.891523
  H       2.017034     -1.334943     -0.099393
  H       0.050838     -0.921030      1.438924
  H       0.149323      1.785575      0.483093
  H      -1.214035      1.055057      1.387606
13
Coordinates from ORCA-job PC_anion_cpcm_40_moread E -381.724634256465
  C       1.571292     -0.337329      0.016581
  C       0.132428     -0.417269      0.500684
  C      -0.573986      0.955872      0.521806
  O      -1.260666      1.005740     -0.726372
  C      -1.756644     -0.353393     -0.917994
  O      -2.213392     -0.646271     -2.062174
  O      -0.646773     -1.185868     -0.431617
  H       2.193309      0.185848      0.753010
  H       1.615901      0.208643     -0.932929
  H       1.989944     -1.337391     -0.137839
  H       0.091908     -0.893681      1.491322
  H       0.142246      1.782280      0.567556
  H      -1.285566      1.032817      1.357965
13
Coordinates from ORCA-job PC_anion_cpcm_40_moread E -381.724691492548
  C       1.577795     -0.337648      0.024644
  C       0.133090     -0.417280      0.489635
  C      -0.573081      0.957210      0.515949
  O      -1.293560      1.004399     -0.712030
  C      -1.766504     -0.362619     -0.917517
  O      -2.231476     -0.645029     -2.059387
  O      -0.634689     -1.179533     -0.454892
  H       2.190212      0.183247      0.770587
  H       1.637520      0.210378     -0.922813
  H       1.996822     -1.338220     -0.124943
  H       0.080936     -0.898537      1.477813
  H       0.142760      1.785354      0.540494
  H      -1.259825      1.038277      1.372459
13
Coordinates from ORCA-job PC_anion_cpcm_40_moread E -381.724762749816
  C       1.572875     -0.339644      0.016627
  C       0.132867     -0.414913      0.497159
  C      -0.574587      0.956769      0.520898
  O      -1.285000      1.005742     -0.712281
  C      -1.761863     -0.359376     -0.924678
  O      -2.203635     -0.641224     -2.074822
  O      -0.646018     -1.184277     -0.431195
  H       2.193771      0.185207      0.752749
  H       1.624909      0.201903     -0.935032
  H       1.988057     -1.342128     -0.129893
  H       0.091904     -0.886820      1.490519
  H       0.135349      1.789609      0.557250
  H      -1.268629      1.029154      1.372699
13
Coordinates from ORCA-job PC_anion_cpcm_40_moread E -381.724816627119
  C       1.560120     -0.343036     -0.002376
  C       0.132257     -0.410868      0.515830
  C      -0.577814      0.955328      0.532617
  O      -1.249610      1.009468     -0.720444
  C      -1.746746     -0.348300     -0.937960
  O      -2.144175     -0.635377     -2.100249
  O      -0.672720     -1.194020     -0.376205
  H       2.200326      0.190800      0.710430
  H       1.591248      0.184354     -0.962769
  H       1.968294     -1.348973     -0.144127
  H       0.117938     -0.863998      1.518430
  H       0.119969      1.795887      0.603070
  H      -1.299088      1.008735      1.363752
13
Coordinates from ORCA-job PC_anion_cpcm_40_moread E -381.724822195365
  C       1.563185     -0.342136      0.001582
  C       0.132601     -0.412457      0.511636
  C      -0.577171      0.955197      0.529612
  O      -1.257245      1.009066     -0.718246
  C      -1.750827     -0.350452     -0.936386
  O      -2.158320     -0.634040     -2.095134
  O      -0.667086     -1.193014     -0.387099
  H       2.198261      0.192162      0.718603
  H       1.599631      0.185756     -0.958261
  H       1.973628     -1.347543     -0.138125
  H       0.113080     -0.869225      1.512411
  H       0.122557      1.794703      0.593523
  H      -1.292294      1.011982      1.365883
13
Coordinates from ORCA-job PC_anion_cpcm_40_moread E -381.724824964177
  C       1.562213     -0.341608      0.001142
  C       0.132081     -0.413268      0.512652
  C      -0.577132      0.954838      0.530355
  O      -1.255954      1.008803     -0.718013
  C      -1.750642     -0.350220     -0.936963
  O      -2.155829     -0.633026     -2.096573
  O      -0.668243     -1.194262     -0.385285
  H       2.197108      0.194394      0.717054
  H       1.596962      0.185056     -0.959407
  H       1.974009     -1.346620     -0.137829
  H       0.113902     -0.870722      1.513029
  H       0.124429      1.792882      0.593941
  H      -1.292903      1.013752      1.365896
13
Coordinates from ORCA-job PC_anion_cpcm_40_moread E -381.724826065983
  C       1.560827     -0.341337     -0.000114
  C       0.131592     -0.413707      0.514338
  C      -0.577266      0.954465      0.531492
  O      -1.252541      1.008686     -0.718673
  C      -1.749811     -0.349384     -0.938069
  O      -2.151445     -0.631967     -2.098665
  O      -0.670414     -1.195891     -0.381073
  H       2.196441      0.196376      0.713879
  H       1.593064      0.183867     -0.961548
  H       1.973523     -1.346070     -0.138510
  H       0.115834     -0.870685      1.514940
  H       0.125321      1.791538      0.596832
  H      -1.295124      1.014110      1.365172
13
Coordinates from ORCA-job PC_anion_cpcm_40_moread E -381.724826157198
  C       1.560481     -0.341394     -0.000496
  C       0.131496     -0.413647      0.514804
  C      -0.577330      0.954418      0.531804
  O      -1.251792      1.008642     -0.718878
  C      -1.749511     -0.349136     -0.938376
  O      -2.149971     -0.631851     -2.099323
  O      -0.670989     -1.196231     -0.379791
  H       2.196510      0.196436      0.713041
  H       1.592018      0.183714     -0.962016
  H       1.973164     -1.346091     -0.139078
  H       0.116361     -0.870223      1.515621
  H       0.125268      1.791433      0.597663
  H      -1.295704      1.013932      1.365025
