13
Coordinates from ORCA-job PC_anion_cpcm_80_moread E -381.726352015612
  C           1.56053915230149     -0.34147109250031     -0.00047056363991
  C           0.13166576525582     -0.41341823830565      0.51477091082283
  C          -0.57725048227436      0.95448889026185      0.53200128225469
  O          -1.25281782913231      1.00819983449968     -0.71858245587751
  C          -1.74918911075860     -0.34927508908270     -0.93807746647705
  O          -2.14999195673487     -0.63191147665734     -2.09951903913027
  O          -0.67130097360629     -1.19594270905263     -0.38032523336970
  H           2.19636606881456      0.19614349575822      0.71333246066173
  H           1.59261473522217      0.18388005811016     -0.96185272568858
  H           1.97317776154971     -1.34619836981235     -0.13890043528356
  H           0.11614703483458     -0.87043274876148      1.51525660394648
  H           0.12520234653467      1.79160474744273      0.59689945795962
  H          -1.29516250200654      1.01433270809983      1.36546719382125
