13
Coordinates from ORCA-job PC_anion_cpcm_20_moread E -381.655694522015
  C       1.583626     -0.338288      0.054397
  C       0.119798     -0.420765      0.465192
  C      -0.580686      0.955929      0.520491
  O      -1.536891      0.900638     -0.517985
  C      -1.543081     -0.317687     -1.088214
  O      -2.261602     -0.637900     -1.974707
  O      -0.631599     -1.120046     -0.518743
  H       2.151951      0.180080      0.821850
  H       1.681034      0.194200     -0.889025
  H       1.984583     -1.340186     -0.070884
  H       0.020096     -0.969659      1.408167
  H       0.108962      1.780275      0.321121
  H      -1.096192      1.133408      1.468342
13
Coordinates from ORCA-job PC_anion_cpcm_20_moread E -381.678006905235
  C       1.576901     -0.331313      0.053904
  C       0.118288     -0.423639      0.478198
  C      -0.569690      0.952242      0.528880
  O      -1.538148      0.905772     -0.525260
  C      -1.604124     -0.345248     -1.050029
  O      -2.236035     -0.625295     -2.041344
  O      -0.639896     -1.135498     -0.517356
  H       2.150181      0.194894      0.821784
  H       1.668810      0.206198     -0.893077
  H       1.992279     -1.333468     -0.074510
  H       0.024272     -0.973399      1.423522
  H       0.138347      1.761598      0.316140
  H      -1.081185      1.147156      1.479147
13
Coordinates from ORCA-job PC_anion_cpcm_20_moread E -381.700627368705
  C       1.573742     -0.327982      0.053775
  C       0.117849     -0.427540      0.484134
  C      -0.566349      0.951368      0.532171
  O      -1.540950      0.916312     -0.522809
  C      -1.668313     -0.372576     -1.010471
  O      -2.199799     -0.608186     -2.101789
  O      -0.641208     -1.150185     -0.509343
  H       2.151605      0.203828      0.818133
  H       1.657163      0.210542     -0.894864
  H       1.999037     -1.327448     -0.075757
  H       0.033499     -0.978084      1.430951
  H       0.154356      1.746801      0.311368
  H      -1.070633      1.163150      1.484502
13
Coordinates from ORCA-job PC_anion_cpcm_20_moread E -381.711645265310
  C       1.572274     -0.326650      0.055571
  C       0.117984     -0.432463      0.487055
  C      -0.566711      0.951719      0.533583
  O      -1.544821      0.933750     -0.517359
  C      -1.714584     -0.391008     -0.991295
  O      -2.185822     -0.599699     -2.150354
  O      -0.634947     -1.166143     -0.501744
  H       2.152155      0.210901      0.816083
  H       1.648039      0.211904     -0.894861
  H       2.007655     -1.322905     -0.072865
  H       0.041622     -0.980029      1.436290
  H       0.164539      1.736629      0.309120
  H      -1.057384      1.173993      1.490775
13
Coordinates from ORCA-job PC_anion_cpcm_20_moread E -381.717992440614
  C       1.570137     -0.330198      0.050551
  C       0.115253     -0.429370      0.480408
  C      -0.571582      0.951737      0.529397
  O      -1.543531      0.932535     -0.516978
  C      -1.774403     -0.418875     -0.948856
  O      -2.116510     -0.573568     -2.163807
  O      -0.632676     -1.165627     -0.499622
  H       2.152657      0.207329      0.807626
  H       1.645210      0.207975     -0.900463
  H       2.005863     -1.326470     -0.075592
  H       0.044182     -0.964464      1.437035
  H       0.159144      1.739788      0.308967
  H      -1.053744      1.169208      1.491335
13
Coordinates from ORCA-job PC_anion_cpcm_20_moread E -381.719242892104
  C       1.580254     -0.334223      0.054176
  C       0.120232     -0.424743      0.467515
  C      -0.572897      0.956447      0.520478
  O      -1.526023      0.948986     -0.539886
  C      -1.795600     -0.423464     -0.938067
  O      -2.160109     -0.590123     -2.149731
  O      -0.617789     -1.162881     -0.515334
  H       2.160171      0.194853      0.820238
  H       1.668513      0.211719     -0.892091
  H       2.013200     -1.332066     -0.074040
  H       0.042670     -0.949358      1.431597
  H       0.154554      1.756186      0.331438
  H      -1.067176      1.148667      1.483706
13
Coordinates from ORCA-job PC_anion_cpcm_20_moread E -381.720731231392
  C       1.599204     -0.339839      0.061240
  C       0.130672     -0.416298      0.441977
  C      -0.572880      0.963468      0.500203
  O      -1.474093      0.975318     -0.598104
  C      -1.813116     -0.419439     -0.915887
  O      -2.260943     -0.626414     -2.086439
  O      -0.588753     -1.148478     -0.553034
  H       2.170035      0.170819      0.846671
  H       1.716341      0.220481     -0.874046
  H       2.023511     -1.340706     -0.071824
  H       0.033989     -0.926394      1.414730
  H       0.142929      1.786612      0.380536
  H      -1.106895      1.100870      1.453976
13
Coordinates from ORCA-job PC_anion_cpcm_20_moread E -381.721333534462
  C       1.613899     -0.341649      0.067745
  C       0.139919     -0.412939      0.422884
  C      -0.571526      0.966706      0.480857
  O      -1.414454      0.995321     -0.658272
  C      -1.813585     -0.405904     -0.896048
  O      -2.355896     -0.654267     -2.006150
  O      -0.564219     -1.133886     -0.588065
  H       2.174263      0.155190      0.869125
  H       1.754047      0.229137     -0.858015
  H       2.032652     -1.344056     -0.069714
  H       0.024413     -0.918195      1.397006
  H       0.132572      1.805532      0.425022
  H      -1.152085      1.059009      1.413625
13
Coordinates from ORCA-job PC_anion_cpcm_20_moread E -381.721455827417
  C       1.610300     -0.339450      0.066208
  C       0.138599     -0.415793      0.429901
  C      -0.570279      0.965149      0.483889
  O      -1.414869      0.994882     -0.655853
  C      -1.806071     -0.402558     -0.901821
  O      -2.346887     -0.652465     -2.010541
  O      -0.568718     -1.136683     -0.580576
  H       2.172757      0.160911      0.863635
  H       1.744053      0.228505     -0.861874
  H       2.030657     -1.341169     -0.071394
  H       0.025555     -0.924956      1.401203
  H       0.138069      1.799773      0.423592
  H      -1.153166      1.063853      1.413630
13
Coordinates from ORCA-job PC_anion_cpcm_20_moread E -381.721494831190
  C       1.607412     -0.337267      0.064471
  C       0.137669     -0.418315      0.435160
  C      -0.569080      0.963614      0.485366
  O      -1.403134      0.995940     -0.663002
  C      -1.800805     -0.397900     -0.901834
  O      -2.344132     -0.652648     -2.006580
  O      -0.571887     -1.138844     -0.575256
  H       2.171744      0.165267      0.859040
  H       1.735435      0.229311     -0.864940
  H       2.029404     -1.338160     -0.074556
  H       0.026743     -0.929996      1.404414
  H       0.143223      1.794817      0.430054
  H      -1.162592      1.064181      1.407664
13
Coordinates from ORCA-job PC_anion_cpcm_20_moread E -381.721510028919
  C       1.604980     -0.336230      0.062296
  C       0.136841     -0.419537      0.439648
  C      -0.568736      0.962731      0.487548
  O      -1.394044      0.996767     -0.667850
  C      -1.798043     -0.394858     -0.902190
  O      -2.338391     -0.652408     -2.008488
  O      -0.575854     -1.142124     -0.568227
  H       2.172126      0.168102      0.853758
  H       1.727244      0.229287     -0.868459
  H       2.028167     -1.336518     -0.078060
  H       0.029428     -0.931253      1.408909
  H       0.146435      1.791571      0.436678
  H      -1.170153      1.064470      1.404437
13
Coordinates from ORCA-job PC_anion_cpcm_20_moread E -381.721531437882
  C       1.600829     -0.335491      0.057068
  C       0.135899     -0.420419      0.447956
  C      -0.568943      0.961502      0.491777
  O      -1.375085      0.998668     -0.678083
  C      -1.793279     -0.388847     -0.903156
  O      -2.325650     -0.651823     -2.013638
  O      -0.584371     -1.148957     -0.552082
  H       2.174655      0.171666      0.841965
  H       1.712166      0.227961     -0.876304
  H       2.024916     -1.335108     -0.085818
  H       0.036488     -0.929112      1.419334
  H       0.149142      1.788200      0.453286
  H      -1.186768      1.061762      1.397695
13
Coordinates from ORCA-job PC_anion_cpcm_20_moread E -381.721563665067
  C       1.593636     -0.335492      0.046897
  C       0.134839     -0.420403      0.462067
  C      -0.570073      0.959759      0.499287
  O      -1.343961      1.001417     -0.693317
  C      -1.784822     -0.378995     -0.906450
  O      -2.299273     -0.650004     -2.025599
  O      -0.600083     -1.160368     -0.521191
  H       2.180072      0.176258      0.819513
  H       1.686828      0.223627     -0.891134
  H       2.017306     -1.334785     -0.099451
  H       0.050544     -0.920922      1.438814
  H       0.149482      1.785520      0.483615
  H      -1.214496      1.054388      1.386949
13
Coordinates from ORCA-job PC_anion_cpcm_20_moread E -381.721601010388
  C       1.572374     -0.337274      0.017826
  C       0.132412     -0.417605      0.498937
  C      -0.574009      0.955963      0.520333
  O      -1.262245      1.006371     -0.725975
  C      -1.758528     -0.354123     -0.917703
  O      -2.217659     -0.646364     -2.059897
  O      -0.644071     -1.185235     -0.434684
  H       2.193437      0.185393      0.755586
  H       1.618513      0.209182     -0.931310
  H       1.991055     -1.337323     -0.136668
  H       0.090478     -0.894002      1.489823
  H       0.142177      1.782656      0.565531
  H      -1.283934      1.032360      1.358202
13
Coordinates from ORCA-job PC_anion_cpcm_20_moread E -381.721657308432
  C       1.577570     -0.337667      0.024255
  C       0.132877     -0.417472      0.489925
  C      -0.573331      0.957108      0.515689
  O      -1.290584      1.005300     -0.713238
  C      -1.766819     -0.362059     -0.917927
  O      -2.230854     -0.645047     -2.059017
  O      -0.634484     -1.180116     -0.453111
  H       2.190904      0.183357      0.769523
  H       1.636142      0.210070     -0.923431
  H       1.996355     -1.338269     -0.125868
  H       0.081739     -0.897458      1.479037
  H       0.142361      1.785468      0.543028
  H      -1.261876      1.036786      1.371136
13
Coordinates from ORCA-job PC_anion_cpcm_20_moread E -381.721736544910
  C       1.571902     -0.339974      0.015067
  C       0.132572     -0.414760      0.498501
  C      -0.575068      0.956621      0.521362
  O      -1.281145      1.006872     -0.713208
  C      -1.761575     -0.358459     -0.926319
  O      -2.198575     -0.640648     -2.076966
  O      -0.647499     -1.185496     -0.425874
  H       2.194913      0.185652      0.749004
  H       1.621644      0.200205     -0.937480
  H       1.986253     -1.342787     -0.131436
  H       0.094383     -0.883932      1.493568
  H       0.133823      1.790332      0.562133
  H      -1.271629      1.026376      1.371647
13
Coordinates from ORCA-job PC_anion_cpcm_20_moread E -381.721782538648
  C       1.560866     -0.342807     -0.001390
  C       0.132043     -0.411461      0.514724
  C      -0.577846      0.955293      0.531442
  O      -1.249945      1.010226     -0.720434
  C      -1.748415     -0.348690     -0.937973
  O      -2.147543     -0.635378     -2.098661
  O      -0.670606     -1.194052     -0.378136
  H       2.200417      0.190988      0.712190
  H       1.592394      0.184730     -0.961677
  H       1.969346     -1.348605     -0.143439
  H       0.117062     -0.864437      1.517668
  H       0.120536      1.795558      0.602134
  H      -1.298309      1.008636      1.363551
13
Coordinates from ORCA-job PC_anion_cpcm_20_moread E -381.721787593658
  C       1.562949     -0.342035      0.001332
  C       0.132265     -0.412848      0.511869
  C      -0.577381      0.955061      0.529318
  O      -1.254859      1.010005     -0.718919
  C      -1.751314     -0.350072     -0.937090
  O      -2.157668     -0.633900     -2.094995
  O      -0.666745     -1.193640     -0.385499
  H       2.198631      0.192747      0.717604
  H       1.598155      0.185233     -0.958880
  H       1.973374     -1.347433     -0.138635
  H       0.113811     -0.868520      1.513414
  H       0.122493      1.794454      0.595592
  H      -1.293713      1.010948      1.364890
13
Coordinates from ORCA-job PC_anion_cpcm_20_moread E -381.721790778889
  C       1.561738     -0.341385      0.000721
  C       0.131655     -0.413863      0.513175
  C      -0.577331      0.954588      0.530230
  O      -1.252982      1.009727     -0.718741
  C      -1.751006     -0.349688     -0.937869
  O      -2.154634     -0.632548     -2.096689
  O      -0.668227     -1.195223     -0.383075
  H       2.197213      0.195609      0.715527
  H       1.594849      0.184234     -0.960419
  H       1.973822     -1.346320     -0.138198
  H       0.114895     -0.870321      1.514245
  H       0.124648      1.792275      0.596321
  H      -1.294638      1.012915      1.364774
13
Coordinates from ORCA-job PC_anion_cpcm_20_moread E -381.721791520763
  C       1.560469     -0.341206     -0.000444
  C       0.131214     -0.414142      0.514723
  C      -0.577456      0.954296      0.531315
  O      -1.250009      1.009603     -0.719322
  C      -1.750187     -0.348955     -0.938853
  O      -2.150395     -0.631772     -2.098711
  O      -0.670225     -1.196616     -0.379212
  H       2.196745      0.197126      0.712645
  H       1.591248      0.183285     -0.962286
  H       1.973224     -1.345903     -0.139067
  H       0.116617     -0.870068      1.516061
  H       0.125356      1.791186      0.598949
  H      -1.296602      1.013166      1.364203
13
Coordinates from ORCA-job PC_anion_cpcm_20_moread E -381.721791623079
  C       1.560348     -0.341251     -0.000569
  C       0.131161     -0.414094      0.514895
  C      -0.577488      0.954277      0.531433
  O      -1.249738      1.009519     -0.719462
  C      -1.750131     -0.348848     -0.938987
  O      -2.149844     -0.631721     -2.098993
  O      -0.670409     -1.196817     -0.378673
  H       2.196795      0.197032      0.712406
  H       1.590788      0.183355     -0.962376
  H       1.973120     -1.345890     -0.139433
  H       0.116809     -0.869781      1.516378
  H       0.125382      1.791103      0.599224
  H      -1.296794      1.013115      1.364156
