13
Coordinates from ORCA-job PC_anion_cpcm_1000_moread E -381.727760973251
  C           1.56059696551208     -0.34154311111777     -0.00044491200934
  C           0.13182394362374     -0.41320660117247      0.51473629492533
  C          -0.57717560110942      0.95455476464432      0.53218240439339
  O          -1.25377276762096      1.00779126945893     -0.71830922890386
  C          -1.74889676404854     -0.34940312474161     -0.93780122388423
  O          -2.15002622379649     -0.63196598697028     -2.09969922987215
  O          -0.67158619829738     -1.19567622416726     -0.38082738891814
  H           2.19623386986133      0.19586940424932      0.71360955136981
  H           1.59317447612627      0.18403720804962     -0.96169652787297
  H           1.97319434898246     -1.34629846772834     -0.13873266719172
  H           0.11594790163559     -0.87062620389426      1.51491669529036
  H           0.12514266070094      1.79176373384885      0.59618877886857
  H          -1.29465660156958      1.01470334954094      1.36587744380495
