13
Coordinates from ORCA-job PC_anion_cpcm_28_moread E -381.657685625913
  C       1.583626     -0.338288      0.054397
  C       0.119798     -0.420765      0.465192
  C      -0.580686      0.955929      0.520491
  O      -1.536891      0.900638     -0.517985
  C      -1.543081     -0.317687     -1.088214
  O      -2.261602     -0.637900     -1.974707
  O      -0.631599     -1.120046     -0.518743
  H       2.151951      0.180080      0.821850
  H       1.681034      0.194200     -0.889025
  H       1.984583     -1.340186     -0.070884
  H       0.020096     -0.969659      1.408167
  H       0.108962      1.780275      0.321121
  H      -1.096192      1.133408      1.468342
13
Coordinates from ORCA-job PC_anion_cpcm_28_moread E -381.679789164079
  C       1.576769     -0.331415      0.053889
  C       0.118356     -0.423725      0.478192
  C      -0.569773      0.952343      0.528908
  O      -1.538114      0.905421     -0.525240
  C      -1.603997     -0.345298     -1.049953
  O      -2.235556     -0.625182     -2.041383
  O      -0.640047     -1.135370     -0.517358
  H       2.149943      0.194767      0.821785
  H       1.668471      0.206287     -0.893063
  H       1.992191     -1.333561     -0.074566
  H       0.024554     -0.973376      1.423458
  H       0.138115      1.761656      0.316167
  H      -1.080911      1.147453      1.479165
13
Coordinates from ORCA-job PC_anion_cpcm_28_moread E -381.702434736469
  C       1.573625     -0.328075      0.053731
  C       0.117923     -0.427625      0.484178
  C      -0.566412      0.951448      0.532238
  O      -1.540973      0.915955     -0.522780
  C      -1.668178     -0.372618     -1.010391
  O      -2.199342     -0.608056     -2.101931
  O      -0.641416     -1.150097     -0.509343
  H       2.151321      0.203733      0.818092
  H       1.656883      0.210620     -0.894869
  H       1.998980     -1.327519     -0.075792
  H       0.033777     -0.978067      1.430939
  H       0.154173      1.746843      0.311380
  H      -1.070361      1.163457      1.484548
13
Coordinates from ORCA-job PC_anion_cpcm_28_moread E -381.713450402847
  C       1.572231     -0.326721      0.055513
  C       0.118091     -0.432488      0.487166
  C      -0.566701      0.951766      0.533706
  O      -1.544977      0.933459     -0.517352
  C      -1.714476     -0.391013     -0.991214
  O      -2.185607     -0.599613     -2.150724
  O      -0.635261     -1.166143     -0.501752
  H       2.151936      0.210854      0.816031
  H       1.647948      0.211957     -0.894880
  H       2.007673     -1.322955     -0.072849
  H       0.041873     -0.979973      1.436356
  H       0.164436      1.736659      0.309139
  H      -1.057166      1.174212      1.490861
13
Coordinates from ORCA-job PC_anion_cpcm_28_moread E -381.719756020585
  C       1.570118     -0.330296      0.050404
  C       0.115404     -0.429235      0.480551
  C      -0.571515      0.951770      0.529576
  O      -1.543784      0.932117     -0.516996
  C      -1.774168     -0.418817     -0.948617
  O      -2.116023     -0.573409     -2.164023
  O      -0.633162     -1.165550     -0.499605
  H       2.152531      0.207232      0.807472
  H       1.645287      0.207939     -0.900584
  H       2.005795     -1.326598     -0.075582
  H       0.044357     -0.964328      1.437064
  H       0.158902      1.739933      0.308973
  H      -1.053743      1.169240      1.491366
13
Coordinates from ORCA-job PC_anion_cpcm_28_moread E -381.720993298442
  C       1.580233     -0.334310      0.054000
  C       0.120423     -0.424557      0.467755
  C      -0.572777      0.956465      0.520753
  O      -1.526345      0.948560     -0.539869
  C      -1.795067     -0.423264     -0.937920
  O      -2.159783     -0.590037     -2.150000
  O      -0.618360     -1.162826     -0.515258
  H       2.160063      0.194776      0.820029
  H       1.668642      0.211671     -0.892239
  H       2.013117     -1.332191     -0.073996
  H       0.042803     -0.949317      1.431617
  H       0.154295      1.756337      0.331380
  H      -1.067244      1.148693      1.483749
13
Coordinates from ORCA-job PC_anion_cpcm_28_moread E -381.722474075134
  C       1.599214     -0.339949      0.061033
  C       0.130942     -0.416018      0.442254
  C      -0.572733      0.963500      0.500538
  O      -1.474291      0.974984     -0.598231
  C      -1.812441     -0.419142     -0.915728
  O      -2.260927     -0.626482     -2.086656
  O      -0.589322     -1.148421     -0.552947
  H       2.170022      0.170657      0.846444
  H       1.716608      0.220451     -0.874180
  H       2.023418     -1.340879     -0.071770
  H       0.034083     -0.926341      1.414715
  H       0.142572      1.786895      0.380571
  H      -1.107145      1.100744      1.453958
13
Coordinates from ORCA-job PC_anion_cpcm_28_moread E -381.723068943824
  C       1.613821     -0.341747      0.067478
  C       0.140156     -0.412651      0.423290
  C      -0.571392      0.966707      0.481312
  O      -1.414806      0.994865     -0.658197
  C      -1.812853     -0.405638     -0.895940
  O      -2.355388     -0.654200     -2.006688
  O      -0.564957     -1.133872     -0.587768
  H       2.174277      0.155081      0.868737
  H       1.754111      0.229072     -0.858240
  H       2.032474     -1.344219     -0.069698
  H       0.024555     -0.918185      1.397083
  H       0.132224      1.805757      0.424894
  H      -1.152221      1.059031      1.413737
13
Coordinates from ORCA-job PC_anion_cpcm_28_moread E -381.723189820037
  C       1.610198     -0.339540      0.065956
  C       0.138794     -0.415536      0.430288
  C      -0.570163      0.965148      0.484326
  O      -1.415313      0.994362     -0.655690
  C      -1.805420     -0.402365     -0.901699
  O      -2.346184     -0.652343     -2.011163
  O      -0.569474     -1.136652     -0.580281
  H       2.172744      0.160808      0.863263
  H       1.744047      0.228454     -0.862090
  H       2.030465     -1.341316     -0.071403
  H       0.025718     -0.924948      1.401293
  H       0.137767      1.799946      0.423387
  H      -1.153179      1.063982      1.413813
13
Coordinates from ORCA-job PC_anion_cpcm_28_moread E -381.723228092766
  C       1.607316     -0.337359      0.064248
  C       0.137840     -0.418073      0.435504
  C      -0.568984      0.963624      0.485774
  O      -1.403693      0.995396     -0.662762
  C      -1.800247     -0.397784     -0.901713
  O      -2.343370     -0.652510     -2.007267
  O      -0.572623     -1.138795     -0.575007
  H       2.171718      0.165149      0.858716
  H       1.735435      0.229268     -0.865126
  H       2.029222     -1.338304     -0.074563
  H       0.026913     -0.929972      1.404494
  H       0.142945      1.794975      0.429781
  H      -1.162473      1.064385      1.407921
13
Coordinates from ORCA-job PC_anion_cpcm_28_moread E -381.723242936961
  C       1.604899     -0.336325      0.062102
  C       0.137004     -0.419298      0.439947
  C      -0.568650      0.962752      0.487932
  O      -1.394725      0.996219     -0.667534
  C      -1.797536     -0.394796     -0.902082
  O      -2.337646     -0.652267     -2.009195
  O      -0.576550     -1.142051     -0.568046
  H       2.172080      0.167976      0.853486
  H       1.727297      0.229237     -0.868616
  H       2.028001     -1.336667     -0.078031
  H       0.029577     -0.931228      1.408950
  H       0.146163      1.791732      0.436330
  H      -1.169916      1.064716      1.404757
13
Coordinates from ORCA-job PC_anion_cpcm_28_moread E -381.723264033285
  C       1.600749     -0.335574      0.056902
  C       0.136044     -0.420199      0.448225
  C      -0.568859      0.961525      0.492150
  O      -1.375862      0.998137     -0.677707
  C      -1.792804     -0.388832     -0.903077
  O      -2.324929     -0.651690     -2.014359
  O      -0.585033     -1.148876     -0.551958
  H       2.174566      0.171573      0.841734
  H       1.712237      0.227903     -0.876446
  H       2.024775     -1.335239     -0.085747
  H       0.036611     -0.929131      1.419334
  H       0.148933      1.788323      0.452871
  H      -1.186427      1.062080      1.398075
13
Coordinates from ORCA-job PC_anion_cpcm_28_moread E -381.723296122003
  C       1.593508     -0.335550      0.046707
  C       0.134954     -0.420213      0.462384
  C      -0.569993      0.959773      0.499695
  O      -1.344648      1.000930     -0.692979
  C      -1.784322     -0.378974     -0.906408
  O      -2.298449     -0.649884     -2.026364
  O      -0.600796     -1.160339     -0.520977
  H       2.179940      0.176248      0.819212
  H       1.686766      0.223548     -0.891338
  H       2.017160     -1.334875     -0.099406
  H       0.050695     -0.920992      1.438855
  H       0.149391      1.785554      0.483287
  H      -1.214208      1.054775      1.387331
13
Coordinates from ORCA-job PC_anion_cpcm_28_moread E -381.723331592633
  C       1.571777     -0.337305      0.017138
  C       0.132426     -0.417414      0.499904
  C      -0.573993      0.955914      0.521154
  O      -1.261397      1.006009     -0.726188
  C      -1.757475     -0.353721     -0.917857
  O      -2.215303     -0.646313     -2.061161
  O      -0.645577     -1.185580     -0.433001
  H       2.193361      0.185641      0.754167
  H       1.617082      0.208887     -0.932202
  H       1.990444     -1.337361     -0.137309
  H       0.091263     -0.893833      1.490642
  H       0.142216      1.782449      0.566631
  H      -1.284825      1.032626      1.358081
13
Coordinates from ORCA-job PC_anion_cpcm_28_moread E -381.723388347598
  C       1.577701     -0.337656      0.024480
  C       0.132999     -0.417362      0.489755
  C      -0.573188      0.957167      0.515835
  O      -1.292281      1.004787     -0.712552
  C      -1.766640     -0.362379     -0.917689
  O      -2.231224     -0.645040     -2.059216
  O      -0.634595     -1.179780     -0.454137
  H       2.190509      0.183291      0.770138
  H       1.636935      0.210249     -0.923074
  H       1.996625     -1.338240     -0.125339
  H       0.081275     -0.898077      1.478332
  H       0.142590      1.785403      0.541578
  H      -1.260706      1.037637      1.371888
13
Coordinates from ORCA-job PC_anion_cpcm_28_moread E -381.723462877963
  C       1.572523     -0.339773      0.016043
  C       0.132750     -0.414860      0.497636
  C      -0.574780      0.956711      0.521033
  O      -1.283504      1.006214     -0.712640
  C      -1.761809     -0.359032     -0.925323
  O      -2.201760     -0.640993     -2.075601
  O      -0.646522     -1.184746     -0.429167
  H       2.194230      0.185370      0.751335
  H       1.623696      0.201238     -0.935957
  H       1.987370     -1.342387     -0.130469
  H       0.092849     -0.885671      1.491690
  H       0.134731      1.789907      0.559141
  H      -1.269773      1.028021      1.372279
13
Coordinates from ORCA-job PC_anion_cpcm_28_moread E -381.723513454918
  C       1.560363     -0.342955     -0.002046
  C       0.132151     -0.411098      0.515455
  C      -0.577844      0.955313      0.532186
  O      -1.249629      1.009802     -0.720449
  C      -1.747379     -0.348431     -0.938030
  O      -2.145252     -0.635378     -2.099730
  O      -0.671952     -1.194071     -0.376765
  H       2.200395      0.190890      0.710982
  H       1.591537      0.184453     -0.962427
  H       1.968632     -1.348847     -0.143934
  H       0.117683     -0.864084      1.518240
  H       0.120170      1.795766      0.602858
  H      -1.298876      1.008641      1.363659
13
Coordinates from ORCA-job PC_anion_cpcm_28_moread E -381.723518839940
  C       1.563107     -0.342095      0.001495
  C       0.132463     -0.412623      0.511706
  C      -0.577260      0.955142      0.529465
  O      -1.256267      1.009472     -0.718526
  C      -1.751056     -0.350302     -0.936679
  O      -2.158122     -0.633983     -2.095039
  O      -0.666904     -1.193266     -0.386473
  H       2.198424      0.192398      0.718222
  H       1.599062      0.185540     -0.958499
  H       1.973537     -1.347501     -0.138319
  H       0.113366     -0.868925      1.512811
  H       0.122518      1.794612      0.594367
  H      -1.292867      1.011531      1.365468
13
Coordinates from ORCA-job PC_anion_cpcm_28_moread E -381.723521769939
  C       1.562077     -0.341522      0.001028
  C       0.131917     -0.413505      0.512790
  C      -0.577212      0.954747      0.530244
  O      -1.254825      1.009199     -0.718307
  C      -1.750851     -0.350032     -0.937299
  O      -2.155553     -0.632866     -2.096513
  O      -0.668126     -1.194608     -0.384542
  H       2.197176      0.194826      0.716562
  H       1.596238      0.184767     -0.959731
  H       1.973968     -1.346505     -0.137955
  H       0.114233     -0.870554      1.513457
  H       0.124498      1.792667      0.594825
  H      -1.293541      1.013386      1.365442
13
Coordinates from ORCA-job PC_anion_cpcm_28_moread E -381.723522695062
  C       1.561326     -0.341237      0.000481
  C       0.131566     -0.413918      0.513658
  C      -0.577256      0.954485      0.530819
  O      -1.252790      1.009005     -0.718790
  C      -1.750619     -0.349604     -0.937878
  O      -2.153719     -0.632147     -2.097488
  O      -0.669170     -1.195738     -0.382451
  H       2.196544      0.196169      0.715116
  H       1.594045      0.184313     -0.960739
  H       1.974052     -1.345921     -0.138222
  H       0.115196     -0.870933      1.514355
  H       0.125509      1.791492      0.596161
  H      -1.294685      1.014034      1.364978
13
Coordinates from ORCA-job PC_anion_cpcm_28_moread E -381.723522830976
  C       1.560233     -0.341298     -0.000706
  C       0.131285     -0.413876      0.515085
  C      -0.577425      0.954309      0.531783
  O      -1.250328      1.008980     -0.719313
  C      -1.749666     -0.348877     -0.938780
  O      -2.149356     -0.631698     -2.099413
  O      -0.671026     -1.196727     -0.378674
  H       2.196577      0.196840      0.712385
  H       1.590942      0.183518     -0.962406
  H       1.973032     -1.345926     -0.139474
  H       0.116857     -0.869953      1.516250
  H       0.125435      1.791096      0.598797
  H      -1.296559      1.013612      1.364465
13
Coordinates from ORCA-job PC_anion_cpcm_28_moread E -381.723522921488
  C       1.560754     -0.341311     -0.000132
  C       0.131404     -0.413864      0.514423
  C      -0.577351      0.954386      0.531335
  O      -1.251633      1.008922     -0.719058
  C      -1.750157     -0.349195     -0.938392
  O      -2.151288     -0.631894     -2.098600
  O      -0.670113     -1.196312     -0.380375
  H       2.196615      0.196368      0.713732
  H       1.592328      0.184010     -0.961531
  H       1.973501     -1.345936     -0.139058
  H       0.116065     -0.870254      1.515445
  H       0.125466      1.791278      0.597443
  H      -1.295591      1.013800      1.364768
