13
Coordinates from ORCA-job PC_anion_cpcm_7_moread E -381.643383120426
  C       1.583626     -0.338288      0.054397
  C       0.119798     -0.420765      0.465192
  C      -0.580686      0.955929      0.520491
  O      -1.536891      0.900638     -0.517985
  C      -1.543081     -0.317687     -1.088214
  O      -2.261602     -0.637900     -1.974707
  O      -0.631599     -1.120046     -0.518743
  H       2.151951      0.180080      0.821850
  H       1.681034      0.194200     -0.889025
  H       1.984583     -1.340186     -0.070884
  H       0.020096     -0.969659      1.408167
  H       0.108962      1.780275      0.321121
  H      -1.096192      1.133408      1.468342
13
Coordinates from ORCA-job PC_anion_cpcm_7_moread E -381.666587958987
  C       1.577863     -0.330875      0.053828
  C       0.118061     -0.422731      0.478480
  C      -0.569202      0.951742      0.528991
  O      -1.538823      0.907608     -0.525375
  C      -1.604850     -0.344916     -1.050720
  O      -2.238421     -0.625928     -2.041606
  O      -0.639323     -1.136138     -0.517218
  H       2.152160      0.195490      0.821441
  H       1.670982      0.205256     -0.893449
  H       1.992671     -1.333280     -0.074196
  H       0.022772     -0.973148      1.424258
  H       0.139324      1.761768      0.316209
  H      -1.083213      1.145152      1.479359
13
Coordinates from ORCA-job PC_anion_cpcm_7_moread E -381.688965043291
  C       1.574518     -0.327596      0.053832
  C       0.117559     -0.426594      0.484134
  C      -0.565949      0.950951      0.532050
  O      -1.541232      0.918145     -0.522968
  C      -1.668958     -0.372279     -1.011124
  O      -2.201668     -0.608799     -2.101186
  O      -0.640293     -1.150585     -0.509166
  H       2.153830      0.204230      0.817927
  H       1.658898      0.209630     -0.895193
  H       1.999107     -1.327389     -0.075607
  H       0.031948     -0.977758      1.431360
  H       0.154967      1.747082      0.311495
  H      -1.072728      1.160962      1.484446
13
Coordinates from ORCA-job PC_anion_cpcm_7_moread E -381.703378090690
  C       1.571062     -0.326291      0.055457
  C       0.116607     -0.433308      0.486490
  C      -0.567665      0.951446      0.533000
  O      -1.545160      0.938470     -0.515655
  C      -1.738628     -0.401298     -0.979087
  O      -2.167528     -0.592198     -2.163859
  O      -0.632397     -1.170311     -0.498759
  H       2.153638      0.212680      0.814177
  H       1.644044      0.211733     -0.895795
  H       2.008952     -1.321777     -0.073319
  H       0.043924     -0.979236      1.437469
  H       0.167482      1.733091      0.307899
  H      -1.054330      1.177000      1.491980
13
Coordinates from ORCA-job PC_anion_cpcm_7_moread E -381.706984439850
  C       1.573706     -0.332223      0.050508
  C       0.115631     -0.426212      0.472597
  C      -0.573291      0.953368      0.523847
  O      -1.534350      0.935566     -0.526502
  C      -1.797413     -0.427827     -0.932960
  O      -2.111545     -0.572276     -2.154277
  O      -0.626801     -1.161275     -0.505428
  H       2.156638      0.201113      0.810265
  H       1.653830      0.207756     -0.899035
  H       2.006314     -1.329696     -0.076878
  H       0.042879     -0.955638      1.433379
  H       0.156002      1.748066      0.318405
  H      -1.061600      1.159278      1.486079
13
Coordinates from ORCA-job PC_anion_cpcm_7_moread E -381.708290914662
  C       1.583309     -0.334483      0.055851
  C       0.120996     -0.423951      0.462760
  C      -0.573042      0.957529      0.516249
  O      -1.515289      0.954218     -0.549881
  C      -1.800514     -0.423711     -0.934540
  O      -2.176727     -0.596641     -2.138254
  O      -0.611401     -1.160222     -0.520807
  H       2.162723      0.191158      0.825117
  H       1.675073      0.213462     -0.888895
  H       2.014331     -1.332859     -0.074896
  H       0.041075     -0.946767      1.428752
  H       0.154629      1.760745      0.340483
  H      -1.075164      1.141523      1.478061
13
Coordinates from ORCA-job PC_anion_cpcm_7_moread E -381.709933609660
  C       1.602600     -0.338823      0.064670
  C       0.131771     -0.418001      0.437462
  C      -0.572427      0.963801      0.494311
  O      -1.455347      0.985154     -0.614541
  C      -1.806543     -0.412815     -0.920039
  O      -2.298927     -0.638586     -2.062736
  O      -0.578536     -1.146889     -0.561531
  H       2.170861      0.168662      0.854714
  H       1.723318      0.224250     -0.868528
  H       2.026474     -1.339452     -0.072031
  H       0.030906     -0.927373      1.411484
  H       0.144579      1.788603      0.392815
  H      -1.118729      1.091470      1.443950
13
Coordinates from ORCA-job PC_anion_cpcm_7_moread E -381.710304246941
  C       1.614032     -0.339566      0.069802
  C       0.138740     -0.416694      0.421735
  C      -0.571491      0.965545      0.477024
  O      -1.399735      1.001382     -0.668491
  C      -1.808077     -0.400931     -0.899857
  O      -2.374826     -0.658678     -1.989079
  O      -0.557904     -1.134779     -0.591106
  H       2.172903      0.157216      0.872705
  H       1.752634      0.231991     -0.855556
  H       2.034501     -1.340905     -0.070775
  H       0.022405     -0.922434      1.396219
  H       0.136844      1.801935      0.431451
  H      -1.160026      1.055918      1.405926
13
Coordinates from ORCA-job PC_anion_cpcm_7_moread E -381.710378204084
  C       1.609501     -0.337964      0.067173
  C       0.136716     -0.418608      0.429538
  C      -0.570668      0.964277      0.481994
  O      -1.406848      0.998178     -0.659877
  C      -1.805730     -0.401194     -0.903338
  O      -2.351873     -0.653413     -2.004480
  O      -0.565215     -1.138033     -0.580491
  H       2.171905      0.163231      0.864516
  H       1.740289      0.229730     -0.861370
  H       2.031393     -1.338814     -0.072652
  H       0.024834     -0.927435      1.401869
  H       0.142181      1.796176      0.426518
  H      -1.156486      1.063871      1.410600
13
Coordinates from ORCA-job PC_anion_cpcm_7_moread E -381.710405508241
  C       1.606986     -0.336553      0.065062
  C       0.136048     -0.420200      0.434597
  C      -0.569783      0.963342      0.483936
  O      -1.398827      0.998666     -0.664360
  C      -1.804021     -0.398414     -0.902334
  O      -2.344257     -0.652416     -2.005666
  O      -0.569220     -1.140341     -0.574079
  H       2.171966      0.166890      0.859053
  H       1.732169      0.229415     -0.865076
  H       2.030049     -1.336887     -0.075596
  H       0.026816     -0.930455      1.405682
  H       0.146087      1.792588      0.432250
  H      -1.164014      1.064364      1.406531
13
Coordinates from ORCA-job PC_anion_cpcm_7_moread E -381.710423469521
  C       1.604387     -0.335606      0.061953
  C       0.135636     -0.421169      0.440246
  C      -0.569276      0.962477      0.486327
  O      -1.385726      1.000262     -0.672064
  C      -1.801267     -0.394141     -0.902140
  O      -2.337353     -0.652380     -2.006818
  O      -0.574284     -1.144234     -0.564745
  H       2.173364      0.169808      0.851865
  H       1.722688      0.228863     -0.869885
  H       2.028232     -1.335467     -0.080297
  H       0.030554     -0.930706      1.411664
  H       0.148857      1.789885      0.443102
  H      -1.175812      1.062409      1.400792
13
Coordinates from ORCA-job PC_anion_cpcm_7_moread E -381.710447874816
  C       1.599922     -0.335047      0.055631
  C       0.135174     -0.421638      0.449855
  C      -0.569333      0.961183      0.490899
  O      -1.363070      1.002958     -0.684416
  C      -1.795738     -0.386700     -0.903685
  O      -2.323260     -0.651993     -2.011660
  O      -0.583948     -1.151829     -0.545618
  H       2.176973      0.173382      0.837823
  H       1.706248      0.226738     -0.879235
  H       2.023919     -1.334512     -0.089246
  H       0.038912     -0.926988      1.423954
  H       0.150445      1.787379      0.463899
  H      -1.196243      1.057069      1.391800
13
Coordinates from ORCA-job PC_anion_cpcm_7_moread E -381.710497039649
  C       1.589951     -0.335201      0.041096
  C       0.134341     -0.421076      0.469712
  C      -0.570612      0.958708      0.501138
  O      -1.317341      1.007344     -0.706211
  C      -1.782923     -0.371922     -0.909243
  O      -2.287792     -0.650162     -2.026281
  O      -0.605661     -1.167160     -0.501723
  H       2.185043      0.179257      0.805861
  H       1.671507      0.220244     -0.900081
  H       2.012309     -1.334655     -0.108447
  H       0.058849     -0.914448      1.451305
  H       0.148852      1.784883      0.508320
  H      -1.236523      1.044188      1.374553
13
Coordinates from ORCA-job PC_anion_cpcm_7_moread E -381.710503166532
  C       1.566964     -0.337327      0.009987
  C       0.132378     -0.417162      0.508635
  C      -0.574416      0.954597      0.523437
  O      -1.228571      1.012653     -0.738870
  C      -1.752509     -0.344783     -0.923211
  O      -2.202024     -0.647473     -2.060420
  O      -0.652038     -1.191310     -0.409079
  H       2.199083      0.187952      0.737192
  H       1.599552      0.204344     -0.942292
  H       1.982352     -1.338275     -0.147787
  H       0.101643     -0.884535      1.504731
  H       0.137155      1.783389      0.596288
  H      -1.309570      1.017929      1.341388
13
Coordinates from ORCA-job PC_anion_cpcm_7_moread E -381.710592382823
  C       1.576869     -0.337294      0.022739
  C       0.132763     -0.418189      0.491717
  C      -0.573320      0.956480      0.514400
  O      -1.275725      1.010634     -0.720001
  C      -1.767248     -0.358356     -0.920942
  O      -2.232435     -0.646228     -2.054453
  O      -0.633411     -1.182651     -0.445869
  H       2.193752      0.184552      0.765170
  H       1.631270      0.208529     -0.926162
  H       1.994401     -1.338233     -0.129047
  H       0.084582     -0.893850      1.483851
  H       0.140934      1.785947      0.555638
  H      -1.272433      1.028661      1.362959
13
Coordinates from ORCA-job PC_anion_cpcm_7_moread E -381.710646963153
  C       1.573306     -0.338823      0.017155
  C       0.132143     -0.416722      0.496637
  C      -0.574782      0.956095      0.518006
  O      -1.271529      1.011228     -0.718599
  C      -1.764096     -0.356638     -0.926642
  O      -2.211575     -0.642822     -2.067163
  O      -0.641496     -1.186193     -0.428996
  H       2.195803      0.186320      0.752516
  H       1.622224      0.202074     -0.934914
  H       1.988412     -1.341078     -0.131880
  H       0.092688     -0.885329      1.492756
  H       0.135591      1.788696      0.566101
  H      -1.276689      1.023191      1.365024
13
Coordinates from ORCA-job PC_anion_cpcm_7_moread E -381.710702687288
  C       1.562298     -0.341877      0.001215
  C       0.130641     -0.413908      0.511961
  C      -0.578193      0.954773      0.528280
  O      -1.247703      1.013227     -0.721152
  C      -1.752962     -0.349033     -0.938900
  O      -2.156455     -0.635508     -2.093969
  O      -0.664420     -1.195053     -0.382236
  H       2.200302      0.192446      0.716345
  H       1.593238      0.185851     -0.958944
  H       1.972276     -1.346975     -0.142155
  H       0.115288     -0.866023      1.516333
  H       0.123122      1.793271      0.600908
  H      -1.297434      1.008809      1.362314
13
Coordinates from ORCA-job PC_anion_cpcm_7_moread E -381.710707308484
  C       1.561352     -0.341620      0.000093
  C       0.130493     -0.414531      0.513346
  C      -0.578246      0.954388      0.528983
  O      -1.245536      1.013254     -0.721217
  C      -1.752596     -0.348372     -0.939966
  O      -2.152787     -0.633596     -2.095862
  O      -0.666376     -1.196358     -0.378590
  H       2.199624      0.195050      0.713210
  H       1.590707      0.183718     -0.961339
  H       1.972101     -1.346725     -0.141402
  H       0.117030     -0.866266      1.517733
  H       0.123253      1.792537      0.603260
  H      -1.299019      1.008522      1.361751
13
Coordinates from ORCA-job PC_anion_cpcm_7_moread E -381.710710212270
  C       1.558375     -0.341067     -0.002898
  C       0.129850     -0.415514      0.517317
  C      -0.578282      0.953643      0.531454
  O      -1.238965      1.013170     -0.721979
  C      -1.750691     -0.346579     -0.942463
  O      -2.142297     -0.630555     -2.100905
  O      -0.671486     -1.199615     -0.369021
  H       2.198250      0.200169      0.705339
  H       1.582544      0.179837     -0.966776
  H       1.970819     -1.345932     -0.141824
  H       0.121237     -0.866362      1.521870
  H       0.124383      1.790411      0.609711
  H      -1.303737      1.008395      1.360173
13
Coordinates from ORCA-job PC_anion_cpcm_7_moread E -381.710710888144
  C       1.559734     -0.340847     -0.001116
  C       0.130009     -0.415754      0.515472
  C      -0.578015      0.953759      0.530258
  O      -1.242230      1.012837     -0.721423
  C      -1.752252     -0.347552     -0.941428
  O      -2.148417     -0.630825     -2.098474
  O      -0.668821     -1.198967     -0.374005
  H       2.197816      0.199506      0.709397
  H       1.586074      0.181405     -0.964225
  H       1.972744     -1.345414     -0.140412
  H       0.118805     -0.868026      1.519416
  H       0.125506      1.790097      0.605534
  H      -1.300954      1.009781      1.361008
13
Coordinates from ORCA-job PC_anion_cpcm_7_moread E -381.710711048358
  C       1.559997     -0.340846     -0.000754
  C       0.130037     -0.415721      0.515128
  C      -0.577982      0.953770      0.530043
  O      -1.242615      1.012688     -0.721522
  C      -1.752506     -0.347650     -0.941212
  O      -2.149727     -0.630986     -2.097890
  O      -0.668228     -1.198910     -0.374882
  H       2.197839      0.199063      0.710318
  H       1.586632      0.182008     -0.963550
  H       1.973073     -1.345300     -0.140515
  H       0.118346     -0.868135      1.519048
  H       0.125713      1.790012      0.604759
  H      -1.300578      1.010007      1.361028
