13
Coordinates from ORCA-job PC_anion_cpcm_7_moread E -381.710711048358
  C           1.55999678097335     -0.34084584804365     -0.00075363258961
  C           0.13003677375798     -0.41572149949122      0.51512824746699
  C          -0.57798216311829      0.95377035838695      0.53004348722924
  O          -1.24261458086697      1.01268754880459     -0.72152195004382
  C          -1.75250610995623     -0.34765000963472     -0.94121179675386
  O          -2.14972729891233     -0.63098593766777     -2.09788959027567
  O          -0.66822760719212     -1.19890979787489     -0.37488179522201
  H           2.19783900257619      0.19906309986422      0.71031765172179
  H           1.58663233907519      0.18200789200350     -0.96355000758103
  H           1.97307309559749     -1.34529966758744     -0.14051479772846
  H           0.11834554304700     -0.86813542931441      1.51904790474030
  H           0.12571272416784      1.79001225386990      0.60475860690594
  H          -1.30057848914908      1.01000704668494      1.36102766213018
