13
Coordinates from ORCA-job PC_anion_cpcm_10_moread E -381.648936064918
  C       1.583626     -0.338288      0.054397
  C       0.119798     -0.420765      0.465192
  C      -0.580686      0.955929      0.520491
  O      -1.536891      0.900638     -0.517985
  C      -1.543081     -0.317687     -1.088214
  O      -2.261602     -0.637900     -1.974707
  O      -0.631599     -1.120046     -0.518743
  H       2.151951      0.180080      0.821850
  H       1.681034      0.194200     -0.889025
  H       1.984583     -1.340186     -0.070884
  H       0.020096     -0.969659      1.408167
  H       0.108962      1.780275      0.321121
  H      -1.096192      1.133408      1.468342
13
Coordinates from ORCA-job PC_anion_cpcm_10_moread E -381.671826753619
  C       1.577401     -0.331029      0.053896
  C       0.118122     -0.423219      0.478303
  C      -0.569415      0.951940      0.528882
  O      -1.538425      0.906859     -0.525317
  C      -1.604538     -0.345069     -1.050365
  O      -2.237472     -0.625659     -2.041401
  O      -0.639505     -1.135889     -0.517299
  H       2.151164      0.195265      0.821664
  H       1.669990      0.205759     -0.893223
  H       1.992529     -1.333282     -0.074328
  H       0.023394     -0.973344      1.423861
  H       0.138984      1.761578      0.316128
  H      -1.082229      1.146089      1.479199
13
Coordinates from ORCA-job PC_anion_cpcm_10_moread E -381.694330254186
  C       1.574155     -0.327728      0.053852
  C       0.117653     -0.427111      0.484076
  C      -0.566132      0.951122      0.532042
  O      -1.541017      0.917402     -0.522894
  C      -1.668706     -0.372421     -1.010797
  O      -2.201023     -0.608561     -2.101411
  O      -0.640627     -1.150441     -0.509276
  H       2.152726      0.204093      0.818113
  H       1.658113      0.210129     -0.894972
  H       1.999137     -1.327334     -0.075659
  H       0.032612     -0.977997      1.431107
  H       0.154804      1.746838      0.311393
  H      -1.071694      1.162010      1.484426
13
Coordinates from ORCA-job PC_anion_cpcm_10_moread E -381.705367905801
  C       1.572422     -0.326441      0.055717
  C       0.117668     -0.432287      0.486781
  C      -0.566720      0.951571      0.533251
  O      -1.544404      0.934698     -0.517338
  C      -1.714865     -0.390957     -0.991666
  O      -2.186367     -0.599962     -2.149266
  O      -0.633979     -1.166167     -0.501605
  H       2.153024      0.211052      0.816132
  H       1.648312      0.211619     -0.894894
  H       2.007521     -1.322807     -0.072925
  H       0.040815     -0.980138      1.436169
  H       0.164786      1.736639      0.309101
  H      -1.058213      1.173180      1.490543
13
Coordinates from ORCA-job PC_anion_cpcm_10_moread E -381.711869336837
  C       1.570161     -0.329868      0.051012
  C       0.114747     -0.429816      0.480017
  C      -0.571798      0.951620      0.528858
  O      -1.542757      0.933936     -0.516830
  C      -1.775126     -0.419052     -0.949778
  O      -2.117945     -0.574063     -2.163281
  O      -0.631124     -1.165966     -0.499512
  H       2.153138      0.207697      0.808037
  H       1.644822      0.208052     -0.900125
  H       2.006041     -1.326047     -0.075648
  H       0.043638     -0.964928      1.437032
  H       0.159952      1.739292      0.308931
  H      -1.053751      1.169142      1.491287
13
Coordinates from ORCA-job PC_anion_cpcm_10_moread E -381.713168858362
  C       1.580264     -0.333926      0.054728
  C       0.119559     -0.425382      0.466781
  C      -0.573310      0.956372      0.519597
  O      -1.524993      0.950390     -0.539838
  C      -1.797389     -0.424149     -0.938630
  O      -2.160849     -0.590314     -2.149014
  O      -0.615952     -1.163145     -0.515404
  H       2.160552      0.195162      0.820818
  H       1.667908      0.211847     -0.891668
  H       2.013419     -1.331639     -0.074229
  H       0.042270     -0.949493      1.431633
  H       0.155438      1.755641      0.331608
  H      -1.066919      1.148635      1.483618
13
Coordinates from ORCA-job PC_anion_cpcm_10_moread E -381.714683671266
  C       1.599075     -0.339457      0.061877
  C       0.129707     -0.417283      0.441159
  C      -0.573398      0.963336      0.499147
  O      -1.473513      0.976402     -0.597520
  C      -1.815397     -0.420465     -0.916532
  O      -2.260507     -0.626047     -2.086025
  O      -0.586961     -1.148798     -0.553068
  H       2.170068      0.171452      0.847275
  H       1.715186      0.220548     -0.873703
  H       2.023764     -1.340097     -0.072067
  H       0.033755     -0.926574      1.414941
  H       0.144194      1.785565      0.380366
  H      -1.105972      1.101418      1.454151
13
Coordinates from ORCA-job PC_anion_cpcm_10_moread E -381.715302047076
  C       1.614815     -0.341401      0.069010
  C       0.139479     -0.413758      0.420518
  C      -0.571942      0.966857      0.478408
  O      -1.411042      0.997545     -0.660820
  C      -1.816509     -0.406477     -0.895427
  O      -2.361464     -0.655504     -2.001146
  O      -0.560729     -1.133438     -0.590584
  H       2.174321      0.154650      0.871705
  H       1.755555      0.230028     -0.856277
  H       2.033745     -1.343599     -0.069822
  H       0.023590     -0.917818      1.395884
  H       0.133331      1.805439      0.426931
  H      -1.153151      1.057475      1.411620
13
Coordinates from ORCA-job PC_anion_cpcm_10_moread E -381.715439895557
  C       1.610604     -0.339190      0.067066
  C       0.137884     -0.416614      0.428592
  C      -0.570700      0.965194      0.482505
  O      -1.414280      0.996515     -0.655667
  C      -1.808534     -0.403511     -0.902451
  O      -2.348574     -0.652726     -2.009353
  O      -0.566280     -1.136919     -0.581378
  H       2.172788      0.161165      0.864928
  H       1.744031      0.228704     -0.861108
  H       2.031267     -1.340718     -0.071387
  H       0.025080     -0.924864      1.400995
  H       0.139126      1.799166      0.423711
  H      -1.152412      1.063798      1.413548
13
Coordinates from ORCA-job PC_anion_cpcm_10_moread E -381.715482633312
  C       1.607790     -0.337068      0.065283
  C       0.137068     -0.419025      0.433846
  C      -0.569479      0.963652      0.484032
  O      -1.402583      0.997608     -0.662820
  C      -1.803002     -0.398699     -0.902498
  O      -2.346085     -0.652911     -2.005155
  O      -0.569364     -1.138979     -0.576155
  H       2.171826      0.165540      0.860255
  H       1.735680      0.229331     -0.864250
  H       2.030001     -1.337828     -0.074334
  H       0.026145     -0.929873      1.404102
  H       0.143981      1.794436      0.430161
  H      -1.161978      1.063815      1.407533
13
Coordinates from ORCA-job PC_anion_cpcm_10_moread E -381.715500127944
  C       1.605344     -0.335943      0.063044
  C       0.136310     -0.420324      0.438452
  C      -0.569047      0.962689      0.486155
  O      -1.392120      0.998611     -0.668694
  C      -1.799929     -0.395208     -0.902556
  O      -2.341111     -0.652855     -2.006059
  O      -0.573307     -1.142255     -0.569145
  H       2.172241      0.168480      0.854879
  H       1.727374      0.229422     -0.867809
  H       2.028794     -1.336074     -0.077957
  H       0.028811     -0.931312      1.408595
  H       0.147254      1.791129      0.437573
  H      -1.170614      1.063642      1.403523
13
Coordinates from ORCA-job PC_anion_cpcm_10_moread E -381.715521650241
  C       1.601453     -0.335224      0.058084
  C       0.135483     -0.421168      0.446337
  C      -0.569192      0.961488      0.490104
  O      -1.373524      1.000405     -0.678880
  C      -1.795288     -0.389284     -0.903233
  O      -2.329525     -0.652350     -2.010403
  O      -0.581327     -1.148679     -0.553958
  H       2.174715      0.171820      0.843730
  H       1.713141      0.228267     -0.875187
  H       2.025747     -1.334718     -0.085350
  H       0.035458     -0.929330      1.418435
  H       0.149719      1.787988      0.453595
  H      -1.186860      1.060785      1.396726
13
Coordinates from ORCA-job PC_anion_cpcm_10_moread E -381.715552775825
  C       1.594906     -0.335258      0.048627
  C       0.134607     -0.421123      0.459448
  C      -0.570221      0.959849      0.496967
  O      -1.343927      1.002954     -0.693632
  C      -1.787396     -0.379861     -0.906058
  O      -2.305683     -0.650647     -2.021021
  O      -0.595853     -1.159316     -0.525315
  H       2.179991      0.175933      0.822913
  H       1.689760      0.224339     -0.888910
  H       2.018743     -1.334463     -0.098106
  H       0.048560     -0.921544      1.436625
  H       0.149755      1.785691      0.482208
  H      -1.213244      1.053444      1.386253
13
Coordinates from ORCA-job PC_anion_cpcm_10_moread E -381.715609932437
  C       1.580638     -0.336688      0.028192
  C       0.133153     -0.419126      0.485367
  C      -0.573036      0.957088      0.511396
  O      -1.287197      1.006712     -0.717363
  C      -1.769911     -0.362177     -0.914183
  O      -2.249536     -0.647081     -2.045971
  O      -0.626574     -1.177944     -0.464185
  H       2.190355      0.182355      0.778095
  H       1.642753      0.213840     -0.917586
  H       2.000816     -1.336540     -0.123826
  H       0.076980     -0.901486      1.473434
  H       0.144089      1.784402      0.540146
  H      -1.262531      1.036645      1.366484
13
Coordinates from ORCA-job PC_anion_cpcm_10_moread E -381.715662962048
  C       1.569093     -0.338866      0.012376
  C       0.131877     -0.416113      0.503446
  C      -0.575451      0.955720      0.522691
  O      -1.253956      1.008736     -0.726722
  C      -1.756791     -0.351859     -0.923281
  O      -2.198543     -0.644210     -2.069813
  O      -0.650268     -1.188611     -0.417266
  H       2.197008      0.186002      0.743098
  H       1.608985      0.203303     -0.939527
  H       1.984409     -1.340344     -0.141138
  H       0.098724     -0.883743      1.499608
  H       0.136060      1.786224      0.579382
  H      -1.291148      1.023762      1.357146
13
Coordinates from ORCA-job PC_anion_cpcm_10_moread E -381.715753131383
  C       1.564607     -0.342073      0.004711
  C       0.131346     -0.412623      0.508733
  C      -0.577229      0.956046      0.527462
  O      -1.260429      1.010249     -0.718041
  C      -1.754953     -0.352510     -0.934074
  O      -2.163268     -0.638809     -2.092548
  O      -0.661435     -1.191762     -0.394001
  H       2.200045      0.187112      0.725731
  H       1.600113      0.191897     -0.952025
  H       1.974625     -1.346433     -0.142468
  H       0.109436     -0.869238      1.510840
  H       0.126420      1.793258      0.589234
  H      -1.289278      1.014884      1.366446
13
Coordinates from ORCA-job PC_anion_cpcm_10_moread E -381.715777700682
  C       1.563024     -0.342537      0.001007
  C       0.131945     -0.412531      0.511845
  C      -0.577887      0.955279      0.528612
  O      -1.250201      1.011915     -0.721237
  C      -1.751907     -0.349126     -0.937278
  O      -2.157147     -0.635640     -2.094001
  O      -0.665851     -1.193857     -0.383300
  H       2.200869      0.190523      0.716965
  H       1.596030      0.186099     -0.958624
  H       1.972129     -1.347969     -0.142078
  H       0.114890     -0.865239      1.515497
  H       0.121305      1.795152      0.600352
  H      -1.297201      1.007932      1.362240
13
Coordinates from ORCA-job PC_anion_cpcm_10_moread E -381.715785030962
  C       1.562865     -0.341705      0.001411
  C       0.131649     -0.413952      0.511775
  C      -0.577644      0.954706      0.528383
  O      -1.251244      1.011747     -0.719884
  C      -1.752770     -0.349453     -0.938116
  O      -2.158320     -0.633221     -2.093933
  O      -0.665335     -1.194715     -0.384069
  H       2.198849      0.194195      0.716865
  H       1.596315      0.184431     -0.959430
  H       1.973772     -1.346944     -0.138744
  H       0.114456     -0.868257      1.514405
  H       0.123005      1.793541      0.598182
  H      -1.295598      1.009627      1.363155
13
Coordinates from ORCA-job PC_anion_cpcm_10_moread E -381.715788110397
  C       1.559923     -0.341158     -0.001263
  C       0.130766     -0.414734      0.515426
  C      -0.577820      0.954021      0.530809
  O      -1.244523      1.011682     -0.720898
  C      -1.750519     -0.347789     -0.940215
  O      -2.148735     -0.631547     -2.098088
  O      -0.669707     -1.197367     -0.375734
  H       2.197790      0.197999      0.710083
  H       1.588470      0.181896     -0.963873
  H       1.972025     -1.346142     -0.140194
  H       0.118190     -0.868321      1.518244
  H       0.124262      1.791389      0.603943
  H      -1.300122      1.010071      1.361760
13
Coordinates from ORCA-job PC_anion_cpcm_10_moread E -381.715788767333
  C       1.560220     -0.340968     -0.000590
  C       0.130574     -0.415018      0.514882
  C      -0.577728      0.954029      0.530597
  O      -1.246083      1.011397     -0.720378
  C      -1.751398     -0.348330     -0.940137
  O      -2.150223     -0.631422     -2.098127
  O      -0.669028     -1.197637     -0.377169
  H       2.197329      0.198184      0.711454
  H       1.589043      0.182538     -0.962975
  H       1.973010     -1.345625     -0.139696
  H       0.117435     -0.869230      1.517502
  H       0.125478      1.790653      0.602036
  H      -1.298629      1.011430      1.362599
13
Coordinates from ORCA-job PC_anion_cpcm_10_moread E -381.715788967244
  C       1.560190     -0.341011     -0.000573
  C       0.130497     -0.414989      0.514923
  C      -0.577765      0.954020      0.530667
  O      -1.246065      1.011247     -0.720494
  C      -1.751528     -0.348297     -0.940176
  O      -2.149950     -0.631384     -2.098371
  O      -0.669109     -1.197908     -0.376880
  H       2.197364      0.197976      0.711533
  H       1.588661      0.182838     -0.962814
  H       1.973116     -1.345525     -0.140109
  H       0.117513     -0.869021      1.517690
  H       0.125710      1.790432      0.601984
  H      -1.298634      1.011625      1.362619
