25
Coordinates from ORCA-job DMC_m1_shell2_cation_opt E -694.510883787702
  C          -2.03809369884910     -0.40488218252294      1.14155103706027
  O          -0.79434694848117     -1.03927719679806      0.75112049976646
  C           0.06415887632611     -0.31039910908013      0.07475102328123
  O          -0.10808618243151      0.86901884943239     -0.25352468579394
  O           1.13266857926701     -1.02124539158538     -0.20078858889975
  C           2.19073717055919     -0.36502308617307     -0.94581695912932
  H          -2.58601030645658     -1.17501027163860      1.68150502258472
  H          -2.59544182288628     -0.09214159496615      0.25485970598263
  H          -1.83613726377446      0.44756873704221      1.79517555227808
  H           2.56713350957530      0.49429760074089     -0.38550186955671
  H           1.82274136543761     -0.05771100050586     -1.92782910591154
  H           2.96680887274664     -1.12105332438212     -1.04999166742238
  Li         -0.43893825729020      2.57352984090503     -0.68149934822600
  C          -1.79495349500051      4.80901548894224     -3.54349683084730
  O          -1.58806750435439      5.82935680469911     -2.53423276373275
  C          -1.11115552214705      5.43849653546612     -1.37474359818896
  O          -0.83034134161975      4.27137076918061     -1.07869016604612
  O          -0.97672597125460      6.47225493365991     -0.57658588424503
  C          -0.45851818802474      6.21872245516006      0.75417543577682
  H          -2.18489655646593      5.34620277010108     -4.40618884943711
  H          -2.52334147625727      4.07400763881002     -3.19172218123080
  H          -0.84548568468848      4.32798944156834     -3.79178647905192
  H           0.54445596507288      5.78924007091733      0.69176594112770
  H          -1.13299832234303      5.55338513950234      1.29896919265983
  H          -0.42392442205969      7.19711099682443      1.22993031640185
