25
Coordinates from ORCA-job DMC_m1_shell2_cation_opt E -694.506558335850
  C      -2.254416     -0.472755      0.252431
  O      -0.932959     -1.003177      0.308005
  C       0.069778     -0.216894      0.022508
  O      -0.042808      0.963820     -0.294048
  O       1.203876     -0.853302      0.119698
  C       2.411675     -0.146519     -0.155865
  H      -2.905392     -1.297537      0.531398
  H      -2.490346     -0.130358     -0.757966
  H      -2.368983      0.354018      0.957532
  H       2.536832      0.687570      0.537407
  H       2.415802      0.225028     -1.182448
  H       3.206861     -0.874606     -0.016056
  Li     -0.336061      2.585444     -0.720897
  C      -2.564873      4.680595     -3.050027
  O      -1.968896      5.695818     -2.246415
  C      -1.122194      5.344282     -1.317780
  O      -0.795487      4.185785     -1.076354
  O      -0.670740      6.388412     -0.678833
  C       0.273228      6.192984      0.371549
  H      -3.216500      5.209267     -3.741278
  H      -3.147181      3.992443     -2.433247
  H      -1.801773      4.125616     -3.599799
  H       1.188594      5.738214     -0.013136
  H      -0.148095      5.562844      1.157832
  H       0.481302      7.187831      0.757196
25
Coordinates from ORCA-job DMC_m1_shell2_cation_opt E -694.508605123719
  C      -2.260494     -0.492084      0.271000
  O      -0.927931     -1.029940      0.320737
  C       0.070925     -0.233678      0.027684
  O      -0.043917      0.955258     -0.291103
  O       1.206945     -0.876638      0.120296
  C       2.419304     -0.156093     -0.167331
  H      -2.913139     -1.316846      0.552007
  H      -2.500208     -0.150195     -0.740468
  H      -2.370279      0.333492      0.980768
  H       2.544149      0.679289      0.527759
  H       2.412906      0.212907     -1.196994
  H       3.221133     -0.879953     -0.032577
  Li     -0.338082      2.585483     -0.719611
  C      -2.559912      4.691854     -3.068293
  O      -1.966837      5.721393     -2.257491
  C      -1.124605      5.361604     -1.321487
  O      -0.797007      4.194761     -1.077242
  O      -0.677322      6.413867     -0.683150
  C       0.268508      6.210407      0.381586
  H      -3.208944      5.216283     -3.767489
  H      -3.147307      4.005956     -2.450648
  H      -1.789345      4.137612     -3.612276
  H       1.184757      5.750824     -0.000887
  H      -0.163744      5.584097      1.167605
  H       0.481688      7.205165      0.769008
25
Coordinates from ORCA-job DMC_m1_shell2_cation_opt E -694.509632782299
  C      -2.259447     -0.496781      0.307481
  O      -0.921762     -1.053682      0.343467
  C       0.071793     -0.252741      0.032350
  O      -0.045542      0.939682     -0.288517
  O       1.208893     -0.901908      0.114275
  C       2.418604     -0.163494     -0.197380
  H      -2.914971     -1.316512      0.597371
  H      -2.502938     -0.158239     -0.703781
  H      -2.348077      0.327928      1.020582
  H       2.541603      0.672655      0.496771
  H       2.388119      0.196749     -1.229455
  H       3.227412     -0.881402     -0.071227
  Li     -0.340638      2.584851     -0.720440
  C      -2.535782      4.698532     -3.093206
  O      -1.957012      5.747388     -2.275851
  C      -1.122831      5.380867     -1.330832
  O      -0.797224      4.209891     -1.082841
  O      -0.689973      6.438115     -0.684288
  C       0.245439      6.215981      0.401497
  H      -3.180636      5.216066     -3.801693
  H      -3.124764      4.016102     -2.473855
  H      -1.750405      4.153162     -3.624252
  H       1.161957      5.753776      0.023661
  H      -0.209766      5.590180      1.174430
  H       0.459188      7.207660      0.797138
25
Coordinates from ORCA-job DMC_m1_shell2_cation_opt E -694.510060933896
  C      -2.255305     -0.501573      0.352537
  O      -0.915977     -1.068778      0.367963
  C       0.072317     -0.266046      0.040626
  O      -0.049999      0.925341     -0.280002
  O       1.210818     -0.917994      0.100652
  C       2.414156     -0.170929     -0.238276
  H      -2.908113     -1.320373      0.650550
  H      -2.507394     -0.162666     -0.655702
  H      -2.323883      0.319667      1.070727
  H       2.543587      0.663793      0.455270
  H       2.356246      0.184098     -1.270224
  H       3.226023     -0.887601     -0.127013
  Li     -0.349832      2.584511     -0.713617
  C      -2.499761      4.705574     -3.124756
  O      -1.943263      5.763568     -2.294473
  C      -1.131447      5.394331     -1.329453
  O      -0.806804      4.224173     -1.079259
  O      -0.704637      6.453584     -0.679699
  C       0.216626      6.221210      0.422835
  H      -3.128125      5.221781     -3.848627
  H      -3.100761      4.027317     -2.513687
  H      -1.696701      4.165989     -3.633239
  H       1.131117      5.750023      0.053467
  H      -0.261101      5.603304      1.187473
  H       0.433453      7.212519      0.817330
25
Coordinates from ORCA-job DMC_m1_shell2_cation_opt E -694.510390391198
  C      -2.243599     -0.494886      0.437715
  O      -0.907878     -1.077410      0.411637
  C       0.073975     -0.284861      0.041341
  O      -0.050826      0.903040     -0.281801
  O       1.211300     -0.942226      0.075768
  C       2.407892     -0.199463     -0.306209
  H      -2.890220     -1.307261      0.764451
  H      -2.522090     -0.163856     -0.565343
  H      -2.273786      0.329949      1.153257
  H       2.553846      0.640380      0.376489
  H       2.317253      0.139578     -1.340366
  H       3.218084     -0.919483     -0.207672
  Li     -0.350366      2.582772     -0.720468
  C      -2.442893      4.722145     -3.177753
  O      -1.914089      5.783168     -2.328273
  C      -1.116946      5.412978     -1.350603
  O      -0.799467      4.244741     -1.094416
  O      -0.729973      6.468877     -0.670064
  C       0.149597      6.227105      0.467760
  H      -3.062000      5.240215     -3.907836
  H      -3.047086      4.036723     -2.579353
  H      -1.620560      4.200519     -3.672261
  H       1.078152      5.765526      0.124712
  H      -0.360123      5.600036      1.202572
  H       0.343045      7.216515      0.878121
25
Coordinates from ORCA-job DMC_m1_shell2_cation_opt E -694.510627494013
  C      -2.230165     -0.505094      0.518476
  O      -0.897379     -1.086334      0.450715
  C       0.075042     -0.296380      0.053149
  O      -0.058064      0.888625     -0.269237
  O       1.210545     -0.956630      0.046530
  C       2.395942     -0.222110     -0.376538
  H      -2.865256     -1.319570      0.861583
  H      -2.537564     -0.170791     -0.474807
  H      -2.237773      0.316933      1.237627
  H       2.568619      0.617693      0.299595
  H       2.271466      0.115046     -1.407608
  H       3.204008     -0.947313     -0.303630
  Li     -0.365807      2.582227     -0.708365
  C      -2.377352      4.740894     -3.231391
  O      -1.886149      5.795542     -2.355113
  C      -1.132636      5.424318     -1.344580
  O      -0.815602      4.258847     -1.085377
  O      -0.756547      6.479677     -0.658252
  C       0.092767      6.241454      0.500687
  H      -2.963480      5.264609     -3.984057
  H      -3.007079      4.053343     -2.662755
  H      -1.534063      4.222111     -3.692006
  H       1.025430      5.770367      0.183364
  H      -0.440260      5.624116      1.226915
  H       0.282598      7.233247      0.906479
25
Coordinates from ORCA-job DMC_m1_shell2_cation_opt E -694.510765785629
  C      -2.214507     -0.503376      0.593953
  O      -0.888515     -1.085328      0.486466
  C       0.075478     -0.303600      0.055857
  O      -0.061322      0.880457     -0.267917
  O       1.206547     -0.968689      0.019134
  C       2.383273     -0.248819     -0.439130
  H      -2.840983     -1.314529      0.960099
  H      -2.554929     -0.170352     -0.389312
  H      -2.200645      0.322574      1.309046
  H       2.583480      0.594606      0.225343
  H       2.235652      0.085697     -1.468383
  H       3.188203     -0.979209     -0.385017
  Li     -0.370682      2.581310     -0.707535
  C      -2.319123      4.757555     -3.276300
  O      -1.857002      5.802936     -2.379434
  C      -1.130514      5.431222     -1.350609
  O      -0.816097      4.266077     -1.087426
  O      -0.781868      6.483609     -0.646956
  C       0.031712      6.250228      0.533893
  H      -2.885755      5.284654     -4.041481
  H      -2.962519      4.060889     -2.733947
  H      -1.463071      4.242856     -3.718480
  H       0.978111      5.786247      0.246999
  H      -0.515881      5.626012      1.243743
  H       0.202199      7.241800      0.948798
25
Coordinates from ORCA-job DMC_m1_shell2_cation_opt E -694.510825891315
  C      -2.191642     -0.493888      0.689998
  O      -0.876297     -1.081462      0.533015
  C       0.075285     -0.309933      0.059623
  O      -0.065809      0.873940     -0.266298
  O       1.198878     -0.983266     -0.017175
  C       2.361891     -0.279303     -0.523064
  H      -2.808932     -1.297949      1.086536
  H      -2.573305     -0.163038     -0.279257
  H      -2.148966      0.338021      1.397670
  H       2.598431      0.567340      0.125940
  H       2.181265      0.053958     -1.547933
  H       3.163377     -1.015205     -0.497166
  Li     -0.376210      2.580565     -0.706023
  C      -2.239154      4.772775     -3.329911
  O      -1.816180      5.810832     -2.410456
  C      -1.126207      5.437875     -1.357854
  O      -0.815108      4.272203     -1.088984
  O      -0.815768      6.487233     -0.632908
  C      -0.050022      6.256168      0.576426
  H      -2.779128      5.300535     -4.113870
  H      -2.899759      4.066841     -2.820331
  H      -1.367063      4.261136     -3.744609
  H       0.913689      5.803802      0.329624
  H      -0.615420      5.619947      1.261897
  H       0.093396      7.245699      1.006515
25
Coordinates from ORCA-job DMC_m1_shell2_cation_opt E -694.510833327035
  C      -2.184994     -0.489440      0.716716
  O      -0.872485     -1.079848      0.547134
  C       0.074636     -0.310777      0.060558
  O      -0.068128      0.873126     -0.265737
  O       1.196298     -0.986328     -0.027474
  C       2.354245     -0.284797     -0.548157
  H      -2.799878     -1.290435      1.123207
  H      -2.577708     -0.161209     -0.249104
  H      -2.133959      0.345348      1.420528
  H       2.600961      0.562228      0.096704
  H       2.162238      0.048607     -1.570982
  H       3.155300     -1.021506     -0.531984
  Li     -0.379078      2.580341     -0.704882
  C      -2.214631      4.774477     -3.343987
  O      -1.802934      5.812692     -2.419618
  C      -1.125078      5.438918     -1.359204
  O      -0.815306      4.272956     -1.088537
  O      -0.825253      6.487827     -0.628891
  C      -0.072930      6.255505      0.588640
  H      -2.745481      5.301163     -4.134925
  H      -2.881103      4.068014     -2.842724
  H      -1.338073      4.262168     -3.748525
  H       0.895385      5.807207      0.352363
  H      -0.643188      5.614813      1.265964
  H       0.062386      7.243775      1.024320
25
Coordinates from ORCA-job DMC_m1_shell2_cation_opt E -694.510838934009
  C      -2.173365     -0.480986      0.762282
  O      -0.865551     -1.076100      0.572057
  C       0.074068     -0.310482      0.065158
  O      -0.071889      0.872981     -0.262024
  O       1.191338     -0.990678     -0.045343
  C       2.339556     -0.293490     -0.593337
  H      -2.783778     -1.277623      1.183910
  H      -2.583126     -0.156389     -0.197724
  H      -2.108306      0.357506      1.460558
  H       2.605720      0.552427      0.045336
  H       2.125120      0.041710     -1.611142
  H       3.138312     -1.032904     -0.596949
  Li     -0.384192      2.580419     -0.700904
  C      -2.170582      4.775356     -3.367583
  O      -1.778862      5.814608     -2.435346
  C      -1.122394      5.440018     -1.361350
  O      -0.815296      4.274051     -1.086734
  O      -0.841823      6.488448     -0.622296
  C      -0.113179      6.254301      0.609580
  H      -2.685616      5.300265     -4.170108
  H      -2.846610      4.068383     -2.879960
  H      -1.285988      4.262790     -3.754040
  H       0.863009      5.813947      0.391279
  H      -0.691974      5.605631      1.271931
  H       0.006648      7.240637      1.054152
25
Coordinates from ORCA-job DMC_m1_shell2_cation_opt E -694.510842227645
  C      -2.161873     -0.473200      0.804623
  O      -0.858882     -1.072323      0.593685
  C       0.072320     -0.310903      0.064976
  O      -0.076672      0.872118     -0.262088
  O       1.186504     -0.993671     -0.061914
  C       2.326010     -0.300120     -0.632638
  H      -2.766064     -1.265801      1.242520
  H      -2.588838     -0.153842     -0.149625
  H      -2.082394      0.369543      1.496225
  H       2.606676      0.545907     -0.000332
  H       2.093210      0.034394     -1.646610
  H       3.122717     -1.041537     -0.650474
  Li     -0.390475      2.579673     -0.699065
  C      -2.130462      4.777832     -3.389285
  O      -1.757532      5.816428     -2.448378
  C      -1.121694      5.440023     -1.362360
  O      -0.817047      4.274070     -1.085313
  O      -0.856884      6.487355     -0.615759
  C      -0.148913      6.251006      0.627982
  H      -2.630652      5.303065     -4.200929
  H      -2.814966      4.069735     -2.915328
  H      -1.238333      4.266425     -3.759606
  H       0.833240      5.816776      0.424740
  H      -0.735706      5.596135      1.277007
  H      -0.042051      7.235739      1.079349
25
Coordinates from ORCA-job DMC_m1_shell2_cation_opt E -694.510847376170
  C      -2.149446     -0.464958      0.848090
  O      -0.851683     -1.067638      0.615905
  C       0.071394     -0.309990      0.067765
  O      -0.080818      0.872331     -0.259603
  O       1.180872     -0.996447     -0.079275
  C       2.310843     -0.308065     -0.674662
  H      -2.747062     -1.254671      1.299967
  H      -2.592744     -0.148634     -0.099679
  H      -2.055562      0.380291      1.534761
  H       2.608614      0.536848     -0.048725
  H       2.057772      0.026974     -1.683554
  H       3.103626     -1.053079     -0.709059
  Li     -0.396494      2.579373     -0.695548
  C      -2.087778      4.779566     -3.411151
  O      -1.735047      5.817126     -2.461329
  C      -1.119884      5.439730     -1.363680
  O      -0.818047      4.274050     -1.083272
  O      -0.872825      6.485991     -0.609537
  C      -0.187283      6.248767      0.646651
  H      -2.574079      5.305464     -4.230750
  H      -2.779180      4.068938     -2.951255
  H      -1.187537      4.271409     -3.765930
  H       0.801034      5.821196      0.459969
  H      -0.782470      5.587880      1.281705
  H      -0.094974      7.232374      1.103601
25
Coordinates from ORCA-job DMC_m1_shell2_cation_opt E -694.510839660196
  C      -1.965378     -0.358688      1.281996
  O      -0.754026     -1.012935      0.828435
  C       0.066411     -0.305937      0.084199
  O      -0.110857      0.870919     -0.246949
  O       1.101570     -1.038507     -0.255678
  C       2.110847     -0.414002     -1.089620
  H      -2.484182     -1.111861      1.872237
  H      -2.574478     -0.061372      0.424515
  H      -1.716534      0.506167      1.902143
  H       2.567884      0.425632     -0.559973
  H       1.668226     -0.084525     -2.032691
  H       2.846275     -1.196499     -1.267035
  Li     -0.440763      2.575876     -0.675113
  C      -1.629292      4.817655     -3.591623
  O      -1.505705      5.833331     -2.564248
  C      -1.109288      5.438132     -1.375422
  O      -0.829816      4.273793     -1.070887
  O      -1.056167      6.465587     -0.559710
  C      -0.617907      6.210137      0.799549
  H      -1.969267      5.355886     -4.474474
  H      -2.368128      4.070028     -3.292460
  H      -0.658142      4.353090     -3.779994
  H       0.409612      5.838078      0.796194
  H      -1.289038      5.496697      1.283721
  H      -0.670614      7.178146      1.294294
25
Coordinates from ORCA-job DMC_m1_shell2_cation_opt E -694.510853639978
  C      -2.135965     -0.456150      0.892661
  O      -0.844456     -1.062430      0.636672
  C       0.070374     -0.308908      0.069734
  O      -0.084965      0.872775     -0.257876
  O       1.174607     -0.998789     -0.097182
  C       2.295210     -0.316299     -0.716202
  H      -2.726252     -1.244056      1.357059
  H      -2.595922     -0.140306     -0.047241
  H      -2.026045      0.389707      1.576141
  H       2.608422      0.528226     -0.097388
  H       2.023280      0.017647     -1.720496
  H       3.083655     -1.065110     -0.764577
  Li     -0.402702      2.578771     -0.692625
  C      -2.044671      4.782464     -3.433522
  O      -1.713568      5.817197     -2.473105
  C      -1.118400      5.438689     -1.365106
  O      -0.819410      4.273173     -1.081704
  O      -0.888535      6.483257     -0.603591
  C      -0.226432      6.245397      0.664887
  H      -2.519433      5.310501     -4.258482
  H      -2.740220      4.066311     -2.988782
  H      -1.135411      4.281376     -3.775032
  H       0.766505      5.821420      0.495569
  H      -0.832089      5.581396      1.286581
  H      -0.146333      7.228566      1.125011
25
Coordinates from ORCA-job DMC_m1_shell2_cation_opt E -694.510858387580
  C      -2.120712     -0.446481      0.937808
  O      -0.836382     -1.057702      0.658318
  C       0.069496     -0.308820      0.071256
  O      -0.088615      0.872413     -0.256669
  O       1.167959     -1.002755     -0.115504
  C       2.278207     -0.325915     -0.758878
  H      -2.704165     -1.231087      1.416206
  H      -2.598028     -0.132034      0.006138
  H      -1.994557      0.401103      1.616314
  H       2.607043      0.518861     -0.148565
  H       1.987149      0.006658     -1.758248
  H       3.062719     -1.077798     -0.821438
  Li     -0.407966      2.578266     -0.690341
  C      -1.999906      4.785665     -3.454922
  O      -1.691221      5.818550     -2.485108
  C      -1.117157      5.438660     -1.366514
  O      -0.820604      4.273183     -1.080359
  O      -0.905558      6.481683     -0.597684
  C      -0.267943      6.242247      0.683030
  H      -2.461100      5.314569     -4.286992
  H      -2.700804      4.065227     -3.025801
  H      -1.082232      4.289518     -3.780795
  H       0.729561      5.822087      0.532102
  H      -0.883585      5.574394      1.290606
  H      -0.200360      7.224334      1.147444
25
Coordinates from ORCA-job DMC_m1_shell2_cation_opt E -694.510866085355
  C      -2.098130     -0.432339      0.998829
  O      -0.824739     -1.051009      0.687407
  C       0.068473     -0.308933      0.072935
  O      -0.092953      0.871687     -0.255495
  O       1.158231     -1.008873     -0.140450
  C       2.253804     -0.340098     -0.816533
  H      -2.672071     -1.211987      1.496440
  H      -2.598988     -0.119676      0.079000
  H      -1.949480      0.417618      1.669755
  H       2.603461      0.505156     -0.218582
  H       1.937207     -0.009665     -1.808815
  H       3.032505     -1.096238     -0.897694
  Li     -0.414126      2.577586     -0.687848
  C      -1.938462      4.790614     -3.482681
  O      -1.660884      5.820700     -2.500586
  C      -1.115704      5.438681     -1.368332
  O      -0.822075      4.273321     -1.078789
  O      -0.929508      6.479430     -0.589956
  C      -0.325801      6.237554      0.706660
  H      -2.380546      5.320894     -4.324199
  H      -2.646432      4.064439     -3.075387
  H      -1.009813      4.300998     -3.786613
  H       0.677358      5.822531      0.581144
  H      -0.954639      5.564413      1.294551
  H      -0.275447      7.218021      1.176643
25
Coordinates from ORCA-job DMC_m1_shell2_cation_opt E -694.510875328781
  C      -2.064329     -0.412123      1.081063
  O      -0.807600     -1.041523      0.726395
  C       0.067224     -0.309125      0.074951
  O      -0.098401      0.870671     -0.254206
  O       1.143703     -1.017700     -0.174344
  C       2.217924     -0.360198     -0.894270
  H      -2.624556     -1.184699      1.604642
  H      -2.596921     -0.101546      0.178530
  H      -1.884900      0.440845      1.740525
  H       2.595253      0.485630     -0.314236
  H       1.866971     -0.032697     -1.875904
  H       2.987884     -1.122218     -1.000150
  Li     -0.421774      2.576670     -0.684948
  C      -1.853620      4.798179     -3.517896
  O      -1.619110      5.824006     -2.520276
  C      -1.113868      5.438657     -1.370725
  O      -0.824043      4.273449     -1.076919
  O      -0.962878      6.475976     -0.580282
  C      -0.406383      6.230206      0.736583
  H      -2.268610      5.330704     -4.371713
  H      -2.570750      4.064556     -3.141098
  H      -0.911041      4.317011     -3.790876
  H       0.603287      5.821878      0.646224
  H      -1.052559      5.549964      1.296836
  H      -0.379659      7.208250      1.213498
25
Coordinates from ORCA-job DMC_m1_shell2_cation_opt E -694.510838010829
  C      -1.929285     -0.340091      1.342287
  O      -0.741347     -1.008244      0.848321
  C       0.063445     -0.309896      0.079774
  O      -0.114794      0.867423     -0.251809
  O       1.085620     -1.048984     -0.283445
  C       2.078942     -0.429791     -1.140542
  H      -2.438045     -1.088104      1.947646
  H      -2.562322     -0.032098      0.506222
  H      -1.648754      0.519777      1.955903
  H       2.539461      0.418200     -0.627761
  H       1.619469     -0.113256     -2.080076
  H       2.815256     -1.210810     -1.321138
  Li     -0.444692      2.573347     -0.678232
  C      -1.567146      4.830478     -3.612006
  O      -1.478860      5.838268     -2.573313
  C      -1.108852      5.438104     -1.378274
  O      -0.831505      4.272749     -1.073096
  O      -1.076309      6.461019     -0.556054
  C      -0.682079      6.196989      0.814728
  H      -1.888091      5.373447     -4.499180
  H      -2.307291      4.073526     -3.340436
  H      -0.587307      4.375624     -3.777996
  H       0.337533      5.804598      0.842748
  H      -1.381370      5.496857      1.278417
  H      -0.730437      7.165693      1.308719
25
Coordinates from ORCA-job DMC_m1_shell2_cation_opt E -694.510879441967
  C      -2.046545     -0.401697      1.120582
  O      -0.799364     -1.037215      0.743608
  C       0.066364     -0.309660      0.074910
  O      -0.100952      0.869916     -0.254584
  O       1.135978     -1.022454     -0.191255
  C       2.199966     -0.369806     -0.930657
  H      -2.600171     -1.170811      1.656137
  H      -2.594712     -0.090316      0.227707
  H      -1.850893      0.451681      1.774888
  H       2.587226      0.478126     -0.360358
  H       1.834295     -0.046249     -1.908235
  H       2.967155     -1.133396     -1.045029
  Li     -0.425174      2.575955     -0.684459
  C      -1.813012      4.802853     -3.534013
  O      -1.599732      5.825948     -2.528880
  C      -1.113054      5.438571     -1.372116
  O      -0.825007      4.273224     -1.076711
  O      -0.977954      6.473914     -0.576247
  C      -0.445730      6.225202      0.750023
  H      -2.214927      5.336884     -4.393145
  H      -2.533960      4.065162     -3.172722
  H      -0.863989      4.326099     -3.792051
  H       0.564753      5.815279      0.677733
  H      -1.103196      5.545184      1.297312
  H      -0.426125      7.202435      1.228964
25
Coordinates from ORCA-job DMC_m1_shell2_cation_opt E -694.510880637461
  C      -2.040123     -0.398189      1.134400
  O      -0.796456     -1.035837      0.749348
  C       0.065955     -0.309869      0.074715
  O      -0.102059      0.869651     -0.254839
  O       1.133181     -1.024002     -0.197329
  C       2.193579     -0.372731     -0.943169
  H      -2.591360     -1.166194      1.673996
  H      -2.593786     -0.086235      0.245130
  H      -1.838662      0.455133      1.787019
  H       2.583207      0.476598     -0.376598
  H       1.823181     -0.051478     -1.919736
  H       2.960422     -1.136377     -1.059480
  Li     -0.426760      2.575608     -0.684311
  C      -1.798930      4.804676     -3.539526
  O      -1.592925      5.826716     -2.531809
  C      -1.112675      5.438502     -1.372690
  O      -0.825477      4.273021     -1.076767
  O      -0.982719      6.473095     -0.574989
  C      -0.459336      6.223034      0.754521
  H      -2.196020      5.339369     -4.400498
  H      -2.521397      4.065763     -3.183788
  H      -0.847829      4.329187     -3.792206
  H       0.550763      5.811082      0.688732
  H      -1.121678      5.544202      1.297416
  H      -0.440853      7.200098      1.233863
25
Coordinates from ORCA-job DMC_m1_shell2_cation_opt E -694.510882048300
  C      -2.033329     -0.395285      1.148955
  O      -0.793562     -1.034997      0.754565
  C       0.065179     -0.310272      0.074050
  O      -0.103925      0.869246     -0.255383
  O       1.130204     -1.025306     -0.204100
  C       2.187056     -0.374482     -0.955554
  H      -2.581934     -1.162492      1.692347
  H      -2.592989     -0.081885      0.263967
  H      -1.825430      0.457408      1.800378
  H       2.575843      0.478372     -0.393769
  H       1.813069     -0.058509     -1.932492
  H       2.955544     -1.136645     -1.070709
  Li     -0.429775      2.574901     -0.684157
  C      -1.784859      4.807209     -3.545404
  O      -1.585976      5.827800     -2.534793
  C      -1.112075      5.438357     -1.373584
  O      -0.826482      4.272477     -1.077253
  O      -0.986082      6.472047     -0.574052
  C      -0.472659      6.219851      0.758886
  H      -2.176342      5.343009     -4.408263
  H      -2.509485      4.067429     -3.195871
  H      -0.831916      4.332380     -3.792324
  H       0.535238      5.801469      0.700351
  H      -1.142853      5.545615      1.297922
  H      -0.451220      7.197127      1.237691
25
Coordinates from ORCA-job DMC_m1_shell2_cation_opt E -694.510882530309
  C      -2.033891     -0.396681      1.148118
  O      -0.793774     -1.035759      0.753730
  C       0.064910     -0.310380      0.073869
  O      -0.104683      0.869165     -0.255354
  O       1.130473     -1.024737     -0.203949
  C       2.187635     -0.372852     -0.954104
  H      -2.582428     -1.164384      1.690883
  H      -2.593401     -0.082884      0.263176
  H      -1.826465      0.455689      1.800125
  H       2.573321      0.481833     -0.392989
  H       1.815077     -0.059391     -1.932413
  H       2.958016     -1.133542     -1.066296
  Li     -0.431353      2.574599     -0.683904
  C      -1.786384      4.807672     -3.545230
  O      -1.586422      5.828088     -2.534661
  C      -1.111899      5.438347     -1.373837
  O      -0.827125      4.272207     -1.077610
  O      -0.984282      6.472003     -0.574489
  C      -0.470604      6.219336      0.758237
  H      -2.177500      5.343775     -4.408070
  H      -2.511657      4.068565     -3.195610
  H      -0.833944      4.331884     -3.792264
  H       0.535847      5.797535      0.699478
  H      -1.142646      5.547796      1.298367
  H      -0.445577      7.196940      1.236203
25
Coordinates from ORCA-job DMC_m1_shell2_cation_opt E -694.510883207391
  C      -2.036358     -0.400673      1.143881
  O      -0.794423     -1.037566      0.751687
  C       0.064546     -0.310441      0.074056
  O      -0.106153      0.869087     -0.254713
  O       1.131682     -1.023074     -0.202162
  C       2.189756     -0.368947     -0.949073
  H      -2.584918     -1.169614      1.684869
  H      -2.594460     -0.087027      0.257992
  H      -1.831684      0.451522      1.796993
  H       2.570011      0.488417     -0.388356
  H       1.820214     -0.059063     -1.929683
  H       2.963338     -1.127097     -1.056308
  Li     -0.434664      2.574099     -0.682972
  C      -1.791748      4.808215     -3.543930
  O      -1.588075      5.828609     -2.534087
  C      -1.111614      5.438419     -1.374217
  O      -0.828552      4.271803     -1.078177
  O      -0.980149      6.472171     -0.575584
  C      -0.463800      6.219086      0.755995
  H      -2.182775      5.344779     -4.406522
  H      -2.518285      4.070995     -3.192950
  H      -0.840817      4.329974     -3.792025
  H       0.540581      5.792673      0.695172
  H      -1.137338      5.551284      1.298924
  H      -0.433073      7.197193      1.232596
25
Coordinates from ORCA-job DMC_m1_shell2_cation_opt E -694.510883787702
  C      -2.038094     -0.404882      1.141551
  O      -0.794347     -1.039277      0.751120
  C       0.064159     -0.310399      0.074751
  O      -0.108086      0.869019     -0.253525
  O       1.132669     -1.021245     -0.200789
  C       2.190737     -0.365023     -0.945817
  H      -2.586010     -1.175010      1.681505
  H      -2.595442     -0.092142      0.254860
  H      -1.836137      0.447569      1.795176
  H       2.567134      0.494298     -0.385502
  H       1.822741     -0.057711     -1.927829
  H       2.966809     -1.121053     -1.049992
  Li     -0.438938      2.573530     -0.681499
  C      -1.794953      4.809015     -3.543497
  O      -1.588068      5.829357     -2.534233
  C      -1.111156      5.438497     -1.374744
  O      -0.830341      4.271371     -1.078690
  O      -0.976726      6.472255     -0.576586
  C      -0.458518      6.218722      0.754175
  H      -2.184897      5.346203     -4.406189
  H      -2.523341      4.074008     -3.191722
  H      -0.845486      4.327989     -3.791786
  H       0.544456      5.789240      0.691766
  H      -1.132998      5.553385      1.298969
  H      -0.423924      7.197111      1.229930
