21
Coordinates from ORCA-job EC_m1_shell2_oxidized_opt_relaxed E -691.644903807526
  C          -1.34292740424307     -0.61287150988716     -0.25349503519236
  C          -1.06015178155107      0.87921144836155     -0.21776451830227
  O           0.34651443616953      0.96383924369250      0.02770701095371
  C           0.87673352074732     -0.26936891147604      0.13397152209088
  O           2.04005712259359     -0.49365325204484      0.34056026920658
  O          -0.06695023913958     -1.21723454445257     -0.02233064901706
  H          -1.73064674124653     -0.98494621641174     -1.21782878777204
  H          -2.03888116388377     -0.96968873713605      0.52543808420619
  H          -1.27796536927030      1.41309288806329     -1.15906936605539
  H          -1.58337294532549      1.42816943192702      0.58453421094178
  Li          3.84757840370596     -0.87208552092136      0.67660041847895
  C           8.76750299381142     -1.95296308266249      2.29692397134037
  C           9.01991683428129     -1.89968544928776      0.79994483349610
  O           7.73727425429727     -1.60543115580298      0.23843184616819
  C           6.81605787309710     -1.49111286288720      1.21380907663339
  O           5.65347854347481     -1.24577354993496      1.02805527117437
  O           7.36809280709653     -1.68701138351348      2.42648047472910
  H           9.31749650861498     -1.19660046548964      2.88377613237558
  H           8.97714327212626     -2.92980528919915      2.76637328167146
  H           9.72502276481786     -1.11373768902004      0.47833001445136
  H           9.37955075279981     -2.84603996739544      0.35975112423834
