21
Coordinates from ORCA-job EC_m1_shell2_reduced_opt_relaxed E -692.209543018692
  C      -1.238774     -0.658233     -0.253023
  C      -0.999455      0.854806     -0.223919
  O       0.454493      0.950272     -0.178247
  C       0.952611     -0.236064      0.149374
  O       2.134194     -0.425904      0.370770
  O       0.034863     -1.194654      0.211248
  H      -1.417531     -1.050895     -1.257852
  H      -2.017517     -0.995601      0.431767
  H      -1.344418      1.374213     -1.118586
  H      -1.391681      1.339880      0.674232
  Li      3.847615     -0.829089      0.735246
  C       8.710453     -1.955405      2.271431
  C       8.911489     -1.893371      0.754122
  O       7.635550     -1.368848      0.281891
  C       6.740427     -1.475273      1.257862
  O       5.559620     -1.217867      1.113973
  O       7.260487     -1.889649      2.407106
  H       9.132196     -1.096784      2.801270
  H       9.050441     -2.887111      2.724787
  H       9.696985     -1.205328      0.439917
  H       9.056898     -2.874838      0.294296
21
Coordinates from ORCA-job EC_m1_shell2_reduced_opt_relaxed E -692.210494584043
  C      -1.245143     -0.658234     -0.260690
  C      -1.013597      0.850692     -0.237637
  O       0.443932      0.958905     -0.163271
  C       0.950095     -0.227125      0.178727
  O       2.128843     -0.413452      0.396818
  O       0.031077     -1.194105      0.216157
  H      -1.416651     -1.053010     -1.266835
  H      -2.026691     -0.997210      0.421585
  H      -1.342066      1.362781     -1.143740
  H      -1.429357      1.337974      0.649731
  Li      3.846749     -0.815829      0.755329
  C       8.726010     -1.966195      2.264674
  C       8.917719     -1.898312      0.751765
  O       7.636386     -1.368482      0.281542
  C       6.740979     -1.459960      1.266890
  O       5.563171     -1.203827      1.129226
  O       7.272945     -1.879313      2.416306
  H       9.166610     -1.115750      2.794148
  H       9.053916     -2.906486      2.711288
  H       9.702052     -1.208601      0.435070
  H       9.061967     -2.880203      0.290581
21
Coordinates from ORCA-job EC_m1_shell2_reduced_opt_relaxed E -692.212523796606
  C      -1.240203     -0.674150     -0.301203
  C      -1.049578      0.824224     -0.305300
  O       0.404101      0.991800     -0.103378
  C       0.926453     -0.174513      0.353332
  O       2.101368     -0.344292      0.549557
  O       0.020407     -1.181344      0.289423
  H      -1.327717     -1.090015     -1.311381
  H      -2.059512     -1.023201      0.333940
  H      -1.303174      1.299879     -1.256497
  H      -1.562888      1.322580      0.526048
  Li      3.840273     -0.738523      0.866275
  C       8.772146     -2.016062      2.224882
  C       8.914702     -1.922161      0.724251
  O       7.628855     -1.326269      0.290254
  C       6.747221     -1.369048      1.317478
  O       5.575803     -1.121258      1.211587
  O       7.319005     -1.851117      2.448302
  H       9.282065     -1.200779      2.752031
  H       9.056736     -2.986313      2.640760
  H       9.711850     -1.251476      0.390954
  H       9.011034     -2.903707      0.246349
21
Coordinates from ORCA-job EC_m1_shell2_reduced_opt_relaxed E -692.214735703782
  C      -1.225366     -0.692736     -0.323093
  C      -1.064148      0.805175     -0.338366
  O       0.375659      1.014089     -0.083580
  C       0.907854     -0.139995      0.441321
  O       2.091770     -0.296824      0.629502
  O       0.014023     -1.176613      0.333204
  H      -1.259161     -1.119190     -1.332896
  H      -2.066056     -1.052329      0.278596
  H      -1.286831      1.264017     -1.306041
  H      -1.624619      1.301215      0.464827
  Li      3.840810     -0.678691      0.926570
  C       8.787369     -2.049192      2.202860
  C       8.901332     -1.941320      0.704980
  O       7.633760     -1.280690      0.299528
  C       6.763116     -1.291275      1.354517
  O       5.586410     -1.051772      1.262370
  O       7.346809     -1.831850      2.470036
  H       9.342700     -1.260969      2.727030
  H       9.039677     -3.036020      2.601034
  H       9.718111     -1.299638      0.360454
  H       8.945729     -2.921134      0.214811
21
Coordinates from ORCA-job EC_m1_shell2_reduced_opt_relaxed E -692.219968763782
  C      -1.200028     -0.719171     -0.341216
  C      -1.068591      0.790676     -0.363948
  O       0.338428      1.043409     -0.069544
  C       0.876636     -0.105386      0.517157
  O       2.090857     -0.249748      0.702145
  O       0.000637     -1.180721      0.366649
  H      -1.185381     -1.154547     -1.347547
  H      -2.059381     -1.088853      0.225344
  H      -1.264685      1.233972     -1.343504
  H      -1.672966      1.281318      0.410221
  Li      3.844538     -0.617245      0.980484
  C       8.790039     -2.077877      2.187064
  C       8.877993     -1.958863      0.680461
  O       7.648119     -1.238750      0.304527
  C       6.796211     -1.214698      1.393092
  O       5.596815     -0.980083      1.312207
  O       7.380974     -1.814635      2.496146
  H       9.389766     -1.321766      2.708795
  H       9.009316     -3.077997      2.567230
  H       9.714145     -1.351969      0.323625
  H       8.865503     -2.932809      0.178277
21
Coordinates from ORCA-job EC_m1_shell2_reduced_opt_relaxed E -692.222846107039
  C      -1.162168     -0.736267     -0.345164
  C      -1.043427      0.785042     -0.371440
  O       0.340895      1.046325     -0.063086
  C       0.864749     -0.090722      0.561759
  O       2.093318     -0.232552      0.744650
  O       0.009566     -1.181515      0.382505
  H      -1.126474     -1.174926     -1.349688
  H      -2.037376     -1.103485      0.197522
  H      -1.232804      1.217124     -1.357218
  H      -1.670238      1.272906      0.386087
  Li      3.840488     -0.596084      1.010863
  C       8.769482     -2.079512      2.179487
  C       8.842196     -1.958487      0.661763
  O       7.633414     -1.227872      0.305877
  C       6.801935     -1.191418      1.407269
  O       5.590554     -0.956512      1.334665
  O       7.381212     -1.812123      2.498030
  H       9.386482     -1.334800      2.696413
  H       8.989760     -3.082965      2.549468
  H       9.687103     -1.367498      0.300982
  H       8.810281     -2.930400      0.156920
21
Coordinates from ORCA-job EC_m1_shell2_reduced_opt_relaxed E -692.225063385987
  C      -1.102528     -0.756240     -0.352280
  C      -0.999641      0.772795     -0.386156
  O       0.366308      1.037088     -0.054923
  C       0.858268     -0.067808      0.640959
  O       2.091357     -0.209178      0.817136
  O       0.036364     -1.173374      0.415355
  H      -1.031258     -1.198371     -1.354281
  H      -2.005180     -1.118757      0.149087
  H      -1.182347      1.189218     -1.380666
  H      -1.656038      1.256338      0.349769
  Li      3.826766     -0.571620      1.063824
  C       8.739122     -2.078211      2.161798
  C       8.785869     -1.955560      0.635633
  O       7.591189     -1.213673      0.311943
  C       6.787206     -1.166848      1.425424
  O       5.572619     -0.932149      1.368769
  O       7.365216     -1.815221      2.490618
  H       9.373807     -1.339075      2.665918
  H       8.975624     -3.083013      2.519881
  H       9.642136     -1.384435      0.268230
  H       8.734088     -2.927650      0.131626
21
Coordinates from ORCA-job EC_m1_shell2_reduced_opt_relaxed E -692.225958275308
  C      -1.079653     -0.759127     -0.344427
  C      -0.967682      0.777046     -0.377131
  O       0.404901      1.016246     -0.086225
  C       0.872770     -0.068442      0.634454
  O       2.104634     -0.219183      0.810728
  O       0.054500     -1.167702      0.420675
  H      -1.013986     -1.202220     -1.345979
  H      -1.993630     -1.107573      0.147105
  H      -1.187319      1.196616     -1.362082
  H      -1.600055      1.259512      0.380266
  Li      3.819480     -0.590650      1.057118
  C       8.714877     -2.059799      2.164943
  C       8.764134     -1.943531      0.631472
  O       7.562959     -1.221925      0.316634
  C       6.762813     -1.202296      1.416229
  O       5.553221     -0.961857      1.360710
  O       7.332599     -1.845938      2.468653
  H       9.320627     -1.295694      2.666332
  H       8.996162     -3.050654      2.527417
  H       9.621830     -1.371373      0.270112
  H       8.725761     -2.917199      0.130662
21
Coordinates from ORCA-job EC_m1_shell2_reduced_opt_relaxed E -692.226515027240
  C      -1.037634     -0.770088     -0.355362
  C      -0.938816      0.762818     -0.395962
  O       0.436417      1.002930     -0.112846
  C       0.869828     -0.033837      0.708896
  O       2.099987     -0.190338      0.876902
  O       0.069908     -1.153453      0.466590
  H      -0.923828     -1.217751     -1.351641
  H      -1.975018     -1.121233      0.090997
  H      -1.173163      1.179180     -1.379419
  H      -1.572965      1.238031      0.366674
  Li      3.801310     -0.570428      1.106056
  C       8.702439     -2.060906      2.144328
  C       8.728217     -1.943721      0.613735
  O       7.528822     -1.198456      0.326064
  C       6.734672     -1.196438      1.434318
  O       5.531674     -0.953622      1.394926
  O       7.313752     -1.880967      2.459573
  H       9.295596     -1.277785      2.633244
  H       9.018422     -3.042024      2.505598
  H       9.593548     -1.389839      0.240246
  H       8.665777     -2.917817      0.114748
21
Coordinates from ORCA-job EC_m1_shell2_reduced_opt_relaxed E -692.227379976990
  C      -1.052442     -0.759744     -0.348505
  C      -0.938824      0.771262     -0.386294
  O       0.450142      0.992990     -0.156287
  C       0.881783     -0.039182      0.674969
  O       2.112026     -0.206138      0.844517
  O       0.059376     -1.152415      0.466486
  H      -0.947066     -1.207359     -1.345614
  H      -1.988950     -1.104579      0.104006
  H      -1.209264      1.200796     -1.354190
  H      -1.533287      1.245140      0.408675
  Li      3.800185     -0.597632      1.079440
  C       8.704782     -2.046845      2.152876
  C       8.742899     -1.937125      0.624065
  O       7.534014     -1.205422      0.327121
  C       6.722597     -1.244661      1.419233
  O       5.524064     -0.995058      1.376254
  O       7.303252     -1.918029      2.448396
  H       9.254627     -1.233825      2.643071
  H       9.054040     -3.010363      2.528651
  H       9.602866     -1.374583      0.252885
  H       8.692128     -2.912971      0.127910
21
Coordinates from ORCA-job EC_m1_shell2_reduced_opt_relaxed E -692.228513094923
  C      -1.054515     -0.741906     -0.337822
  C      -0.914550      0.782078     -0.379019
  O       0.490300      0.967763     -0.234450
  C       0.898085     -0.034210      0.660420
  O       2.131588     -0.230062      0.825291
  O       0.042768     -1.145423      0.491980
  H      -0.939106     -1.192851     -1.333326
  H      -2.000453     -1.074177      0.103704
  H      -1.238421      1.233069     -1.320017
  H      -1.445198      1.251957      0.463342
  Li      3.783071     -0.651932      1.055089
  C       8.698279     -2.012062      2.157534
  C       8.749755     -1.918535      0.634633
  O       7.521437     -1.217169      0.328405
  C       6.683466     -1.356604      1.386976
  O       5.494276     -1.088138      1.352067
  O       7.280268     -1.998872      2.422956
  H       9.154387     -1.139255      2.640749
  H       9.120656     -2.932181      2.563334
  H       9.593973     -1.337698      0.258921
  H       8.718882     -2.899535      0.146897
21
Coordinates from ORCA-job EC_m1_shell2_reduced_opt_relaxed E -692.228953289600
  C      -1.044025     -0.732337     -0.333053
  C      -0.891088      0.787022     -0.385591
  O       0.515744      0.961132     -0.248103
  C       0.901004     -0.024401      0.688374
  O       2.137988     -0.242813      0.845038
  O       0.034686     -1.140059      0.516170
  H      -0.912177     -1.188483     -1.325326
  H      -1.999510     -1.057122      0.093924
  H      -1.216525      1.239918     -1.325606
  H      -1.415410      1.259628      0.459990
  Li      3.764211     -0.686846      1.060368
  C       8.693571     -1.989255      2.153366
  C       8.744762     -1.903239      0.634335
  O       7.499658     -1.230796      0.326820
  C       6.654759     -1.435112      1.364501
  O       5.471871     -1.151377      1.344838
  O       7.271505     -2.033031      2.411689
  H       9.103278     -1.090460      2.630312
  H       9.150860     -2.886276      2.572582
  H       9.571612     -1.303912      0.250586
  H       8.732173     -2.887923      0.152448
21
Coordinates from ORCA-job EC_m1_shell2_reduced_opt_relaxed E -692.229204569883
  C      -1.036330     -0.732111     -0.334444
  C      -0.884016      0.787236     -0.397550
  O       0.516518      0.973270     -0.218314
  C       0.893286     -0.018859      0.721770
  O       2.132715     -0.243800      0.874453
  O       0.031104     -1.139948      0.525447
  H      -0.895193     -1.192163     -1.324254
  H      -1.996319     -1.054975      0.084845
  H      -1.180234      1.226964     -1.353901
  H      -1.439872      1.267799      0.423231
  Li      3.752483     -0.692771      1.080769
  C       8.698864     -1.987646      2.146831
  C       8.738976     -1.897832      0.627710
  O       7.485803     -1.239165      0.325491
  C       6.647639     -1.452086      1.364621
  O       5.466217     -1.163858      1.355337
  O       7.277700     -2.020136      2.418169
  H       9.119398     -1.094636      2.624870
  H       9.150475     -2.890911      2.559429
  H       9.554627     -1.287376      0.237445
  H       8.735105     -2.882741      0.145711
21
Coordinates from ORCA-job EC_m1_shell2_reduced_opt_relaxed E -692.229460414748
  C      -1.022334     -0.739654     -0.339830
  C      -0.877249      0.782963     -0.410269
  O       0.512083      0.983742     -0.182507
  C       0.881880     -0.011281      0.761365
  O       2.123342     -0.235801      0.912130
  O       0.032693     -1.140640      0.534001
  H      -0.870839     -1.202602     -1.327085
  H      -1.988840     -1.061577      0.066677
  H      -1.139303      1.204795     -1.384889
  H      -1.471266      1.272912      0.377876
  Li      3.740262     -0.681079      1.112032
  C       8.703472     -1.995245      2.137536
  C       8.725985     -1.896831      0.615432
  O       7.469885     -1.239764      0.327187
  C       6.646136     -1.435692      1.377911
  O       5.465888     -1.149375      1.378449
  O       7.286025     -1.989142      2.428804
  H       9.158825     -1.122589      2.620363
  H       9.134184     -2.916372      2.533132
  H       9.536348     -1.282661      0.219474
  H       8.721769     -2.879850      0.129876
21
Coordinates from ORCA-job EC_m1_shell2_reduced_opt_relaxed E -692.229595753925
  C      -1.011755     -0.746401     -0.345115
  C      -0.871217      0.778615     -0.418521
  O       0.510464      0.986623     -0.164472
  C       0.873921     -0.005933      0.787658
  O       2.116895     -0.229131      0.938619
  O       0.033861     -1.142092      0.539878
  H      -0.853647     -1.210875     -1.330620
  H      -1.983784     -1.066531      0.050813
  H      -1.114255      1.189794     -1.402965
  H      -1.485909      1.274239      0.350082
  Li      3.729229     -0.669034      1.136413
  C       8.706660     -2.001951      2.130031
  C       8.715431     -1.897212      0.605855
  O       7.456143     -1.240190      0.329778
  C       6.646342     -1.416383      1.391377
  O       5.468485     -1.133700      1.399683
  O       7.293007     -1.961778      2.437791
  H       9.190097     -1.147700      2.617102
  H       9.117811     -2.937655      2.511975
  H       9.521978     -1.280687      0.205931
  H       8.709189     -2.877761      0.116372
21
Coordinates from ORCA-job EC_m1_shell2_reduced_opt_relaxed E -692.229657644826
  C      -1.011543     -0.747475     -0.347654
  C      -0.869832      0.777810     -0.421348
  O       0.510783      0.985063     -0.164575
  C       0.870245     -0.005183      0.792613
  O       2.113793     -0.228601      0.945169
  O       0.031222     -1.143305      0.540241
  H      -0.853251     -1.212973     -1.332511
  H      -1.985395     -1.065182      0.046086
  H      -1.110672      1.187686     -1.407000
  H      -1.485929      1.275091      0.344980
  Li      3.722089     -0.666148      1.144672
  C       8.710568     -2.003725      2.127871
  C       8.714356     -1.897466      0.603129
  O       7.450226     -1.246359      0.330129
  C       6.647935     -1.411393      1.397513
  O       5.471264     -1.130137      1.409613
  O       7.298644     -1.949443      2.443403
  H       9.204118     -1.156708      2.616652
  H       9.112909     -2.945017      2.505315
  H       9.516318     -1.275867      0.202085
  H       8.711098     -2.876411      0.111282
21
Coordinates from ORCA-job EC_m1_shell2_reduced_opt_relaxed E -692.229729366771
  C      -1.016944     -0.745503     -0.350237
  C      -0.869582      0.778918     -0.424122
  O       0.513228      0.979529     -0.175153
  C       0.865405     -0.005337      0.790449
  O       2.109104     -0.231111      0.946328
  O       0.024224     -1.143920      0.538867
  H      -0.860596     -1.213300     -1.334123
  H      -1.992282     -1.058495      0.043711
  H      -1.115774      1.191675     -1.407203
  H      -1.477740      1.276972      0.347961
  Li      3.710802     -0.667897      1.150611
  C       8.718019     -2.003117      2.127171
  C       8.717566     -1.897173      0.602028
  O       7.443926     -1.261482      0.329526
  C       6.650519     -1.415012      1.403611
  O       5.474826     -1.134041      1.420877
  O       7.307635     -1.940745      2.450623
  H       9.216895     -1.159921      2.616423
  H       9.115207     -2.947421      2.502435
  H       9.510514     -1.264360      0.200791
  H       8.723993     -2.874002      0.107090
21
Coordinates from ORCA-job EC_m1_shell2_reduced_opt_relaxed E -692.229759408038
  C      -1.024552     -0.742512     -0.351427
  C      -0.872913      0.780825     -0.425591
  O       0.512491      0.976709     -0.183638
  C       0.861800     -0.006763      0.783105
  O       2.104973     -0.233705      0.942168
  O       0.018184     -1.143613      0.535648
  H      -0.870480     -1.211792     -1.334897
  H      -1.999372     -1.053286      0.045338
  H      -1.124013      1.197108     -1.405781
  H      -1.474032      1.278141      0.352437
  Li      3.705117     -0.670670      1.151610
  C       8.724697     -2.002780      2.128074
  C       8.722385     -1.897468      0.602861
  O       7.443909     -1.271406      0.329408
  C       6.654555     -1.418714      1.407698
  O       5.478258     -1.138117      1.427481
  O       7.315333     -1.940529      2.455390
  H       9.224479     -1.159181      2.615705
  H       9.122261     -2.946924      2.503520
  H       9.510229     -1.257779      0.202272
  H       8.735637     -2.873284      0.106285
21
Coordinates from ORCA-job EC_m1_shell2_reduced_opt_relaxed E -692.229772121134
  C      -1.026989     -0.739789     -0.351617
  C      -0.871431      0.782611     -0.428312
  O       0.515544      0.973826     -0.190024
  C       0.859104     -0.005272      0.782903
  O       2.101787     -0.236105      0.943466
  O       0.014181     -1.141219      0.537456
  H      -0.871140     -1.211333     -1.333850
  H      -2.002981     -1.048290      0.043947
  H      -1.124729      1.200437     -1.407119
  H      -1.468618      1.280408      0.352616
  Li      3.698987     -0.676800      1.155346
  C       8.728082     -1.999779      2.127491
  C       8.722767     -1.895420      0.602244
  O       7.440344     -1.277755      0.330630
  C       6.653160     -1.430952      1.409586
  O       5.477263     -1.149140      1.433797
  O       7.318935     -1.948565      2.456512
  H       9.222293     -1.151062      2.612134
  H       9.134301     -2.939833      2.503964
  H       9.506156     -1.250581      0.201014
  H       8.741930     -2.871129      0.105482
21
Coordinates from ORCA-job EC_m1_shell2_reduced_opt_relaxed E -692.229781718121
  C      -1.030021     -0.738687     -0.352185
  C      -0.873905      0.783492     -0.430102
  O       0.513111      0.975121     -0.189743
  C       0.857075     -0.005790      0.780447
  O       2.099199     -0.236762      0.943083
  O       0.011872     -1.140243      0.536310
  H      -0.873840     -1.210769     -1.334165
  H      -2.005531     -1.047439      0.044182
  H      -1.125451      1.201127     -1.409389
  H      -1.472298      1.281447      0.349832
  Li      3.698338     -0.678165      1.158341
  C       8.731546     -2.000603      2.127054
  C       8.723290     -1.895414      0.601837
  O       7.441905     -1.276052      0.333215
  C       6.655748     -1.430774      1.413712
  O       5.479086     -1.150464      1.439892
  O       7.323360     -1.953365      2.458140
  H       9.225519     -1.150302      2.609533
  H       9.141552     -2.939348      2.502861
  H       9.507161     -1.251480      0.199850
  H       8.741230     -2.871274      0.104960
21
Coordinates from ORCA-job EC_m1_shell2_reduced_opt_relaxed E -692.229788589383
  C      -1.029254     -0.738590     -0.352866
  C      -0.872909      0.783677     -0.432591
  O       0.513145      0.976015     -0.187864
  C       0.855916     -0.005096      0.782840
  O       2.097649     -0.237114      0.947010
  O       0.010916     -1.139073      0.537896
  H      -0.871146     -1.211479     -1.334208
  H      -2.005534     -1.047027      0.041795
  H      -1.120756      1.199392     -1.413668
  H      -1.474554      1.283181      0.343884
  Li      3.697313     -0.680108      1.164511
  C       8.733294     -2.000648      2.125063
  C       8.720436     -1.894206      0.599983
  O       7.440255     -1.271199      0.337113
  C       6.655506     -1.432049      1.418086
  O       5.478814     -1.153166      1.447649
  O       7.325846     -1.959179      2.458657
  H       9.225573     -1.148345      2.605967
  H       9.148617     -2.937629      2.499379
  H       9.505154     -1.252728      0.195727
  H       8.734664     -2.870370      0.103301
21
Coordinates from ORCA-job EC_m1_shell2_reduced_opt_relaxed E -692.229794476710
  C      -1.027474     -0.738604     -0.354252
  C      -0.869917      0.783713     -0.436316
  O       0.514858      0.975965     -0.186236
  C       0.854688     -0.004530      0.786765
  O       2.095841     -0.238222      0.953566
  O       0.009405     -1.138041      0.540380
  H      -0.867186     -1.212947     -1.334554
  H      -2.005318     -1.045496      0.037751
  H      -1.112940      1.196649     -1.419850
  H      -1.475148      1.286074      0.335508
  Li      3.695080     -0.683311      1.174788
  C       8.735907     -2.000362      2.121565
  C       8.715454     -1.892003      0.596877
  O       7.435731     -1.264928      0.342882
  C       6.654469     -1.433863      1.425241
  O       5.477820     -1.157204      1.460523
  O       7.329550     -1.965515      2.460217
  H       9.226199     -1.146034      2.601040
  H       9.157562     -2.935564      2.493088
  H       9.500215     -1.253235      0.188577
  H       8.724151     -2.868285      0.100104
21
Coordinates from ORCA-job EC_m1_shell2_reduced_opt_relaxed E -692.229799487106
  C      -1.025881     -0.738296     -0.356081
  C      -0.865753      0.783823     -0.440696
  O       0.518085      0.974658     -0.185814
  C       0.853701     -0.004892      0.789935
  O       2.093946     -0.240436      0.960570
  O       0.007282     -1.137439      0.542654
  H      -0.863943     -1.214722     -1.335067
  H      -2.005563     -1.042496      0.033469
  H      -1.104161      1.194157     -1.426514
  H      -1.473459      1.289607      0.326884
  Li      3.692241     -0.687744      1.187254
  C       8.739357     -1.999741      2.117312
  C       8.709459     -1.889217      0.593273
  O       7.429058     -1.259321      0.349371
  C       6.653184     -1.435835      1.434460
  O       5.476271     -1.161976      1.476846
  O       7.334438     -1.971315      2.463196
  H       9.227997     -1.143655      2.595398
  H       9.167258     -2.933455      2.485268
  H       9.492892     -1.252137      0.179996
  H       8.712537     -2.865312      0.095949
21
Coordinates from ORCA-job EC_m1_shell2_reduced_opt_relaxed E -692.229809771875
  C      -1.022185     -0.737290     -0.360171
  C      -0.854931      0.784018     -0.450686
  O       0.527357      0.970271     -0.186195
  C       0.852170     -0.006487      0.796337
  O       2.090229     -0.246280      0.976113
  O       0.002673     -1.136682      0.547400
  H      -0.857031     -1.218978     -1.335968
  H      -2.006071     -1.034552      0.024272
  H      -1.083913      1.189285     -1.440928
  H      -1.466563      1.297318      0.308638
  Li      3.685490     -0.698479      1.215725
  C       8.746666     -1.997774      2.107504
  C       8.695193     -1.882630      0.585151
  O       7.411455     -1.250466      0.362899
  C       6.649448     -1.440605      1.455502
  O       5.471883     -1.172943      1.514308
  O       7.345420     -1.981407      2.471081
  H       9.233289     -1.138872      2.582609
  H       9.186590     -2.929077      2.467060
  H       9.473200     -1.246257      0.160986
  H       8.688577     -2.857855      0.086028
21
Coordinates from ORCA-job EC_m1_shell2_reduced_opt_relaxed E -692.229832213922
  C      -1.011425     -0.734361     -0.369876
  C      -0.824047      0.784140     -0.475823
  O       0.554682      0.957261     -0.188049
  C       0.850636     -0.011641      0.811555
  O       2.082675     -0.262610      1.014917
  O      -0.007375     -1.135261      0.559083
  H      -0.838821     -1.230179     -1.337134
  H      -2.005628     -1.013072      0.002116
  H      -1.029824      1.177345     -1.476136
  H      -1.443544      1.316191      0.263769
  Li      3.668928     -0.727669      1.287725
  C       8.762154     -1.991252      2.081776
  C       8.655914     -1.865081      0.564819
  O       7.362232     -1.234114      0.395968
  C       6.638068     -1.453482      1.508625
  O       5.459636     -1.202194      1.609260
  O       7.372142     -2.002585      2.491468
  H       9.246360     -1.126786      2.549163
  H       9.229723     -2.917248      2.419040
  H       9.416062     -1.225497      0.114453
  H       8.630399     -2.837647      0.060946
21
Coordinates from ORCA-job EC_m1_shell2_reduced_opt_relaxed E -692.229857187905
  C      -0.995040     -0.730449     -0.380590
  C      -0.779982      0.783362     -0.506019
  O       0.594490      0.938509     -0.190924
  C       0.853374     -0.019625      0.828972
  O       2.077045     -0.285039      1.061744
  O      -0.016348     -1.134032      0.573200
  H      -0.814809     -1.244607     -1.336689
  H      -2.001184     -0.984923     -0.023224
  H      -0.957786      1.162157     -1.517294
  H      -1.406280      1.338567      0.210280
  Li      3.650277     -0.766764      1.375789
  C       8.775156     -1.980491      2.048360
  C       8.601628     -1.841933      0.540331
  O       7.294705     -1.221453      0.435569
  C       6.620892     -1.470660      1.573224
  O       5.443307     -1.240806      1.725827
  O       7.402467     -2.023035      2.515789
  H       9.259255     -1.110810      2.505940
  H       9.273295     -2.900515      2.356628
  H       9.334395     -1.192348      0.060281
  H       8.560090     -2.810850      0.030471
21
Coordinates from ORCA-job EC_m1_shell2_reduced_opt_relaxed E -692.229914432473
  C      -0.978648     -0.727729     -0.387826
  C      -0.740165      0.781269     -0.528772
  O       0.631580      0.921042     -0.194624
  C       0.860623     -0.027158      0.840724
  O       2.077131     -0.303457      1.097248
  O      -0.018657     -1.133974      0.583695
  H      -0.793605     -1.256971     -1.334669
  H      -1.993171     -0.962750     -0.040759
  H      -0.897892      1.150113     -1.546970
  H      -1.368820      1.353633      0.171739
  Li      3.638335     -0.797631      1.444291
  C       8.778675     -1.970759      2.021231
  C       8.553600     -1.822924      0.521350
  O       7.234128     -1.220816      0.463449
  C       6.603497     -1.483157      1.622484
  O       5.428365     -1.269299      1.816640
  O       7.422554     -2.030070      2.535345
  H       9.269068     -1.100326      2.470295
  H       9.294199     -2.888849      2.305785
  H       9.259751     -1.158125      0.022582
  H       8.508398     -2.787805      0.004426
21
Coordinates from ORCA-job EC_m1_shell2_reduced_opt_relaxed E -692.230161459894
  C      -0.841362     -0.712871     -0.416149
  C      -0.453181      0.753646     -0.645953
  O       0.896714      0.799976     -0.208294
  C       0.952628     -0.076890      0.906917
  O       2.116688     -0.422372      1.292492
  O       0.008077     -1.128523      0.650430
  H      -0.641876     -1.331453     -1.303995
  H      -1.895236     -0.828606     -0.130805
  H      -0.499323      1.057040     -1.696000
  H      -1.077693      1.427706     -0.038280
  Li      3.593547     -0.995999      1.818439
  C       8.727404     -1.887176      1.845688
  C       8.210896     -1.700518      0.424769
  O       6.853914     -1.225046      0.642165
  C       6.484765     -1.567774      1.889173
  O       5.354065     -1.462440      2.315681
  O       7.502419     -2.067749      2.607023
  H       9.236810     -1.001896      2.240497
  H       9.343424     -2.776976      1.982311
  H       8.746410     -0.947301     -0.154620
  H       8.149857     -2.640522     -0.133824
21
Coordinates from ORCA-job EC_m1_shell2_reduced_opt_relaxed E -692.230191702132
  C      -0.751698     -0.705542     -0.420560
  C      -0.281264      0.728202     -0.698583
  O       1.053844      0.727754     -0.214042
  C       1.026269     -0.100671      0.938562
  O       2.158059     -0.484731      1.381965
  O       0.043381     -1.117925      0.689016
  H      -0.556187     -1.371707     -1.274355
  H      -1.818118     -0.756644     -0.164852
  H      -0.275287      0.989020     -1.760826
  H      -0.891878      1.456653     -0.141445
  Li      3.584197     -1.101984      1.988123
  C       8.660868     -1.834009      1.749889
  C       8.006174     -1.631803      0.387650
  O       6.653165     -1.236038      0.742010
  C       6.419707     -1.615550      2.010440
  O       5.330200     -1.572395      2.543116
  O       7.522604     -2.078242      2.618923
  H       9.177025     -0.940733      2.116761
  H       9.317343     -2.703697      1.802651
  H       8.447990     -0.831541     -0.207783
  H       7.942552     -2.554161     -0.198995
21
Coordinates from ORCA-job EC_m1_shell2_reduced_opt_relaxed E -692.230267237346
  C      -0.801408     -0.715079     -0.419392
  C      -0.391322      0.741374     -0.670448
  O       0.952037      0.781510     -0.210099
  C       0.978672     -0.075378      0.923556
  O       2.130976     -0.435040      1.334889
  O       0.027183     -1.120087      0.669103
  H      -0.589700     -1.351874     -1.291827
  H      -1.860266     -0.817143     -0.149435
  H      -0.413169      1.028866     -1.725569
  H      -1.019710      1.431801     -0.084939
  Li      3.588824     -1.025330      1.895806
  C       8.700077     -1.879077      1.808446
  C       8.126939     -1.670910      0.407151
  O       6.770250     -1.238337      0.681232
  C       6.455785     -1.581845      1.942187
  O       5.342244     -1.492233      2.412387
  O       7.511988     -2.063346      2.617776
  H       9.236645     -1.001477      2.184249
  H       9.319537     -2.772091      1.904764
  H       8.625911     -0.885717     -0.163029
  H       8.077451     -2.594332     -0.179140
21
Coordinates from ORCA-job EC_m1_shell2_reduced_opt_relaxed E -692.230283842592
  C      -0.790664     -0.714584     -0.419787
  C      -0.372602      0.738763     -0.676719
  O       0.968142      0.775717     -0.209968
  C       0.985922     -0.075748      0.929209
  O       2.134008     -0.441473      1.346634
  O       0.029488     -1.116526      0.675770
  H      -0.577812     -1.356600     -1.288023
  H      -1.851515     -0.809990     -0.155150
  H      -0.386986      1.018536     -1.734215
  H      -1.000836      1.437101     -0.100588
  Li      3.586703     -1.039294      1.916486
  C       8.693323     -1.872818      1.797165
  C       8.103532     -1.662460      0.402750
  O       6.748810     -1.236847      0.694213
  C       6.449335     -1.589286      1.956277
  O       5.340863     -1.508650      2.438141
  O       7.515406     -2.067065      2.618063
  H       9.228389     -0.993281      2.170645
  H       9.319886     -2.761940      1.882699
  H       8.593676     -0.874394     -0.170985
  H       8.051878     -2.584905     -0.184954
21
Coordinates from ORCA-job EC_m1_shell2_reduced_opt_relaxed E -692.230291498114
  C      -0.782531     -0.713833     -0.419800
  C      -0.358833      0.737049     -0.681132
  O       0.980551      0.771053     -0.211416
  C       0.991672     -0.075163      0.933155
  O       2.135923     -0.446370      1.355292
  O       0.029924     -1.112055      0.682382
  H      -0.567397     -1.359789     -1.284495
  H      -1.845199     -0.804696     -0.160729
  H      -0.369284      1.011059     -1.740348
  H      -0.985920      1.441467     -0.111276
  Li      3.584835     -1.051430      1.932410
  C       8.688211     -1.866935      1.789115
  C       8.086320     -1.656567      0.399481
  O       6.733044     -1.236785      0.703207
  C       6.444376     -1.596527      1.965805
  O       5.339610     -1.523168      2.456090
  O       7.517807     -2.070710      2.617564
  H       9.219948     -0.984695      2.161127
  H       9.321992     -2.751591      1.866929
  H       8.570112     -0.867034     -0.177482
  H       8.033784     -2.579022     -0.188213
21
Coordinates from ORCA-job EC_m1_shell2_reduced_opt_relaxed E -692.230293705624
  C      -0.781926     -0.713636     -0.419685
  C      -0.358194      0.736995     -0.681380
  O       0.981377      0.770679     -0.212177
  C       0.991820     -0.074370      0.933692
  O       2.135379     -0.446510      1.356362
  O       0.028544     -1.110444      0.684340
  H      -0.564974     -1.359971     -1.283683
  H      -1.845088     -0.804693     -0.162674
  H      -0.369243      1.010627     -1.740725
  H      -0.984893      1.441801     -0.111584
  Li      3.584075     -1.052960      1.934370
  C       8.688023     -1.866160      1.788830
  C       8.085780     -1.656431      0.399140
  O       6.732284     -1.237710      0.702900
  C       6.444022     -1.597570      1.965579
  O       5.339286     -1.524921      2.456079
  O       7.517829     -2.070826      2.617255
  H       9.219037     -0.983507      2.160916
  H       9.322647     -2.750241      1.866409
  H       8.569242     -0.866810     -0.177980
  H       8.033917     -2.579085     -0.188318
21
Coordinates from ORCA-job EC_m1_shell2_reduced_opt_relaxed E -692.230299446439
  C      -0.775409     -0.712541     -0.419339
  C      -0.346758      0.735175     -0.685173
  O       0.992403      0.765099     -0.214227
  C       0.994915     -0.072404      0.938540
  O       2.134500     -0.449873      1.365950
  O       0.023964     -1.103817      0.694295
  H      -0.551113     -1.363298     -1.278369
  H      -1.841229     -0.800848     -0.172466
  H      -0.356645      1.005381     -1.745481
  H      -0.971676      1.443957     -0.118279
  Li      3.579355     -1.062985      1.950462
  C       8.684058     -1.861002      1.783065
  C       8.074772     -1.652583      0.395962
  O       6.719834     -1.242968      0.705255
  C       6.439418     -1.603272      1.969400
  O       5.336613     -1.535551      2.465320
  O       7.518243     -2.070234      2.616647
  H       9.213983     -0.977324      2.154119
  H       9.321875     -2.743197      1.856397
  H       8.551620     -0.859065     -0.181361
  H       8.026221     -2.574392     -0.193054
21
Coordinates from ORCA-job EC_m1_shell2_reduced_opt_relaxed E -692.230302637217
  C      -0.776866     -0.712175     -0.419194
  C      -0.348949      0.735574     -0.684621
  O       0.990166      0.765663     -0.213310
  C       0.992362     -0.071372      0.939779
  O       2.131736     -0.449277      1.367015
  O       0.019715     -1.101818      0.696955
  H      -0.549028     -1.362975     -1.277364
  H      -1.843281     -0.801840     -0.175538
  H      -0.359112      1.006391     -1.744739
  H      -0.974223      1.443628     -0.117165
  Li      3.577116     -1.062882      1.950835
  C       8.685328     -1.861029      1.784787
  C       8.079565     -1.654165      0.395958
  O       6.723281     -1.245442      0.700923
  C       6.440162     -1.602966      1.965145
  O       5.336008     -1.534605      2.458395
  O       7.517382     -2.068373      2.616095
  H       9.215121     -0.977440      2.156136
  H       9.322054     -2.743801      1.860804
  H       8.557095     -0.860485     -0.180612
  H       8.033316     -2.576355     -0.192617
21
Coordinates from ORCA-job EC_m1_shell2_reduced_opt_relaxed E -692.230308205732
  C      -0.773432     -0.710618     -0.419022
  C      -0.339711      0.734450     -0.687616
  O       0.997368      0.761103     -0.210117
  C       0.991561     -0.070926      0.946210
  O       2.128100     -0.453292      1.377178
  O       0.012545     -1.096410      0.705947
  H      -0.538878     -1.365739     -1.272261
  H      -1.842025     -0.797463     -0.184423
  H      -0.344437      1.002456     -1.748409
  H      -0.965172      1.445869     -0.124446
  Li      3.570320     -1.071476      1.964634
  C       8.682881     -1.856530      1.781216
  C       8.074780     -1.652300      0.393092
  O       6.716119     -1.251377      0.698756
  C       6.436758     -1.606567      1.964170
  O       5.332805     -1.541975      2.458920
  O       7.516709     -2.065589      2.615037
  H       9.211705     -0.971835      2.151115
  H       9.320988     -2.738322      1.857265
  H       8.546702     -0.855073     -0.183256
  H       8.033259     -2.574127     -0.196324
21
Coordinates from ORCA-job EC_m1_shell2_reduced_opt_relaxed E -692.230312314589
  C      -0.771201     -0.709160     -0.419027
  C      -0.331984      0.733863     -0.689771
  O       1.002897      0.757616     -0.206119
  C       0.990889     -0.071787      0.951270
  O       2.125541     -0.457626      1.384972
  O       0.008042     -1.093488      0.711292
  H      -0.533902     -1.367529     -1.269018
  H      -1.841031     -0.792731     -0.189236
  H      -0.330557      0.999261     -1.751177
  H      -0.957937      1.448490     -0.131164
  Li      3.565114     -1.078908      1.974577
  C       8.680867     -1.852403      1.778475
  C       8.070811     -1.650990      0.390910
  O       6.710892     -1.254774      0.697595
  C       6.434056     -1.609564      1.963537
  O       5.330352     -1.548444      2.459200
  O       7.516261     -2.064278      2.613900
  H       9.207405     -0.965744      2.146917
  H       9.321541     -2.732274      1.854999
  H       8.538765     -0.852095     -0.186351
  H       8.032127     -2.573179     -0.198116
21
Coordinates from ORCA-job EC_m1_shell2_reduced_opt_relaxed E -692.230316249394
  C      -0.766129     -0.706849     -0.419052
  C      -0.317348      0.732644     -0.693540
  O       1.014560      0.751075     -0.201778
  C       0.992816     -0.074057      0.957749
  O       2.124116     -0.465619      1.396350
  O       0.004643     -1.090152      0.717664
  H      -0.527751     -1.370336     -1.264685
  H      -1.837469     -0.783744     -0.194272
  H      -0.307081      0.993284     -1.756063
  H      -0.942825      1.453303     -0.142181
  Li      3.558681     -1.092077      1.990569
  C       8.676276     -1.844862      1.772617
  C       8.059705     -1.647621      0.387398
  O       6.699046     -1.258400      0.699599
  C       6.428806     -1.615452      1.966311
  O       5.326804     -1.561011      2.465994
  O       7.516283     -2.064294      2.612341
  H       9.197998     -0.954267      2.138524
  H       9.323342     -2.720165      1.847351
  H       8.520837     -0.846669     -0.192446
  H       8.023633     -2.570474     -0.200785
21
Coordinates from ORCA-job EC_m1_shell2_reduced_opt_relaxed E -692.230318131131
  C      -0.763363     -0.705403     -0.419074
  C      -0.309058      0.732118     -0.695353
  O       1.021648      0.747223     -0.200323
  C       0.994904     -0.076065      0.960282
  O       2.124249     -0.470752      1.401718
  O       0.004461     -1.089454      0.719511
  H      -0.526525     -1.371305     -1.263154
  H      -1.835208     -0.777907     -0.195217
  H      -0.294769      0.990177     -1.758491
  H      -0.933506      1.456336     -0.147561
  Li      3.555842     -1.099730      1.998629
  C       8.673513     -1.840113      1.769382
  C       8.052680     -1.645814      0.385659
  O       6.692094     -1.259792      0.701632
  C       6.425815     -1.619039      1.968668
  O       5.325061     -1.568573      2.471043
  O       7.516509     -2.065032      2.611513
  H       9.191551     -0.946711      2.133809
  H       9.325321     -2.711993      1.842704
  H       8.510387     -0.844470     -0.196319
  H       8.017342     -2.569444     -0.201394
21
Coordinates from ORCA-job EC_m1_shell2_reduced_opt_relaxed E -692.230319588167
  C      -0.761097     -0.703994     -0.419092
  C      -0.301809      0.731723     -0.696742
  O       1.028318      0.743539     -0.200003
  C       0.997307     -0.078355      0.961724
  O       2.124700     -0.475691      1.405929
  O       0.005211     -1.089686      0.720003
  H      -0.526807     -1.371683     -1.262398
  H      -1.833225     -0.772238     -0.195114
  H      -0.285108      0.987775     -1.760376
  H      -0.924636      1.459079     -0.151342
  Li      3.553665     -1.106435      2.005504
  C       8.671060     -1.835665      1.766651
  C       8.046284     -1.644362      0.384276
  O       6.685791     -1.261239      0.703594
  C       6.423221     -1.622160      1.971055
  O       5.323653     -1.575106      2.476041
  O       7.516816     -2.065488      2.611002
  H       9.185780     -0.939744      2.129688
  H       9.327196     -2.704408      1.838557
  H       8.501042     -0.842808     -0.199706
  H       8.011583     -2.568798     -0.201586
