21
Coordinates from ORCA-job EC_m1_shell2_oxidized_opt_relaxed E -691.637007734504
  C      -1.238774     -0.658233     -0.253023
  C      -0.999455      0.854806     -0.223919
  O       0.454493      0.950272     -0.178247
  C       0.952611     -0.236064      0.149374
  O       2.134194     -0.425904      0.370770
  O       0.034863     -1.194654      0.211248
  H      -1.417531     -1.050895     -1.257852
  H      -2.017517     -0.995601      0.431767
  H      -1.344418      1.374213     -1.118586
  H      -1.391681      1.339880      0.674232
  Li      3.847615     -0.829089      0.735246
  C       8.710453     -1.955405      2.271431
  C       8.911489     -1.893371      0.754122
  O       7.635550     -1.368848      0.281891
  C       6.740427     -1.475273      1.257862
  O       5.559620     -1.217867      1.113973
  O       7.260487     -1.889649      2.407106
  H       9.132196     -1.096784      2.801270
  H       9.050441     -2.887111      2.724787
  H       9.696985     -1.205328      0.439917
  H       9.056898     -2.874838      0.294296
21
Coordinates from ORCA-job EC_m1_shell2_oxidized_opt_relaxed E -691.641091860830
  C      -1.249001     -0.652642     -0.245502
  C      -1.006123      0.853288     -0.232533
  O       0.435961      0.958303     -0.154152
  C       0.953100     -0.237101      0.149128
  O       2.128211     -0.425833      0.370206
  O       0.022949     -1.198277      0.181781
  H      -1.451631     -1.048019     -1.256175
  H      -2.023283     -1.003562      0.447895
  H      -1.340338      1.384251     -1.132553
  H      -1.421726      1.349564      0.661939
  Li      3.847843     -0.828566      0.733762
  C       8.716362     -1.965168      2.269620
  C       8.922073     -1.887410      0.760287
  O       7.647557     -1.399075      0.274766
  C       6.740211     -1.474883      1.255086
  O       5.566164     -1.217044      1.111487
  O       7.278925     -1.866261      2.414922
  H       9.158938     -1.109938      2.809845
  H       9.044404     -2.902698      2.735470
  H       9.703601     -1.189892      0.434775
  H       9.094752     -2.874781      0.297611
21
Coordinates from ORCA-job EC_m1_shell2_oxidized_opt_relaxed E -691.643239618504
  C      -1.259620     -0.646447     -0.239190
  C      -1.013519      0.851259     -0.242842
  O       0.409240      0.967183     -0.117987
  C       0.947950     -0.237414      0.154510
  O       2.115192     -0.425176      0.374183
  O       0.006624     -1.201507      0.142587
  H      -1.499624     -1.043273     -1.246780
  H      -2.025255     -1.012362      0.460180
  H      -1.329174      1.393297     -1.146447
  H      -1.465633      1.362435      0.631809
  Li      3.847762     -0.827105      0.734882
  C       8.723166     -1.975645      2.266721
  C       8.933283     -1.881921      0.766500
  O       7.663477     -1.440449      0.267780
  C       6.744905     -1.473192      1.253188
  O       5.579134     -1.215237      1.109798
  O       7.305604     -1.831920      2.424676
  H       9.199208     -1.139585      2.819251
  H       9.032814     -2.916433      2.744816
  H       9.705548     -1.176099      0.427694
  H       9.147865     -2.866152      0.302335
21
Coordinates from ORCA-job EC_m1_shell2_oxidized_opt_relaxed E -691.643675704105
  C      -1.268592     -0.644144     -0.237364
  C      -1.020741      0.852851     -0.241921
  O       0.396547      0.971099     -0.098756
  C       0.942120     -0.238629      0.144124
  O       2.108152     -0.426574      0.365229
  O       0.000532     -1.203936      0.114634
  H      -1.539534     -1.038551     -1.237746
  H      -2.023291     -1.013119      0.472679
  H      -1.328426      1.396598     -1.147667
  H      -1.490116      1.370128      0.619741
  Li      3.848847     -0.827456      0.727797
  C       8.728379     -1.977485      2.269881
  C       8.942702     -1.882883      0.770712
  O       7.672052     -1.464730      0.264161
  C       6.752752     -1.473137      1.251254
  O       5.588364     -1.214849      1.104645
  O       7.317078     -1.809373      2.429426
  H       9.225396     -1.158171      2.828589
  H       9.024761     -2.922351      2.749029
  H       9.708112     -1.169542      0.430988
  H       9.183851     -2.861488      0.308230
21
Coordinates from ORCA-job EC_m1_shell2_oxidized_opt_relaxed E -691.644213206746
  C      -1.283493     -0.641535     -0.246974
  C      -1.034752      0.856147     -0.249427
  O       0.371618      0.977970     -0.048092
  C       0.920094     -0.235998      0.167572
  O       2.086591     -0.425769      0.385632
  O      -0.012317     -1.205867      0.076816
  H      -1.593785     -1.036001     -1.233911
  H      -2.027774     -1.010424      0.475390
  H      -1.308443      1.393237     -1.171214
  H      -1.549711      1.389253      0.573593
  Li      3.846902     -0.826082      0.739602
  C       8.745245     -1.979720      2.270419
  C       8.957646     -1.887592      0.769972
  O       7.680059     -1.509609      0.258754
  C       6.770551     -1.473217      1.253876
  O       5.606168     -1.213635      1.108006
  O       7.344455     -1.766582      2.438860
  H       9.283526     -1.196376      2.839073
  H       9.016162     -2.936407      2.743427
  H       9.706117     -1.155598      0.428993
  H       9.244087     -2.851938      0.307298
21
Coordinates from ORCA-job EC_m1_shell2_oxidized_opt_relaxed E -691.644513850032
  C      -1.301049     -0.637621     -0.243842
  C      -1.049936      0.860717     -0.234960
  O       0.355352      0.979915     -0.024022
  C       0.909939     -0.239354      0.123401
  O       2.076297     -0.431424      0.346551
  O      -0.019444     -1.208005      0.022932
  H      -1.665215     -1.027095     -1.211846
  H      -2.015067     -1.006219      0.510614
  H      -1.315736      1.396103     -1.161461
  H      -1.574462      1.400117      0.575346
  Li      3.851121     -0.829646      0.709999
  C       8.752558     -1.975626      2.281703
  C       8.977218     -1.894885      0.781321
  O       7.696688     -1.549553      0.254093
  C       6.788923     -1.475270      1.245685
  O       5.624826     -1.215858      1.088107
  O       7.356321     -1.728819      2.440574
  H       9.312597     -1.219159      2.861738
  H       8.995509     -2.943435      2.750420
  H       9.711455     -1.143302      0.448069
  H       9.301049     -2.847324      0.323247
21
Coordinates from ORCA-job EC_m1_shell2_oxidized_opt_relaxed E -691.644727347427
  C      -1.308401     -0.635401     -0.252111
  C      -1.056657      0.862662     -0.237642
  O       0.346311      0.980550     -0.001811
  C       0.897873     -0.239089      0.141559
  O       2.065000     -0.433243      0.361488
  O      -0.025909     -1.207784      0.012475
  H      -1.676476     -1.026965     -1.217019
  H      -2.018078     -0.999663      0.509879
  H      -1.300776      1.390118     -1.175680
  H      -1.593817      1.408359      0.558985
  Li      3.849307     -0.831211      0.718284
  C       8.762130     -1.973764      2.281003
  C       8.984461     -1.898811      0.780114
  O       7.698809     -1.567116      0.252338
  C       6.797250     -1.477085      1.246527
  O       5.632539     -1.217692      1.089839
  O       7.367341     -1.713642      2.442150
  H       9.329707     -1.226706      2.864452
  H       8.992194     -2.949234      2.742584
  H       9.707428     -1.133905      0.449614
  H       9.318711     -2.846122      0.320637
21
Coordinates from ORCA-job EC_m1_shell2_oxidized_opt_relaxed E -691.644850500159
  C      -1.318101     -0.631915     -0.257176
  C      -1.064498      0.865237     -0.236499
  O       0.338097      0.980132      0.015024
  C       0.888333     -0.240789      0.147013
  O       2.055351     -0.437853      0.364694
  O      -0.033619     -1.207980     -0.001692
  H      -1.690093     -1.024650     -1.219549
  H      -2.018348     -0.991845      0.516783
  H      -1.290055      1.385435     -1.184125
  H      -1.604990      1.415246      0.554013
  Li      3.848536     -0.834914      0.717581
  C       8.770763     -1.971179      2.282480
  C       8.994538     -1.902717      0.782028
  O       7.704859     -1.584826      0.250092
  C       6.805187     -1.479878      1.244127
  O       5.640631     -1.221215      1.085401
  O       7.376175     -1.700132      2.442075
  H       9.338884     -1.228201      2.869592
  H       8.986353     -2.954072      2.737410
  H       9.704914     -1.123031      0.456158
  H       9.336031     -2.846596      0.322236
21
Coordinates from ORCA-job EC_m1_shell2_oxidized_opt_relaxed E -691.644875107412
  C      -1.323684     -0.629977     -0.257297
  C      -1.068207      0.866815     -0.235107
  O       0.334212      0.979765      0.021141
  C       0.885255     -0.242414      0.144345
  O       2.051695     -0.441344      0.361313
  O      -0.038205     -1.208409     -0.010440
  H      -1.699666     -1.022005     -1.218170
  H      -2.018019     -0.989042      0.522518
  H      -1.287508      1.385278     -1.185247
  H      -1.608343      1.418065      0.554410
  Li      3.848681     -0.837512      0.713353
  C       8.773938     -1.970500      2.284263
  C       9.000414     -1.903700      0.784184
  O       7.709828     -1.593561      0.248732
  C       6.808524     -1.481295      1.241510
  O       5.644544     -1.223388      1.080445
  O       7.379772     -1.693912      2.441606
  H       9.341462     -1.228598      2.872901
  H       8.982849     -2.955621      2.737695
  H       9.705297     -1.118143      0.460130
  H       9.346105     -2.846244      0.325380
21
Coordinates from ORCA-job EC_m1_shell2_oxidized_opt_relaxed E -691.644881985175
  C      -1.327209     -0.628654     -0.256336
  C      -1.069721      0.868000     -0.234077
  O       0.332643      0.979163      0.023785
  C       0.883932     -0.244093      0.141503
  O       2.049848     -0.444741      0.357905
  O      -0.041427     -1.209013     -0.015516
  H      -1.706387     -1.019179     -1.216427
  H      -2.018368     -0.987626      0.526194
  H      -1.286720      1.386447     -1.184621
  H      -1.609242      1.419512      0.555460
  Li      3.848843     -0.839939      0.709322
  C       8.775014     -1.970195      2.285747
  C       9.004082     -1.903540      0.785854
  O       7.713498     -1.598268      0.247655
  C       6.810187     -1.482386      1.239090
  O       5.646676     -1.225265      1.075896
  O       7.381047     -1.690856      2.440905
  H       9.341988     -1.228389      2.874788
  H       8.980881     -2.955723      2.739362
  H       9.706445     -1.115511      0.462622
  H       9.352937     -2.845486      0.328555
21
Coordinates from ORCA-job EC_m1_shell2_oxidized_opt_relaxed E -691.644884036358
  C      -1.328649     -0.627895     -0.255519
  C      -1.069572      0.868655     -0.233438
  O       0.332997      0.978379      0.023895
  C       0.883502     -0.245514      0.140255
  O       2.049185     -0.447511      0.356125
  O      -0.043157     -1.209599     -0.016605
  H      -1.709039     -1.017116     -1.215645
  H      -2.019270     -0.986760      0.527393
  H      -1.286524      1.387669     -1.183559
  H      -1.608291      1.419978      0.556725
  Li      3.848860     -0.841829      0.706832
  C       8.774770     -1.969820      2.286532
  C       9.005546     -1.903007      0.786736
  O       7.715367     -1.599201      0.246973
  C       6.810693     -1.483050      1.237400
  O       5.647337     -1.226602      1.072761
  O       7.380576     -1.690564      2.440091
  H       9.340966     -1.227296      2.875371
  H       8.980345     -2.954954      2.740846
  H       9.707609     -1.114678      0.463870
  H       9.355695     -2.845028      0.330626
21
Coordinates from ORCA-job EC_m1_shell2_oxidized_opt_relaxed E -691.644887164089
  C      -1.331311     -0.626171     -0.254062
  C      -1.068611      0.870003     -0.231953
  O       0.334553      0.976269      0.023561
  C       0.882454     -0.248943      0.138456
  O       2.047765     -0.454106      0.352971
  O      -0.046870     -1.210966     -0.017543
  H      -1.713691     -1.012768     -1.214492
  H      -2.021807     -0.984477      0.529033
  H      -1.285808      1.390398     -1.181090
  H      -1.605338      1.421104      0.559695
  Li      3.848769     -0.846288      0.701753
  C       8.773846     -1.968564      2.288025
  C       9.008219     -1.901812      0.788517
  O       7.719106     -1.600064      0.245510
  C       6.811685     -1.484521      1.233673
  O       5.648500     -1.229684      1.065863
  O       7.378914     -1.690769      2.438001
  H       9.337994     -1.224234      2.876546
  H       8.979628     -2.952723      2.743950
  H       9.710277     -1.113285      0.466486
  H       9.360673     -2.844140      0.334768
21
Coordinates from ORCA-job EC_m1_shell2_oxidized_opt_relaxed E -691.644891178054
  C      -1.335341     -0.623232     -0.252166
  C      -1.066676      0.872097     -0.229385
  O       0.337541      0.972485      0.022824
  C       0.880574     -0.254829      0.136312
  O       2.045372     -0.465285      0.348490
  O      -0.052975     -1.213225     -0.018100
  H      -1.720382     -1.006155     -1.213094
  H      -2.026375     -0.980218      0.530910
  H      -1.284265      1.394755     -1.177027
  H      -1.599785      1.423297      0.564652
  Li      3.848502     -0.853816      0.693859
  C       8.772192     -1.966027      2.290217
  C       9.012251     -1.899997      0.791339
  O       7.724963     -1.600760      0.243162
  C       6.813268     -1.486935      1.227605
  O       5.650246     -1.234821      1.054666
  O       7.375916     -1.691571      2.434337
  H       9.332537     -1.218763      2.878716
  H       8.978810     -2.948666      2.748672
  H       9.714641     -1.111286      0.470763
  H       9.367933     -2.842792      0.340911
21
Coordinates from ORCA-job EC_m1_shell2_oxidized_opt_relaxed E -691.644897089365
  C      -1.342447     -0.617678     -0.249246
  C      -1.062838      0.875769     -0.224463
  O       0.343251      0.965197      0.021825
  C       0.877028     -0.265964      0.133028
  O       2.040879     -0.486128      0.340842
  O      -0.064186     -1.217377     -0.018677
  H      -1.732036     -0.994862     -1.210770
  H      -2.034919     -0.971720      0.533830
  H      -1.280793      1.402488     -1.169629
  H      -1.588924      1.427939      0.573636
  Li      3.847926     -0.867795      0.679741
  C       8.769051     -1.960831      2.293955
  C       9.019371     -1.896905      0.796491
  O       7.735445     -1.601848      0.238858
  C       6.816114     -1.491322      1.216458
  O       5.653386     -1.244251      1.034222
  O       7.370354     -1.692957      2.427368
  H       9.321947     -1.208634      2.883330
  H       8.977327     -2.940929      2.756774
  H       9.722413     -1.107684      0.478755
  H       9.380597     -2.840250      0.351338
21
Coordinates from ORCA-job EC_m1_shell2_oxidized_opt_relaxed E -691.644895470818
  C      -1.342596     -0.614620     -0.252782
  C      -1.061227      0.878205     -0.218903
  O       0.345390      0.965403      0.026606
  C       0.876504     -0.268060      0.133527
  O       2.040110     -0.491095      0.340622
  O      -0.066081     -1.218373     -0.022185
  H      -1.731073     -0.985692     -1.216894
  H      -2.037545     -0.971814      0.526378
  H      -1.279900      1.410976     -1.160506
  H      -1.586197      1.425791      0.582655
  Li      3.847714     -0.870518      0.677536
  C       8.768145     -1.954543      2.296288
  C       9.019545     -1.899582      0.798772
  O       7.736813     -1.605252      0.237456
  C       6.816426     -1.491381      1.214652
  O       5.653714     -1.245313      1.029874
  O       7.368771     -1.688258      2.427912
  H       9.319772     -1.198437      2.881278
  H       8.978106     -2.931430      2.765135
  H       9.724263     -1.113685      0.477276
  H       9.380015     -2.845728      0.359489
21
Coordinates from ORCA-job EC_m1_shell2_oxidized_opt_relaxed E -691.644901976592
  C      -1.342825     -0.613808     -0.253294
  C      -1.060976      0.878538     -0.218336
  O       0.345688      0.964411      0.027086
  C       0.876651     -0.268608      0.133727
  O       2.040075     -0.492078      0.340614
  O      -0.066433     -1.217538     -0.022293
  H      -1.730764     -0.985426     -1.217733
  H      -2.038360     -0.970998      0.525780
  H      -1.279249      1.411920     -1.159787
  H      -1.585127      1.426767      0.583848
  Li      3.847659     -0.871123      0.677194
  C       8.768055     -1.953764      2.296457
  C       9.019812     -1.899835      0.799322
  O       7.737009     -1.605406      0.238219
  C       6.816219     -1.491268      1.214314
  O       5.653634     -1.245495      1.029199
  O       7.368642     -1.687710      2.426977
  H       9.318926     -1.197280      2.882338
  H       8.977881     -2.930612      2.765697
  H       9.724838     -1.113910      0.477582
  H       9.379635     -2.846327      0.359543
21
Coordinates from ORCA-job EC_m1_shell2_oxidized_opt_relaxed E -691.644903263017
  C      -1.342917     -0.613264     -0.253284
  C      -1.060550      0.878920     -0.217860
  O       0.346139      0.964036      0.027376
  C       0.876723     -0.269039      0.133697
  O       2.040081     -0.492949      0.340446
  O      -0.066735     -1.217308     -0.022311
  H      -1.730783     -0.985189     -1.217630
  H      -2.038611     -0.970271      0.525776
  H      -1.278673      1.412632     -1.159175
  H      -1.583998      1.427574      0.584509
  Li      3.847626     -0.871673      0.676781
  C       8.767734     -1.953260      2.296762
  C       9.019899     -1.899736      0.799733
  O       7.737195     -1.605410      0.238412
  C       6.816126     -1.491226      1.214024
  O       5.653557     -1.245685      1.028539
  O       7.368322     -1.687358      2.426646
  H       9.317993     -1.196792      2.883244
  H       8.977479     -2.930080      2.766154
  H       9.724967     -1.113797      0.478055
  H       9.379568     -2.846155      0.359680
21
Coordinates from ORCA-job EC_m1_shell2_oxidized_opt_relaxed E -691.644903807526
  C      -1.342927     -0.612872     -0.253495
  C      -1.060152      0.879211     -0.217765
  O       0.346514      0.963839      0.027707
  C       0.876734     -0.269369      0.133972
  O       2.040057     -0.493653      0.340560
  O      -0.066950     -1.217235     -0.022331
  H      -1.730647     -0.984946     -1.217829
  H      -2.038881     -0.969689      0.525438
  H      -1.277965      1.413093     -1.159069
  H      -1.583373      1.428169      0.584534
  Li      3.847578     -0.872086      0.676600
  C       8.767503     -1.952963      2.296924
  C       9.019917     -1.899685      0.799945
  O       7.737274     -1.605431      0.238432
  C       6.816058     -1.491113      1.213809
  O       5.653479     -1.245774      1.028055
  O       7.368093     -1.687011      2.426480
  H       9.317497     -1.196600      2.883776
  H       8.977143     -2.929805      2.766373
  H       9.725023     -1.113738      0.478330
  H       9.379551     -2.846040      0.359751
