21
Coordinates from ORCA-job EC_m1_shell2_reduced_opt_relaxed E -692.230319588167
  C          -0.76109706830962     -0.70399377893596     -0.41909233684926
  C          -0.30180872763400      0.73172285234499     -0.69674231967350
  O           1.02831845880022      0.74353908447915     -0.20000319617296
  C           0.99730708006319     -0.07835543352810      0.96172448883358
  O           2.12469985606115     -0.47569149515772      1.40592870139698
  O           0.00521115816253     -1.08968555602370      0.72000279849413
  H          -0.52680717585770     -1.37168272305658     -1.26239803901240
  H          -1.83322523841888     -0.77223777929733     -0.19511389004193
  H          -0.28510777855344      0.98777529401228     -1.76037563277584
  H          -0.92463605835409      1.45907903609806     -0.15134152100553
  Li          3.55366545423172     -1.10643483178791      2.00550393900064
  C           8.67105973327526     -1.83566515287361      1.76665081639387
  C           8.04628430120906     -1.64436183271244      0.38427640194173
  O           6.68579102895079     -1.26123858199722      0.70359403510688
  C           6.42322071610762     -1.62215993938101      1.97105454489171
  O           5.32365275323045     -1.57510611716977      2.47604092374799
  O           7.51681605311576     -2.06548848678965      2.61100207417539
  H           9.18577984987527     -0.93974350269134      2.12968847192243
  H           9.32719623496355     -2.70440842428106      1.83855686170142
  H           8.50104197889828     -0.84280796901432     -0.19970596923087
  H           8.01158339018274     -2.56879766223673     -0.20158615284450
