13
 energy: -23.972719084903 gnorm: 0.000621932898 xtb: 6.7.1pre (5071a88)
C            1.64859084749671       -0.32809101222892        0.16378077376435
C            0.12502084913831       -0.43774101582971        0.26227383053401
C           -0.56873506836098        0.95374094534466        0.35028609179524
O           -1.28745076412533        1.08056487970717       -0.82968241593399
C           -1.61593583842577       -0.28385032621874       -1.27335188838789
O           -2.74936561666055       -0.77305704614165       -1.00404246054582
O           -0.40027052301217       -1.02245544020597       -0.88820053122266
H            2.05706469774990        0.11266379312808        1.07305784604597
H            1.91253081910823        0.29137758957559       -0.69038064888860
H            2.07751420605268       -1.31799918522718        0.02070480421476
H           -0.13239307045179       -1.03918732098499        1.15705940979564
H            0.16396443047769        1.77120171343916        0.42373185904455
H           -1.23053495898669        0.99283243564247        1.23476331978441
