13
 energy: -23.299577840623 gnorm: 0.000620279176 xtb: 6.7.1pre (5071a88)
C            1.64390271076784       -0.36546746582877        0.10430846133135
C            0.13931325445036       -0.37371566042295        0.33699189567688
C           -0.62010144672184        0.94809860093163        0.50303636320815
O           -1.71742012631382        0.82114146185126       -0.33532571762237
C           -1.63397685518027       -0.29917953968889       -1.09044548780761
O           -2.31991250269795       -0.59227624290359       -1.99373085962819
O           -0.58524011200903       -1.05398843612024       -0.62300192275388
H            2.15190058139499        0.20774012625042        0.87531681512189
H            1.85271914931825        0.06452409154264       -0.88106246667900
H            2.04336911960746       -1.37987444329588        0.08414542331924
H            0.04501692162254       -0.97347879729398        1.28084477437639
H           -0.01059564607331        1.82512135210629        0.21786342560065
H           -0.98897503816514        1.17135496287205        1.52105928585648
