13

C   1.63250908 -0.32431777  0.20598816
C   0.12239050 -0.40181966  0.30138502
C  -0.54066668  0.93594564  0.43274516
O  -1.81923148  0.70081460 -0.13016357
C  -1.66484107 -0.31764882 -1.02928473
O  -2.51115549 -0.65948524 -1.83684917
O  -0.43401469 -0.89978006 -0.90443251
H   2.06586548  0.10139960  1.11581429
H   1.94433371  0.28241565 -0.65128500
H   2.05440282 -1.32292945  0.05009660
H  -0.17044889 -1.07806658  1.11365310
H  -0.04839002  1.72791794 -0.14250930
H  -0.63075326  1.25555416  1.47484194
